<?xml version="1.0"?>
<VTKFile type="UnstructuredGrid" version="0.1" byte_order="LittleEndian">
<UnstructuredGrid>
<Piece NumberOfPoints="3142" NumberOfCells="1054">
<Points>
<DataArray type="Float64" NumberOfComponents="3" format="ascii">
0 0 0 0.049999999999899652 0 0 0.02576622439977887 0.024532886826226379 0 0 0 0 0.02576622439977887 0.024532886826226379 0 0 0.050000000000207989 0 0.049999999999899652 0 0 0.053064897599215843 0.048131547304697528 0 0.02576622439977887 0.024532886826226379 0 0 0.050000000000207989 0 0.02576622439977887 0.024532886826226379 0 0.053064897599215843 0.048131547304697528 0 0 0.10000000000041601 0 0 0.050000000000207989 0 0.044310582753132287 0.101412518374475 0 0 0.15000000000062411 0 0 0.10000000000041601 0 0.044310582753132287 0.101412518374475 0 0.083411279318303222 0.089699755330707398 0 0.044310582753132287 0.101412518374475 0 0.053064897599215843 0.048131547304697528 0 0 0.050000000000207989 0 0.053064897599215843 0.048131547304697528 0 0.044310582753132287 0.101412518374475 0 0.083411279318303222 0.089699755330707398 0 0.065374659239632718 0.1448908038746782 0 0.044310582753132287 0.101412518374475 0 0.083411279318303222 0.089699755330707398 0 0.1053400320299198 0.12877248826361379 0 0.065374659239632718 0.1448908038746782 0 0.083411279318303222 0.089699755330707398 0 0.12372429750337779 0.095814237875728972 0 0.1053400320299198 0.12877248826361379 0 0.14332333627550789 0.14578431753966009 0 0.1053400320299198 0.12877248826361379 0 0.12372429750337779 0.095814237875728972 0 0.14618258501891079 0.062070108745602003 0 0.12372429750337779 0.095814237875728972 0 0.10266856499169109 0.044518360900210059 0 0.083411279318303222 0.089699755330707398 0 0.10266856499169109 0.044518360900210059 0 0.12372429750337779 0.095814237875728972 0 0.099999999999814668 0 0 0.14999999999970359 0 0 0.10266856499169109 0.044518360900210059 0 0.049999999999899652 0 0 0.099999999999814668 0 0 0.053064897599215843 0.048131547304697528 0 0.099999999999814668 0 0 0.10266856499169109 0.044518360900210059 0 0.053064897599215843 0.048131547304697528 0 0.083411279318303222 0.089699755330707398 0 0.053064897599215843 0.048131547304697528 0 0.10266856499169109 0.044518360900210059 0 0 0.25000000000104028 0 0 0.20000000000083221 0 0.044081577119474857 0.2271058242433576 0 0 0.20000000000083221 0 0.038512288486115001 0.1844147282893184 0 0.044081577119474857 0.2271058242433576 0 0.083105206071467416 0.20007701332709979 0 0.044081577119474857 0.2271058242433576 0 0.038512288486115001 0.1844147282893184 0 0 0.15000000000062411 0 0.065374659239632718 0.1448908038746782 0 0.038512288486115001 0.1844147282893184 0 0 0.15000000000062411 0 0.044310582753132287 0.101412518374475 0 0.065374659239632718 0.1448908038746782 0 0.083105206071467416 0.20007701332709979 0 0.038512288486115001 0.1844147282893184 0 0.065374659239632718 0.1448908038746782 0 0 0.20000000000083221 0 0 0.15000000000062411 0 0.038512288486115001 0.1844147282893184 0 0.065374659239632718 0.1448908038746782 0 0.1053400320299198 0.12877248826361379 0 0.106902708054812 0.16453234188234539 0 0.14332333627550789 0.14578431753966009 0 0.106902708054812 0.16453234188234539 0 0.1053400320299198 0.12877248826361379 0 0.083105206071467416 0.20007701332709979 0 0.065374659239632718 0.1448908038746782 0 0.106902708054812 0.16453234188234539 0 0.083105206071467416 0.20007701332709979 0 0.13737030665753211 0.20313708640667491 0 0.095326043202144745 0.24554465089224409 0 0.083105206071467416 0.20007701332709979 0 0.106902708054812 0.16453234188234539 0 0.13737030665753211 0.20313708640667491 0 0.083105206071467416 0.20007701332709979 0 0.095326043202144745 0.24554465089224409 0 0.044081577119474857 0.2271058242433576 0 0.049706944316556423 0.27522722923869108 0 0.044081577119474857 0.2271058242433576 0 0.095326043202144745 0.24554465089224409 0 0.13737030665753211 0.20313708640667491 0 0.14377654328998779 0.2442024734791064 0 0.095326043202144745 0.24554465089224409 0 0.17933913398461551 0.2350063570234002 0 0.14377654328998779 0.2442024734791064 0 0.13737030665753211 0.20313708640667491 0 0.17933913398461551 0.2350063570234002 0 0.13737030665753211 0.20313708640667491 0 0.18124454140915969 0.18790916706335251 0 0.14332333627550789 0.14578431753966009 0 0.18652628422869419 0.14162325200928061 0 0.18124454140915969 0.18790916706335251 0 0.14332333627550789 0.14578431753966009 0 0.13737030665753211 0.20313708640667491 0 0.106902708054812 0.16453234188234539 0 0.14332333627550789 0.14578431753966009 0 0.18124454140915969 0.18790916706335251 0 0.13737030665753211 0.20313708640667491 0 0.14332333627550789 0.14578431753966009 0 0.16141998738593399 0.10404039647458049 0 0.18652628422869419 0.14162325200928061 0 0.2185883431182947 0.18019736283949719 0 0.18652628422869419 0.14162325200928061 0 0.22985637510995899 0.1298347970200906 0 0.2185883431182947 0.18019736283949719 0 0.22985637510995899 0.1298347970200906 0 0.25557216766470708 0.15874861286892261 0 0.2185883431182947 0.18019736283949719 0 0.25557216766470708 0.15874861286892261 0 0.26429849586623999 0.19346700179430079 0 0.2185883431182947 0.18019736283949719 0 0.18124454140915969 0.18790916706335251 0 0.18652628422869419 0.14162325200928061 0 0.17933913398461551 0.2350063570234002 0 0.18124454140915969 0.18790916706335251 0 0.224700362040408 0.22206622194729711 0 0.2185883431182947 0.18019736283949719 0 0.224700362040408 0.22206622194729711 0 0.18124454140915969 0.18790916706335251 0 0.2185883431182947 0.18019736283949719 0 0.26429849586623999 0.19346700179430079 0 0.224700362040408 0.22206622194729711 0 0.25195515620380449 0.25883339815888678 0 0.21049769590865089 0.26857363548218488 0 0.224700362040408 0.22206622194729711 0 0.17933913398461551 0.2350063570234002 0 0.224700362040408 0.22206622194729711 0 0.21049769590865089 0.26857363548218488 0 0.14999999999970359 0 0 0.184418230509967 0.038773194583122873 0 0.14618258501891079 0.062070108745602003 0 0.19922788606653311 0.085920220746880993 0 0.14618258501891079 0.062070108745602003 0 0.184418230509967 0.038773194583122873 0 0.14999999999970359 0 0 0.19999999999955789 0 0 0.184418230509967 0.038773194583122873 0 0.14999999999970359 0 0 0.14618258501891079 0.062070108745602003 0 0.10266856499169109 0.044518360900210059 0 0.14618258501891079 0.062070108745602003 0 0.16141998738593399 0.10404039647458049 0 0.12372429750337779 0.095814237875728972 0 0.14332333627550789 0.14578431753966009 0 0.12372429750337779 0.095814237875728972 0 0.16141998738593399 0.10404039647458049 0 0.19922788606653311 0.085920220746880993 0 0.18652628422869419 0.14162325200928061 0 0.16141998738593399 0.10404039647458049 0 0.19922788606653311 0.085920220746880993 0 0.16141998738593399 0.10404039647458049 0 0.14618258501891079 0.062070108745602003 0 0.19922788606653311 0.085920220746880993 0 0.22985637510995899 0.1298347970200906 0 0.18652628422869419 0.14162325200928061 0 0.19922788606653311 0.085920220746880993 0 0.24218496799700481 0.089025544070598317 0 0.22985637510995899 0.1298347970200906 0 0.27474541102162192 0.11822029332053539 0 0.22985637510995899 0.1298347970200906 0 0.24218496799700481 0.089025544070598317 0 0.19922788606653311 0.085920220746880993 0 0.22668068146512929 0.045875643423131329 0 0.24218496799700481 0.089025544070598317 0 0.27499999999933927 0.060310814194988557 0 0.24218496799700481 0.089025544070598317 0 0.22668068146512929 0.045875643423131329 0 0.19922788606653311 0.085920220746880993 0 0.184418230509967 0.038773194583122873 0 0.22668068146512929 0.045875643423131329 0 0.19999999999955789 0 0 0.22668068146512929 0.045875643423131329 0 0.184418230509967 0.038773194583122873 0 0.19999999999955789 0 0 0.24999999999941211 0 0 0.22668068146512929 0.045875643423131329 0 0.24999999999941211 0 0 0.29999999999926641 0 0 0.27499999999933927 0.060310814194988557 0 0.24999999999941211 0 0 0.27499999999933927 0.060310814194988557 0 0.22668068146512929 0.045875643423131329 0 0.29999999999926641 0 0 0.32541448401678508 0.046215317981507749 0 0.27499999999933927 0.060310814194988557 0 0.29999999999926641 0 0 0.34999999999912063 0 0 0.32541448401678508 0.046215317981507749 0 0.35312867752657662 0.084946736076730367 0 0.32541448401678508 0.046215317981507749 0 0.3615861437013822 0.03582617922508851 0 0.35312867752657662 0.084946736076730367 0 0.3615861437013822 0.03582617922508851 0 0.39591832466117061 0.056982757562006353 0 0.34999999999912063 0 0 0.3615861437013822 0.03582617922508851 0 0.32541448401678508 0.046215317981507749 0 0.34999999999912063 0 0 0.3999999999989749 0 0 0.3615861437013822 0.03582617922508851 0 0.35312867752657662 0.084946736076730367 0 0.39823268594401579 0.1116623613130045 0 0.36246644853392812 0.1399454205365751 0 0.35312867752657662 0.084946736076730367 0 0.36246644853392812 0.1399454205365751 0 0.32215584939770009 0.1218492143506909 0 0.35312867752657662 0.084946736076730367 0 0.3096713403101819 0.085471541595262421 0 0.32541448401678508 0.046215317981507749 0 0.35312867752657662 0.084946736076730367 0 0.32215584939770009 0.1218492143506909 0 0.3096713403101819 0.085471541595262421 0 0.27474541102162192 0.11822029332053539 0 0.3096713403101819 0.085471541595262421 0 0.32215584939770009 0.1218492143506909 0 0.27499999999933927 0.060310814194988557 0 0.32541448401678508 0.046215317981507749 0 0.3096713403101819 0.085471541595262421 0 0.3096713403101819 0.085471541595262421 0 0.27474541102162192 0.11822029332053539 0 0.27499999999933927 0.060310814194988557 0 0.27499999999933927 0.060310814194988557 0 0.27474541102162192 0.11822029332053539 0 0.24218496799700481 0.089025544070598317 0 0.27474541102162192 0.11822029332053539 0 0.25557216766470708 0.15874861286892261 0 0.22985637510995899 0.1298347970200906 0 0.27474541102162192 0.11822029332053539 0 0.29336099386129338 0.15892013001050981 0 0.25557216766470708 0.15874861286892261 0 0.26429849586623999 0.19346700179430079 0 0.25557216766470708 0.15874861286892261 0 0.29336099386129338 0.15892013001050981 0 0.33084213324567391 0.16272720141332131 0 0.31255190597181792 0.19850845631528771 0 0.29336099386129338 0.15892013001050981 0 0.26429849586623999 0.19346700179430079 0 0.29336099386129338 0.15892013001050981 0 0.31255190597181792 0.19850845631528771 0 0.27474541102162192 0.11822029332053539 0 0.32215584939770009 0.1218492143506909 0 0.29336099386129338 0.15892013001050981 0 0.28040350263641872 0.23054717217092141 0 0.25195515620380449 0.25883339815888678 0 0.224700362040408 0.22206622194729711 0 0.26429849586623999 0.19346700179430079 0 0.28040350263641872 0.23054717217092141 0 0.224700362040408 0.22206622194729711 0 0.26429849586623999 0.19346700179430079 0 0.31255190597181792 0.19850845631528771 0 0.28040350263641872 0.23054717217092141 0 0.33758650185219202 0.23837101504325639 0 0.29132859388405002 0.27203693976649962 0 0.28040350263641872 0.23054717217092141 0 0.33758650185219202 0.23837101504325639 0 0.28040350263641872 0.23054717217092141 0 0.31255190597181792 0.19850845631528771 0 0.33758650185219202 0.23837101504325639 0 0.31255190597181792 0.19850845631528771 0 0.3572130504031617 0.1874703368446563 0 0.33758650185219202 0.23837101504325639 0 0.3572130504031617 0.1874703368446563 0 0.38831533174504851 0.2189834941785925 0 0.33758650185219202 0.23837101504325639 0 0.38831533174504851 0.2189834941785925 0 0.3786248352540974 0.27082301512024259 0 0.33084213324567391 0.16272720141332131 0 0.29336099386129338 0.15892013001050981 0 0.32215584939770009 0.1218492143506909 0 0.33084213324567391 0.16272720141332131 0 0.32215584939770009 0.1218492143506909 0 0.36246644853392812 0.1399454205365751 0 0.33084213324567391 0.16272720141332131 0 0.3572130504031617 0.1874703368446563 0 0.31255190597181792 0.19850845631528771 0 0.39801143831225599 0.16651381068160659 0 0.3572130504031617 0.1874703368446563 0 0.36246644853392812 0.1399454205365751 0 0.33084213324567391 0.16272720141332131 0 0.36246644853392812 0.1399454205365751 0 0.3572130504031617 0.1874703368446563 0 0.39801143831225599 0.16651381068160659 0 0.36246644853392812 0.1399454205365751 0 0.39823268594401579 0.1116623613130045 0 0.39801143831225599 0.16651381068160659 0 0.44288491854585582 0.14116182884956319 0 0.42905200079338551 0.19982395548231649 0 0.39801143831225599 0.16651381068160659 0 0.39823268594401579 0.1116623613130045 0 0.44288491854585582 0.14116182884956319 0 0.42377727103934271 0.25099357235810238 0 0.3786248352540974 0.27082301512024259 0 0.38831533174504851 0.2189834941785925 0 0.39801143831225599 0.16651381068160659 0 0.38831533174504851 0.2189834941785925 0 0.3572130504031617 0.1874703368446563 0 0.39801143831225599 0.16651381068160659 0 0.42905200079338551 0.19982395548231649 0 0.38831533174504851 0.2189834941785925 0 0.42377727103934271 0.25099357235810238 0 0.38831533174504851 0.2189834941785925 0 0.42905200079338551 0.19982395548231649 0 0.42377727103934271 0.25099357235810238 0 0.42905200079338551 0.19982395548231649 0 0.46429753744194407 0.22870891180733599 0 0.47357141910802508 0.1873585799078378 0 0.46429753744194407 0.22870891180733599 0 0.42905200079338551 0.19982395548231649 0 0.47357141910802508 0.1873585799078378 0 0.51729576145820033 0.1683240575987815 0 0.50760557329222289 0.20700468884612061 0 0.47357141910802508 0.1873585799078378 0 0.50760557329222289 0.20700468884612061 0 0.46429753744194407 0.22870891180733599 0 0.49695729691142171 0.25014895411178018 0 0.46429753744194407 0.22870891180733599 0 0.50760557329222289 0.20700468884612061 0 0.47357141910802508 0.1873585799078378 0 0.44288491854585582 0.14116182884956319 0 0.48466639505193998 0.1421439844745814 0 0.47357141910802508 0.1873585799078378 0 0.42905200079338551 0.19982395548231649 0 0.44288491854585582 0.14116182884956319 0 0.47357141910802508 0.1873585799078378 0 0.48466639505193998 0.1421439844745814 0 0.51729576145820033 0.1683240575987815 0 0.44288491854585582 0.14116182884956319 0 0.47881186583059909 0.093591717165689425 0 0.48466639505193998 0.1421439844745814 0 0.51076801031701946 0.1202837388510348 0 0.48466639505193998 0.1421439844745814 0 0.47881186583059909 0.093591717165689425 0 0.43698630808430822 0.080423614171545449 0 0.47881186583059909 0.093591717165689425 0 0.44288491854585582 0.14116182884956319 0 0.43698630808430822 0.080423614171545449 0 0.47040171442036788 0.044141676406503738 0 0.47881186583059909 0.093591717165689425 0 0.52375890611712683 0.059318771819432882 0 0.47881186583059909 0.093591717165689425 0 0.47040171442036788 0.044141676406503738 0 0.49999999999869432 0 0 0.52375890611712683 0.059318771819432882 0 0.47040171442036788 0.044141676406503738 0 0.44999999999882923 0 0 0.49999999999869432 0 0 0.47040171442036788 0.044141676406503738 0 0.44999999999882923 0 0 0.47040171442036788 0.044141676406503738 0 0.4320097814748517 0.037406712692169303 0 0.43698630808430822 0.080423614171545449 0 0.4320097814748517 0.037406712692169303 0 0.47040171442036788 0.044141676406503738 0 0.3999999999989749 0 0 0.4320097814748517 0.037406712692169303 0 0.39591832466117061 0.056982757562006353 0 0.43698630808430822 0.080423614171545449 0 0.39591832466117061 0.056982757562006353 0 0.4320097814748517 0.037406712692169303 0 0.3999999999989749 0 0 0.44999999999882923 0 0 0.4320097814748517 0.037406712692169303 0 0.3999999999989749 0 0 0.39591832466117061 0.056982757562006353 0 0.3615861437013822 0.03582617922508851 0 0.35312867752657662 0.084946736076730367 0 0.39591832466117061 0.056982757562006353 0 0.39823268594401579 0.1116623613130045 0 0.43698630808430822 0.080423614171545449 0 0.44288491854585582 0.14116182884956319 0 0.39823268594401579 0.1116623613130045 0 0.43698630808430822 0.080423614171545449 0 0.39823268594401579 0.1116623613130045 0 0.39591832466117061 0.056982757562006353 0 0.43249999999999988 0.43937499999999979 0 0.38707855792647411 0.42299362914874578 0 0.42161023666869668 0.39493916313643851 0 0.38083244760691543 0.38531983672244652 0 0.42161023666869668 0.39493916313643851 0 0.38707855792647411 0.42299362914874578 0 0.38083244760691543 0.38531983672244652 0 0.40076539126862748 0.34589349467022118 0 0.42161023666869668 0.39493916313643851 0 0.43249999999999988 0.43937499999999979 0 0.3908716102680424 0.47010282357248828 0 0.38707855792647411 0.42299362914874578 0 0.38244435121258652 0.51653317813019495 0 0.3908716102680424 0.47010282357248828 0 0.43507373378304309 0.49699695397193322 0 0.43249999999999988 0.43937499999999979 0 0.43507373378304309 0.49699695397193322 0 0.3908716102680424 0.47010282357248828 0 0.43249999999999988 0.43937499999999979 0 0.46111841286828259 0.46690301029591341 0 0.43507373378304309 0.49699695397193322 0 0.43249999999999988 0.43937499999999979 0 0.48858720058566618 0.43964267759203868 0 0.46111841286828259 0.46690301029591341 0 0.49102375406324739 0.49123754822244059 0 0.43507373378304309 0.49699695397193322 0 0.46111841286828259 0.46690301029591341 0 0.49102375406324739 0.49123754822244059 0 0.46111841286828259 0.46690301029591341 0 0.48858720058566618 0.43964267759203868 0 0.52289427570932567 0.3932284363388488 0 0.48858720058566618 0.43964267759203868 0 0.46655310992796922 0.39650496622958609 0 0.43249999999999988 0.43937499999999979 0 0.46655310992796922 0.39650496622958609 0 0.48858720058566618 0.43964267759203868 0 0.43249999999999988 0.43937499999999979 0 0.42161023666869668 0.39493916313643851 0 0.46655310992796922 0.39650496622958609 0 0.4409427642593301 0.35743108089689513 0 0.46655310992796922 0.39650496622958609 0 0.42161023666869668 0.39493916313643851 0 0.52289427570932567 0.3932284363388488 0 0.46655310992796922 0.39650496622958609 0 0.49077833859261139 0.35229981449445641 0 0.5 0.29999999999999999 0 0.49077833859261139 0.35229981449445641 0 0.46226845272279993 0.31901800744800313 0 0.4409427642593301 0.35743108089689513 0 0.46226845272279993 0.31901800744800313 0 0.49077833859261139 0.35229981449445641 0 0.4409427642593301 0.35743108089689513 0 0.41914690343363781 0.30688979866601612 0 0.46226845272279993 0.31901800744800313 0 0.4409427642593301 0.35743108089689513 0 0.49077833859261139 0.35229981449445641 0 0.46655310992796922 0.39650496622958609 0 0.5 0.29999999999999999 0 0.4604742573284204 0.27846934318264788 0 0.49695729691142171 0.25014895411178018 0 0.49695729691142171 0.25014895411178018 0 0.4604742573284204 0.27846934318264788 0 0.46429753744194407 0.22870891180733599 0 0.5 0.29999999999999999 0 0.46226845272279993 0.31901800744800313 0 0.4604742573284204 0.27846934318264788 0 0.41914690343363781 0.30688979866601612 0 0.4604742573284204 0.27846934318264788 0 0.46226845272279993 0.31901800744800313 0 0.42377727103934271 0.25099357235810238 0 0.46429753744194407 0.22870891180733599 0 0.4604742573284204 0.27846934318264788 0 0.42377727103934271 0.25099357235810238 0 0.4604742573284204 0.27846934318264788 0 0.41914690343363781 0.30688979866601612 0 0.42377727103934271 0.25099357235810238 0 0.41914690343363781 0.30688979866601612 0 0.3786248352540974 0.27082301512024259 0 0.36575549820117997 0.31677992835137742 0 0.3786248352540974 0.27082301512024259 0 0.41914690343363781 0.30688979866601612 0 0.4409427642593301 0.35743108089689513 0 0.42161023666869668 0.39493916313643851 0 0.40076539126862748 0.34589349467022118 0 0.4409427642593301 0.35743108089689513 0 0.40076539126862748 0.34589349467022118 0 0.41914690343363781 0.30688979866601612 0 0.36575549820117997 0.31677992835137742 0 0.41914690343363781 0.30688979866601612 0 0.40076539126862748 0.34589349467022118 0 0.40076539126862748 0.34589349467022118 0 0.33277555741076909 0.36432196682010132 0 0.36575549820117997 0.31677992835137742 0 0.38083244760691543 0.38531983672244652 0 0.33277555741076909 0.36432196682010132 0 0.40076539126862748 0.34589349467022118 0 0.36575549820117997 0.31677992835137742 0 0.33277555741076909 0.36432196682010132 0 0.32752639306529541 0.32610012995269699 0 0.33277555741076909 0.36432196682010132 0 0.29644548887253103 0.34914008784168082 0 0.32752639306529541 0.32610012995269699 0 0.33758650185219202 0.23837101504325639 0 0.3786248352540974 0.27082301512024259 0 0.33402499257867951 0.28911035184473982 0 0.36575549820117997 0.31677992835137742 0 0.33402499257867951 0.28911035184473982 0 0.3786248352540974 0.27082301512024259 0 0.36575549820117997 0.31677992835137742 0 0.32752639306529541 0.32610012995269699 0 0.33402499257867951 0.28911035184473982 0 0.29348325746214782 0.31350119524708198 0 0.33402499257867951 0.28911035184473982 0 0.32752639306529541 0.32610012995269699 0 0.33758650185219202 0.23837101504325639 0 0.33402499257867951 0.28911035184473982 0 0.29132859388405002 0.27203693976649962 0 0.29348325746214782 0.31350119524708198 0 0.29132859388405002 0.27203693976649962 0 0.33402499257867951 0.28911035184473982 0 0.29348325746214782 0.31350119524708198 0 0.24432083401701241 0.3006253385567515 0 0.29132859388405002 0.27203693976649962 0 0.25195515620380449 0.25883339815888678 0 0.29132859388405002 0.27203693976649962 0 0.24432083401701241 0.3006253385567515 0 0.25195515620380449 0.25883339815888678 0 0.28040350263641872 0.23054717217092141 0 0.29132859388405002 0.27203693976649962 0 0.27866744612395528 0.38416094670951489 0 0.29644548887253103 0.34914008784168082 0 0.33277555741076909 0.36432196682010132 0 0.29348325746214782 0.31350119524708198 0 0.32752639306529541 0.32610012995269699 0 0.29644548887253103 0.34914008784168082 0 0.29348325746214782 0.31350119524708198 0 0.29644548887253103 0.34914008784168082 0 0.25966125648670141 0.34351016742083729 0 0.29348325746214782 0.31350119524708198 0 0.25966125648670141 0.34351016742083729 0 0.24432083401701241 0.3006253385567515 0 0.27866744612395528 0.38416094670951489 0 0.25966125648670141 0.34351016742083729 0 0.29644548887253103 0.34914008784168082 0 0.27866744612395528 0.38416094670951489 0 0.22033343844674469 0.36963382230740238 0 0.25966125648670141 0.34351016742083729 0 0.27866744612395528 0.38416094670951489 0 0.29124338931648802 0.43334555462578611 0 0.24049127783545701 0.41270748208749802 0 0.29124338931648802 0.43334555462578611 0 0.25982634974572738 0.46097799597715272 0 0.24049127783545701 0.41270748208749802 0 0.27866744612395528 0.38416094670951489 0 0.31778888742534622 0.40581751814196781 0 0.29124338931648802 0.43334555462578611 0 0.27866744612395528 0.38416094670951489 0 0.33277555741076909 0.36432196682010132 0 0.31778888742534622 0.40581751814196781 0 0.33277555741076909 0.36432196682010132 0 0.35221190152536241 0.40457127605439203 0 0.31778888742534622 0.40581751814196781 0 0.34258405725730701 0.4444034294386992 0 0.31778888742534622 0.40581751814196781 0 0.35221190152536241 0.40457127605439203 0 0.34258405725730701 0.4444034294386992 0 0.29124338931648802 0.43334555462578611 0 0.31778888742534622 0.40581751814196781 0 0.34258405725730701 0.4444034294386992 0 0.35221190152536241 0.40457127605439203 0 0.38707855792647411 0.42299362914874578 0 0.38083244760691543 0.38531983672244652 0 0.38707855792647411 0.42299362914874578 0 0.35221190152536241 0.40457127605439203 0 0.38083244760691543 0.38531983672244652 0 0.35221190152536241 0.40457127605439203 0 0.33277555741076909 0.36432196682010132 0 0.38244435121258652 0.51653317813019495 0 0.35024835142131061 0.48654922671676981 0 0.3908716102680424 0.47010282357248828 0 0.34258405725730701 0.4444034294386992 0 0.3908716102680424 0.47010282357248828 0 0.35024835142131061 0.48654922671676981 0 0.34258405725730701 0.4444034294386992 0 0.38707855792647411 0.42299362914874578 0 0.3908716102680424 0.47010282357248828 0 0.34258405725730701 0.4444034294386992 0 0.31068898841644388 0.47541502461811092 0 0.29124338931648802 0.43334555462578611 0 0.35024835142131061 0.48654922671676981 0 0.33190227185843768 0.52715113583864037 0 0.31068898841644388 0.47541502461811092 0 0.34258405725730701 0.4444034294386992 0 0.35024835142131061 0.48654922671676981 0 0.31068898841644388 0.47541502461811092 0 0.28307294598219601 0.50789252727458634 0 0.25982634974572738 0.46097799597715272 0 0.31068898841644388 0.47541502461811092 0 0.29124338931648802 0.43334555462578611 0 0.31068898841644388 0.47541502461811092 0 0.25982634974572738 0.46097799597715272 0 0.28307294598219601 0.50789252727458634 0 0.23975172658309729 0.49475499200540818 0 0.25982634974572738 0.46097799597715272 0 0.22278230690790279 0.44824268025881547 0 0.23975172658309729 0.49475499200540818 0 0.19604738184454831 0.47787523520405789 0 0.22278230690790279 0.44824268025881547 0 0.19604738184454831 0.47787523520405789 0 0.191953871957803 0.42546416763755879 0 0.22278230690790279 0.44824268025881547 0 0.24049127783545701 0.41270748208749802 0 0.25982634974572738 0.46097799597715272 0 0.22278230690790279 0.44824268025881547 0 0.25982634974572738 0.46097799597715272 0 0.23975172658309729 0.49475499200540818 0 0.27866744612395528 0.38416094670951489 0 0.24049127783545701 0.41270748208749802 0 0.22033343844674469 0.36963382230740238 0 0.1650278706801647 0.38791388161335733 0 0.22033343844674469 0.36963382230740238 0 0.191953871957803 0.42546416763755879 0 0.22033343844674469 0.36963382230740238 0 0.24049127783545701 0.41270748208749802 0 0.191953871957803 0.42546416763755879 0 0.22278230690790279 0.44824268025881547 0 0.191953871957803 0.42546416763755879 0 0.24049127783545701 0.41270748208749802 0 0.15801167086041079 0.46008690540259539 0 0.13773355295499351 0.42497777642586831 0 0.191953871957803 0.42546416763755879 0 0.1650278706801647 0.38791388161335733 0 0.191953871957803 0.42546416763755879 0 0.13773355295499351 0.42497777642586831 0 0.1650278706801647 0.38791388161335733 0 0.13773355295499351 0.42497777642586831 0 0.1117088112799664 0.38831403004970022 0 0.15801167086041079 0.46008690540259539 0 0.113541300460994 0.46208784312094731 0 0.13773355295499351 0.42497777642586831 0 0.1216098864341134 0.50637075089503902 0 0.113541300460994 0.46208784312094731 0 0.15801167086041079 0.46008690540259539 0 0.1216098864341134 0.50637075089503902 0 0.15801167086041079 0.46008690540259539 0 0.16618607197337229 0.50652878253548905 0 0.15801167086041079 0.46008690540259539 0 0.19604738184454831 0.47787523520405789 0 0.16618607197337229 0.50652878253548905 0 0.15801167086041079 0.46008690540259539 0 0.191953871957803 0.42546416763755879 0 0.19604738184454831 0.47787523520405789 0 0.25195515620380449 0.25883339815888678 0 0.24432083401701241 0.3006253385567515 0 0.21049769590865089 0.26857363548218488 0 0.19670163708476801 0.31472518408333222 0 0.21049769590865089 0.26857363548218488 0 0.24432083401701241 0.3006253385567515 0 0.19670163708476801 0.31472518408333222 0 0.168349569971391 0.28054490850913671 0 0.21049769590865089 0.26857363548218488 0 0.19670163708476801 0.31472518408333222 0 0.22615676742807109 0.33458786033114157 0 0.18434624290945251 0.35208838264196463 0 0.19670163708476801 0.31472518408333222 0 0.24432083401701241 0.3006253385567515 0 0.22615676742807109 0.33458786033114157 0 0.24432083401701241 0.3006253385567515 0 0.25966125648670141 0.34351016742083729 0 0.22615676742807109 0.33458786033114157 0 0.22033343844674469 0.36963382230740238 0 0.22615676742807109 0.33458786033114157 0 0.25966125648670141 0.34351016742083729 0 0.22033343844674469 0.36963382230740238 0 0.18434624290945251 0.35208838264196463 0 0.22615676742807109 0.33458786033114157 0 0.1650278706801647 0.38791388161335733 0 0.18434624290945251 0.35208838264196463 0 0.22033343844674469 0.36963382230740238 0 0.1650278706801647 0.38791388161335733 0 0.14223753364722069 0.3341983344262433 0 0.18434624290945251 0.35208838264196463 0 0.1650278706801647 0.38791388161335733 0 0.1117088112799664 0.38831403004970022 0 0.14223753364722069 0.3341983344262433 0 0.19670163708476801 0.31472518408333222 0 0.18434624290945251 0.35208838264196463 0 0.14223753364722069 0.3341983344262433 0 0.19670163708476801 0.31472518408333222 0 0.14223753364722069 0.3341983344262433 0 0.168349569971391 0.28054490850913671 0 0.1247745017231483 0.27198077544791172 0 0.168349569971391 0.28054490850913671 0 0.14223753364722069 0.3341983344262433 0 0.1247745017231483 0.27198077544791172 0 0.14377654328998779 0.2442024734791064 0 0.168349569971391 0.28054490850913671 0 0.17933913398461551 0.2350063570234002 0 0.21049769590865089 0.26857363548218488 0 0.168349569971391 0.28054490850913671 0 0.17933913398461551 0.2350063570234002 0 0.168349569971391 0.28054490850913671 0 0.14377654328998779 0.2442024734791064 0 0.049706944316556423 0.27522722923869108 0 0.095326043202144745 0.24554465089224409 0 0.093851963071650835 0.30582068233324772 0 0.1247745017231483 0.27198077544791172 0 0.095326043202144745 0.24554465089224409 0 0.14377654328998779 0.2442024734791064 0 0.1247745017231483 0.27198077544791172 0 0.093851963071650835 0.30582068233324772 0 0.095326043202144745 0.24554465089224409 0 0.1247745017231483 0.27198077544791172 0 0.14223753364722069 0.3341983344262433 0 0.093851963071650835 0.30582068233324772 0 0.049706944316556423 0.27522722923869108 0 0.093851963071650835 0.30582068233324772 0 0.046389130980076937 0.32668781832131749 0 0.087545339447545459 0.35122518864182262 0 0.046389130980076937 0.32668781832131749 0 0.093851963071650835 0.30582068233324772 0 0.087545339447545459 0.35122518864182262 0 0.093851963071650835 0.30582068233324772 0 0.14223753364722069 0.3341983344262433 0 0.087545339447545459 0.35122518864182262 0 0.14223753364722069 0.3341983344262433 0 0.1117088112799664 0.38831403004970022 0 0.087545339447545459 0.35122518864182262 0 0.1117088112799664 0.38831403004970022 0 0.050583896093752537 0.38543522283434112 0 0.087545339447545459 0.35122518864182262 0 0.050583896093752537 0.38543522283434112 0 0.046389130980076937 0.32668781832131749 0 0 0.35000000000145642 0 0.046389130980076937 0.32668781832131749 0 0.050583896093752537 0.38543522283434112 0 0 0.35000000000145642 0 0 0.30000000000124832 0 0.046389130980076937 0.32668781832131749 0 0 0.30000000000124832 0 0.049706944316556423 0.27522722923869108 0 0.046389130980076937 0.32668781832131749 0 0 0.30000000000124832 0 0 0.25000000000104028 0 0.049706944316556423 0.27522722923869108 0 0 0.25000000000104028 0 0.044081577119474857 0.2271058242433576 0 0.049706944316556423 0.27522722923869108 0 0.078358742472063481 0.43365249433908948 0 0.113541300460994 0.46208784312094731 0 0.068743045408989428 0.48853989837882689 0 0.1216098864341134 0.50637075089503902 0 0.068743045408989428 0.48853989837882689 0 0.113541300460994 0.46208784312094731 0 0.113541300460994 0.46208784312094731 0 0.078358742472063481 0.43365249433908948 0 0.13773355295499351 0.42497777642586831 0 0.078358742472063481 0.43365249433908948 0 0.1117088112799664 0.38831403004970022 0 0.13773355295499351 0.42497777642586831 0 0.078358742472063481 0.43365249433908948 0 0.050583896093752537 0.38543522283434112 0 0.1117088112799664 0.38831403004970022 0 0.078358742472063481 0.43365249433908948 0 0.035463093262830522 0.42673416072819947 0 0.050583896093752537 0.38543522283434112 0 0 0.40000000000166441 0 0 0.35000000000145642 0 0.050583896093752537 0.38543522283434112 0 0 0.40000000000166441 0 0.050583896093752537 0.38543522283434112 0 0.035463093262830522 0.42673416072819947 0 0 0.45000000000187229 0 0 0.40000000000166441 0 0.035463093262830522 0.42673416072819947 0 0 0.45000000000187229 0 0.035463093262830522 0.42673416072819947 0 0.033550201249889847 0.46247875832467239 0 0 0.50000000000205869 0 0.033550201249889847 0.46247875832467239 0 0.068743045408989428 0.48853989837882689 0 0.078358742472063481 0.43365249433908948 0 0.068743045408989428 0.48853989837882689 0 0.033550201249889847 0.46247875832467239 0 0.078358742472063481 0.43365249433908948 0 0.033550201249889847 0.46247875832467239 0 0.035463093262830522 0.42673416072819947 0 0 0.50000000000205869 0 0 0.45000000000187229 0 0.033550201249889847 0.46247875832467239 0 0 0.50000000000205869 0 0.068743045408989428 0.48853989837882689 0 0.044576108720083309 0.53509043209532614 0 0 0.55000000000173355 0 0 0.50000000000205869 0 0.044576108720083309 0.53509043209532614 0 0 0.55000000000173355 0 0.044576108720083309 0.53509043209532614 0 0.034381862692950467 0.57372682250960894 0 0.077693244765132896 0.56932317963405099 0 0.034381862692950467 0.57372682250960894 0 0.044576108720083309 0.53509043209532614 0 0.068743045408989428 0.48853989837882689 0 0.085622222639554768 0.53333248912060549 0 0.044576108720083309 0.53509043209532614 0 0.1216098864341134 0.50637075089503902 0 0.085622222639554768 0.53333248912060549 0 0.068743045408989428 0.48853989837882689 0 0.077693244765132896 0.56932317963405099 0 0.044576108720083309 0.53509043209532614 0 0.085622222639554768 0.53333248912060549 0 0.077693244765132896 0.56932317963405099 0 0.085622222639554768 0.53333248912060549 0 0.1154888278694548 0.56733818459978413 0 0.085622222639554768 0.53333248912060549 0 0.1216098864341134 0.50637075089503902 0 0.1154888278694548 0.56733818459978413 0 0.077693244765132896 0.56932317963405099 0 0.1154888278694548 0.56733818459978413 0 0.1024350934457823 0.60772393977513839 0 0.086179601630648681 0.64647209519980475 0 0.050069554451969707 0.61308520079857043 0 0.1024350934457823 0.60772393977513839 0 0.077693244765132896 0.56932317963405099 0 0.1024350934457823 0.60772393977513839 0 0.050069554451969707 0.61308520079857043 0 0.077693244765132896 0.56932317963405099 0 0.050069554451969707 0.61308520079857043 0 0.034381862692950467 0.57372682250960894 0 0 0.60000000000138687 0 0 0.55000000000173355 0 0.034381862692950467 0.57372682250960894 0 0 0.65000000000104008 0 0 0.60000000000138687 0 0.050069554451969707 0.61308520079857043 0 0 0.60000000000138687 0 0.034381862692950467 0.57372682250960894 0 0.050069554451969707 0.61308520079857043 0 0 0.7000000000006934 0 0 0.65000000000104008 0 0.046634677244967337 0.671418230738282 0 0.086179601630648681 0.64647209519980475 0 0.046634677244967337 0.671418230738282 0 0.050069554451969707 0.61308520079857043 0 0 0.65000000000104008 0 0.050069554451969707 0.61308520079857043 0 0.046634677244967337 0.671418230738282 0 0 0.75000000000034661 0 0 0.7000000000006934 0 0.049706944316475897 0.72477277076253799 0 0 0.7000000000006934 0 0.046634677244967337 0.671418230738282 0 0.049706944316475897 0.72477277076253799 0 0 0.75000000000034661 0 0.049706944316475897 0.72477277076253799 0 0.04408157711937423 0.7728941757575627 0 0.049706944316475897 0.72477277076253799 0 0.1020579365089687 0.69352219419301997 0 0.090953281884486245 0.7564451946902494 0 0.1215415378367805 0.72939333680004137 0 0.090953281884486245 0.7564451946902494 0 0.1020579365089687 0.69352219419301997 0 0.049706944316475897 0.72477277076253799 0 0.046634677244967337 0.671418230738282 0 0.1020579365089687 0.69352219419301997 0 0.1215415378367805 0.72939333680004137 0 0.14335651144331049 0.75565258250209677 0 0.090953281884486245 0.7564451946902494 0 0.086179601630648681 0.64647209519980475 0 0.1020579365089687 0.69352219419301997 0 0.046634677244967337 0.671418230738282 0 0.086179601630648681 0.64647209519980475 0 0.1241190223511371 0.64391885572885044 0 0.1020579365089687 0.69352219419301997 0 0.086179601630648681 0.64647209519980475 0 0.1024350934457823 0.60772393977513839 0 0.1241190223511371 0.64391885572885044 0 0.16500388252850301 0.66612077714085194 0 0.1020579365089687 0.69352219419301997 0 0.1241190223511371 0.64391885572885044 0 0.15720202157091859 0.60665697304410315 0 0.16500388252850301 0.66612077714085194 0 0.1241190223511371 0.64391885572885044 0 0.15720202157091859 0.60665697304410315 0 0.19914261668318661 0.62286739485272158 0 0.16500388252850301 0.66612077714085194 0 0.16500388252850301 0.66612077714085194 0 0.15332765547575641 0.71200081858233666 0 0.1020579365089687 0.69352219419301997 0 0.1215415378367805 0.72939333680004137 0 0.15332765547575641 0.71200081858233666 0 0.14335651144331049 0.75565258250209677 0 0.1215415378367805 0.72939333680004137 0 0.1020579365089687 0.69352219419301997 0 0.15332765547575641 0.71200081858233666 0 0.16500388252850301 0.66612077714085194 0 0.19068556247388771 0.71028988922845504 0 0.15332765547575641 0.71200081858233666 0 0.18269480424590959 0.75905448272264375 0 0.14335651144331049 0.75565258250209677 0 0.15332765547575641 0.71200081858233666 0 0.18269480424590959 0.75905448272264375 0 0.15332765547575641 0.71200081858233666 0 0.19068556247388771 0.71028988922845504 0 0.18269480424590959 0.75905448272264375 0 0.19068556247388771 0.71028988922845504 0 0.2248999640082178 0.72584299459689172 0 0.2236846579037573 0.67380363126050236 0 0.2248999640082178 0.72584299459689172 0 0.19068556247388771 0.71028988922845504 0 0.2236846579037573 0.67380363126050236 0 0.26439878998046262 0.7048065392091396 0 0.2248999640082178 0.72584299459689172 0 0.25676291524611189 0.7436741304886243 0 0.22556077506376701 0.77837424984191617 0 0.2248999640082178 0.72584299459689172 0 0.25676291524611189 0.7436741304886243 0 0.2248999640082178 0.72584299459689172 0 0.26439878998046262 0.7048065392091396 0 0.2236846579037573 0.67380363126050236 0 0.16500388252850301 0.66612077714085194 0 0.19914261668318661 0.62286739485272158 0 0.2236846579037573 0.67380363126050236 0 0.19068556247388771 0.71028988922845504 0 0.16500388252850301 0.66612077714085194 0 0.2236846579037573 0.67380363126050236 0 0.19914261668318661 0.62286739485272158 0 0.2459498854893499 0.63248470766216769 0 0.2236846579037573 0.67380363126050236 0 0.2459498854893499 0.63248470766216769 0 0.27820712747429932 0.65530134213254643 0 0.22549374774072969 0.58452645269293457 0 0.2459498854893499 0.63248470766216769 0 0.19914261668318661 0.62286739485272158 0 0.26573297623774761 0.59828298563722948 0 0.2459498854893499 0.63248470766216769 0 0.22549374774072969 0.58452645269293457 0 0.22549374774072969 0.58452645269293457 0 0.19914261668318661 0.62286739485272158 0 0.18381867841758909 0.57774125163628387 0 0.20050006573841939 0.53248514016039872 0 0.22549374774072969 0.58452645269293457 0 0.18381867841758909 0.57774125163628387 0 0.26573297623774761 0.59828298563722948 0 0.22549374774072969 0.58452645269293457 0 0.25115337790845271 0.54719303014923271 0 0.20050006573841939 0.53248514016039872 0 0.25115337790845271 0.54719303014923271 0 0.22549374774072969 0.58452645269293457 0 0.20050006573841939 0.53248514016039872 0 0.23975172658309729 0.49475499200540818 0 0.25115337790845271 0.54719303014923271 0 0.20050006573841939 0.53248514016039872 0 0.16618607197337229 0.50652878253548905 0 0.19604738184454831 0.47787523520405789 0 0.20050006573841939 0.53248514016039872 0 0.19604738184454831 0.47787523520405789 0 0.23975172658309729 0.49475499200540818 0 0.20050006573841939 0.53248514016039872 0 0.18381867841758909 0.57774125163628387 0 0.14934928745814749 0.55042914607228977 0 0.20050006573841939 0.53248514016039872 0 0.14934928745814749 0.55042914607228977 0 0.16618607197337229 0.50652878253548905 0 0.1216098864341134 0.50637075089503902 0 0.16618607197337229 0.50652878253548905 0 0.14934928745814749 0.55042914607228977 0 0.1154888278694548 0.56733818459978413 0 0.1216098864341134 0.50637075089503902 0 0.14934928745814749 0.55042914607228977 0 0.15720202157091859 0.60665697304410315 0 0.1154888278694548 0.56733818459978413 0 0.14934928745814749 0.55042914607228977 0 0.15720202157091859 0.60665697304410315 0 0.1024350934457823 0.60772393977513839 0 0.1154888278694548 0.56733818459978413 0 0.15720202157091859 0.60665697304410315 0 0.1241190223511371 0.64391885572885044 0 0.1024350934457823 0.60772393977513839 0 0.18381867841758909 0.57774125163628387 0 0.19914261668318661 0.62286739485272158 0 0.15720202157091859 0.60665697304410315 0 0.15720202157091859 0.60665697304410315 0 0.14934928745814749 0.55042914607228977 0 0.18381867841758909 0.57774125163628387 0 0.15000000000062411 1 0 0.10000000000041601 1 0 0.10266856499240549 0.95548163909968886 0 0.083411279318375747 0.91030024466934134 0 0.10266856499240549 0.95548163909968886 0 0.053064897599294662 0.95186845269532028 0 0.050000000000207989 1 0 0.053064897599294662 0.95186845269532028 0 0.10000000000041601 1 0 0.10000000000041601 1 0 0.053064897599294662 0.95186845269532028 0 0.10266856499240549 0.95548163909968886 0 0.050000000000207989 1 0 0.025766224399875661 0.97546711317377799 0 0.053064897599294662 0.95186845269532028 0 0 1 0 0.025766224399875661 0.97546711317377799 0 0.050000000000207989 1 0 0 1 0 0 0.94999999999979179 0 0.025766224399875661 0.97546711317377799 0 0 0.94999999999979179 0 0.053064897599294662 0.95186845269532028 0 0.025766224399875661 0.97546711317377799 0 0 0.94999999999979179 0 0.0443105827531413 0.89858748162559932 0 0.053064897599294662 0.95186845269532028 0 0.083411279318375747 0.91030024466934134 0 0.053064897599294662 0.95186845269532028 0 0.0443105827531413 0.89858748162559932 0 0 0.94999999999979179 0 0 0.89999999999958358 0 0.0443105827531413 0.89858748162559932 0 0 0.89999999999958358 0 0 0.84999999999965292 0 0.0443105827531413 0.89858748162559932 0 0.083411279318375747 0.91030024466934134 0 0.0443105827531413 0.89858748162559932 0 0.065374659239661639 0.8551091961254178 0 0.083411279318375747 0.91030024466934134 0 0.065374659239661639 0.8551091961254178 0 0.10562472963403439 0.87143394428979881 0 0.083411279318375747 0.91030024466934134 0 0.1241151115713819 0.9045666525468371 0 0.10266856499240549 0.95548163909968886 0 0.14617343800780541 0.93808063414349496 0 0.10266856499240549 0.95548163909968886 0 0.1241151115713819 0.9045666525468371 0 0.14474682429600511 0.85524784522713515 0 0.1241151115713819 0.9045666525468371 0 0.10562472963403439 0.87143394428979881 0 0.083411279318375747 0.91030024466934134 0 0.10562472963403439 0.87143394428979881 0 0.1241151115713819 0.9045666525468371 0 0.14474682429600511 0.85524784522713515 0 0.10562472963403439 0.87143394428979881 0 0.1074251789111534 0.83564394292147814 0 0.083105206071452636 0.79992298667296435 0 0.1074251789111534 0.83564394292147814 0 0.065374659239661639 0.8551091961254178 0 0.065374659239661639 0.8551091961254178 0 0.1074251789111534 0.83564394292147814 0 0.10562472963403439 0.87143394428979881 0 0 0.84999999999965292 0 0.038512288486097702 0.8155852717111195 0 0.065374659239661639 0.8551091961254178 0 0 0.84999999999965292 0 0.065374659239661639 0.8551091961254178 0 0.0443105827531413 0.89858748162559932 0 0 0.84999999999965292 0 0 0.79999999999999982 0 0.038512288486097702 0.8155852717111195 0 0.083105206071452636 0.79992298667296435 0 0.065374659239661639 0.8551091961254178 0 0.038512288486097702 0.8155852717111195 0 0.083105206071452636 0.79992298667296435 0 0.038512288486097702 0.8155852717111195 0 0.04408157711937423 0.7728941757575627 0 0 0.79999999999999982 0 0.04408157711937423 0.7728941757575627 0 0.038512288486097702 0.8155852717111195 0 0 0.79999999999999982 0 0 0.75000000000034661 0 0.04408157711937423 0.7728941757575627 0 0.049706944316475897 0.72477277076253799 0 0.090953281884486245 0.7564451946902494 0 0.04408157711937423 0.7728941757575627 0 0.083105206071452636 0.79992298667296435 0 0.04408157711937423 0.7728941757575627 0 0.090953281884486245 0.7564451946902494 0 0.083105206071452636 0.79992298667296435 0 0.1382744753146134 0.79650574229207483 0 0.1074251789111534 0.83564394292147814 0 0.083105206071452636 0.79992298667296435 0 0.090953281884486245 0.7564451946902494 0 0.1382744753146134 0.79650574229207483 0 0.1382744753146134 0.79650574229207483 0 0.090953281884486245 0.7564451946902494 0 0.14335651144331049 0.75565258250209677 0 0.18269480424590959 0.75905448272264375 0 0.1382744753146134 0.79650574229207483 0 0.14335651144331049 0.75565258250209677 0 0.18269480424590959 0.75905448272264375 0 0.17777405986036951 0.81832336108265358 0 0.1382744753146134 0.79650574229207483 0 0.18269480424590959 0.75905448272264375 0 0.2248999640082178 0.72584299459689172 0 0.22556077506376701 0.77837424984191617 0 0.21858834311891909 0.81980263716112767 0 0.22556077506376701 0.77837424984191617 0 0.26104540868854792 0.81401944968719064 0 0.21858834311891909 0.81980263716112767 0 0.17777405986036951 0.81832336108265358 0 0.22556077506376701 0.77837424984191617 0 0.18269480424590959 0.75905448272264375 0 0.22556077506376701 0.77837424984191617 0 0.17777405986036951 0.81832336108265358 0 0.21858834311891909 0.81980263716112767 0 0.19741632902693801 0.86755867406447229 0 0.17777405986036951 0.81832336108265358 0 0.21858834311891909 0.81980263716112767 0 0.26104540868854792 0.81401944968719064 0 0.2401283238295133 0.85648409884788523 0 0.21858834311891909 0.81980263716112767 0 0.2401283238295133 0.85648409884788523 0 0.19741632902693801 0.86755867406447229 0 0.14474682429600511 0.85524784522713515 0 0.17777405986036951 0.81832336108265358 0 0.19741632902693801 0.86755867406447229 0 0.14474682429600511 0.85524784522713515 0 0.19741632902693801 0.86755867406447229 0 0.16206583317966519 0.89685560785156404 0 0.14474682429600511 0.85524784522713515 0 0.1382744753146134 0.79650574229207483 0 0.17777405986036951 0.81832336108265358 0 0.14474682429600511 0.85524784522713515 0 0.1074251789111534 0.83564394292147814 0 0.1382744753146134 0.79650574229207483 0 0.14474682429600511 0.85524784522713515 0 0.16206583317966519 0.89685560785156404 0 0.1241151115713819 0.9045666525468371 0 0.14617343800780541 0.93808063414349496 0 0.1241151115713819 0.9045666525468371 0 0.16206583317966519 0.89685560785156404 0 0.19901705110390991 0.9175543425573498 0 0.14617343800780541 0.93808063414349496 0 0.16206583317966519 0.89685560785156404 0 0.19901705110390991 0.9175543425573498 0 0.16206583317966519 0.89685560785156404 0 0.19741632902693801 0.86755867406447229 0 0.19901705110390991 0.9175543425573498 0 0.19741632902693801 0.86755867406447229 0 0.24536017905392571 0.90704567837671446 0 0.19741632902693801 0.86755867406447229 0 0.2401283238295133 0.85648409884788523 0 0.24536017905392571 0.90704567837671446 0 0.19901705110390991 0.9175543425573498 0 0.24536017905392571 0.90704567837671446 0 0.22850979588452081 0.95594428570238643 0 0.19901705110390991 0.9175543425573498 0 0.22850979588452081 0.95594428570238643 0 0.18474005699953849 0.96231585248064622 0 0.27609987656793722 0.94991445621608572 0 0.22850979588452081 0.95594428570238643 0 0.24536017905392571 0.90704567837671446 0 0.25000000000104028 1 0 0.20000000000083221 1 0 0.22850979588452081 0.95594428570238643 0 0.20000000000083221 1 0 0.18474005699953849 0.96231585248064622 0 0.22850979588452081 0.95594428570238643 0 0.20000000000083221 1 0 0.15000000000062411 1 0 0.18474005699953849 0.96231585248064622 0 0.19901705110390991 0.9175543425573498 0 0.18474005699953849 0.96231585248064622 0 0.14617343800780541 0.93808063414349496 0 0.15000000000062411 1 0 0.14617343800780541 0.93808063414349496 0 0.18474005699953849 0.96231585248064622 0 0.15000000000062411 1 0 0.10266856499240549 0.95548163909968886 0 0.14617343800780541 0.93808063414349496 0 0.35000000000145642 1 0 0.32544832635163229 0.95485394099568932 0 0.36184234618600131 0.96443954459096326 0 0.40000000000166441 1 0 0.35000000000145642 1 0 0.36184234618600131 0.96443954459096326 0 0.35752321586431363 0.9185439911803448 0 0.36184234618600131 0.96443954459096326 0 0.32544832635163229 0.95485394099568932 0 0.35752321586431363 0.9185439911803448 0 0.39641108128798319 0.94356127926187128 0 0.36184234618600131 0.96443954459096326 0 0.35000000000145642 1 0 0.30000000000124832 1 0 0.32544832635163229 0.95485394099568932 0 0.30000000000124832 1 0 0.25000000000104028 1 0 0.27609987656793722 0.94991445621608572 0 0.25000000000104028 1 0 0.22850979588452081 0.95594428570238643 0 0.27609987656793722 0.94991445621608572 0 0.30000000000124832 1 0 0.27609987656793722 0.94991445621608572 0 0.32544832635163229 0.95485394099568932 0 0.27609987656793722 0.94991445621608572 0 0.30864387279288652 0.89906554525974958 0 0.32544832635163229 0.95485394099568932 0 0.27270076654418179 0.87751467830216623 0 0.30864387279288652 0.89906554525974958 0 0.24536017905392571 0.90704567837671446 0 0.27609987656793722 0.94991445621608572 0 0.24536017905392571 0.90704567837671446 0 0.30864387279288652 0.89906554525974958 0 0.27270076654418179 0.87751467830216623 0 0.24536017905392571 0.90704567837671446 0 0.2401283238295133 0.85648409884788523 0 0.35752321586431363 0.9185439911803448 0 0.30864387279288652 0.89906554525974958 0 0.35864759629805099 0.87963482415279515 0 0.35752321586431363 0.9185439911803448 0 0.32544832635163229 0.95485394099568932 0 0.30864387279288652 0.89906554525974958 0 0.35752321586431363 0.9185439911803448 0 0.35864759629805099 0.87963482415279515 0 0.39767323751400468 0.89584229130535065 0 0.35864759629805099 0.87963482415279515 0 0.33403534827021109 0.84402799729020661 0 0.39536230704883951 0.84069429572832477 0 0.33403534827021109 0.84402799729020661 0 0.35642984951668422 0.80994399665655703 0 0.39536230704883951 0.84069429572832477 0 0.33403534827021109 0.84402799729020661 0 0.30857225866488791 0.81101973481716805 0 0.35642984951668422 0.80994399665655703 0 0.33403534827021109 0.84402799729020661 0 0.35864759629805099 0.87963482415279515 0 0.30864387279288652 0.89906554525974958 0 0.33403534827021109 0.84402799729020661 0 0.30864387279288652 0.89906554525974958 0 0.29209212897034281 0.84715728365233667 0 0.27270076654418179 0.87751467830216623 0 0.29209212897034281 0.84715728365233667 0 0.30864387279288652 0.89906554525974958 0 0.27270076654418179 0.87751467830216623 0 0.2401283238295133 0.85648409884788523 0 0.29209212897034281 0.84715728365233667 0 0.26104540868854792 0.81401944968719064 0 0.29209212897034281 0.84715728365233667 0 0.2401283238295133 0.85648409884788523 0 0.26104540868854792 0.81401944968719064 0 0.30857225866488791 0.81101973481716805 0 0.29209212897034281 0.84715728365233667 0 0.33403534827021109 0.84402799729020661 0 0.29209212897034281 0.84715728365233667 0 0.30857225866488791 0.81101973481716805 0 0.26104540868854792 0.81401944968719064 0 0.2792923945214143 0.77665808831789485 0 0.30857225866488791 0.81101973481716805 0 0.33123028043633618 0.77629643437932982 0 0.30857225866488791 0.81101973481716805 0 0.2792923945214143 0.77665808831789485 0 0.26104540868854792 0.81401944968719064 0 0.22556077506376701 0.77837424984191617 0 0.2792923945214143 0.77665808831789485 0 0.25676291524611189 0.7436741304886243 0 0.29904318922293632 0.74132814928635593 0 0.2792923945214143 0.77665808831789485 0 0.25676291524611189 0.7436741304886243 0 0.2792923945214143 0.77665808831789485 0 0.22556077506376701 0.77837424984191617 0 0.33123028043633618 0.77629643437932982 0 0.2792923945214143 0.77665808831789485 0 0.29904318922293632 0.74132814928635593 0 0.33123028043633618 0.77629643437932982 0 0.29904318922293632 0.74132814928635593 0 0.35415581127540569 0.73730480045900215 0 0.33123028043633618 0.77629643437932982 0 0.35642984951668422 0.80994399665655703 0 0.30857225866488791 0.81101973481716805 0 0.33123028043633618 0.77629643437932982 0 0.38586766253264881 0.78219501014812498 0 0.35642984951668422 0.80994399665655703 0 0.33123028043633618 0.77629643437932982 0 0.35415581127540569 0.73730480045900215 0 0.38586766253264881 0.78219501014812498 0 0.40326160981139969 0.73346192995102844 0 0.42676259796334498 0.76772545931379299 0 0.38586766253264881 0.78219501014812498 0 0.40326160981139969 0.73346192995102844 0 0.38586766253264881 0.78219501014812498 0 0.35415581127540569 0.73730480045900215 0 0.39536230704883951 0.84069429572832477 0 0.38586766253264881 0.78219501014812498 0 0.42609163930740518 0.80361684430568059 0 0.39536230704883951 0.84069429572832477 0 0.35642984951668422 0.80994399665655703 0 0.38586766253264881 0.78219501014812498 0 0.38586766253264881 0.78219501014812498 0 0.42676259796334498 0.76772545931379299 0 0.42609163930740518 0.80361684430568059 0 0.4656888918609538 0.78493261229743638 0 0.42676259796334498 0.76772545931379299 0 0.45582236402875981 0.73896743678908217 0 0.4656888918609538 0.78493261229743638 0 0.45582236402875981 0.73896743678908217 0 0.50945740445113552 0.75476055527778108 0 0.4656888918609538 0.78493261229743638 0 0.50945740445113552 0.75476055527778108 0 0.50731287292894423 0.78963574450233831 0 0.4656888918609538 0.78493261229743638 0 0.50731287292894423 0.78963574450233831 0 0.50627822638148745 0.8263979829520941 0 0.4656888918609538 0.78493261229743638 0 0.45677673713123867 0.84253684404072415 0 0.42609163930740518 0.80361684430568059 0 0.4656888918609538 0.78493261229743638 0 0.42609163930740518 0.80361684430568059 0 0.42676259796334498 0.76772545931379299 0 0.4656888918609538 0.78493261229743638 0 0.50627822638148745 0.8263979829520941 0 0.45677673713123867 0.84253684404072415 0 0.50202631463681879 0.87892870825713787 0 0.45677673713123867 0.84253684404072415 0 0.50627822638148745 0.8263979829520941 0 0.50202631463681879 0.87892870825713787 0 0.44003836461056539 0.88093474584252718 0 0.45677673713123867 0.84253684404072415 0 0.39536230704883951 0.84069429572832477 0 0.45677673713123867 0.84253684404072415 0 0.44003836461056539 0.88093474584252718 0 0.39536230704883951 0.84069429572832477 0 0.44003836461056539 0.88093474584252718 0 0.39767323751400468 0.89584229130535065 0 0.39536230704883951 0.84069429572832477 0 0.42609163930740518 0.80361684430568059 0 0.45677673713123867 0.84253684404072415 0 0.39536230704883951 0.84069429572832477 0 0.39767323751400468 0.89584229130535065 0 0.35864759629805099 0.87963482415279515 0 0.35752321586431363 0.9185439911803448 0 0.39767323751400468 0.89584229130535065 0 0.39641108128798319 0.94356127926187128 0 0.4367309254023824 0.92065556789053882 0 0.39641108128798319 0.94356127926187128 0 0.39767323751400468 0.89584229130535065 0 0.4367309254023824 0.92065556789053882 0 0.39767323751400468 0.89584229130535065 0 0.44003836461056539 0.88093474584252718 0 0.4367309254023824 0.92065556789053882 0 0.44003836461056539 0.88093474584252718 0 0.47401147028110507 0.91529957330468115 0 0.50202631463681879 0.87892870825713787 0 0.47401147028110507 0.91529957330468115 0 0.44003836461056539 0.88093474584252718 0 0.52122150208832174 0.94089974453840242 0 0.47135117303824892 0.95556877749289892 0 0.47401147028110507 0.91529957330468115 0 0.50202631463681879 0.87892870825713787 0 0.52122150208832174 0.94089974453840242 0 0.47401147028110507 0.91529957330468115 0 0.4367309254023824 0.92065556789053882 0 0.47401147028110507 0.91529957330468115 0 0.47135117303824892 0.95556877749289892 0 0.4367309254023824 0.92065556789053882 0 0.47135117303824892 0.95556877749289892 0 0.4308986359464303 0.96395712492906194 0 0.50000000000205869 1 0 0.47135117303824892 0.95556877749289892 0 0.52122150208832174 0.94089974453840242 0 0.50000000000205869 1 0 0.45000000000187229 1 0 0.47135117303824892 0.95556877749289892 0 0.45000000000187229 1 0 0.4308986359464303 0.96395712492906194 0 0.47135117303824892 0.95556877749289892 0 0.45000000000187229 1 0 0.40000000000166441 1 0 0.4308986359464303 0.96395712492906194 0 0.40000000000166441 1 0 0.39641108128798319 0.94356127926187128 0 0.4308986359464303 0.96395712492906194 0 0.4367309254023824 0.92065556789053882 0 0.4308986359464303 0.96395712492906194 0 0.39641108128798319 0.94356127926187128 0 0.40000000000166441 1 0 0.36184234618600131 0.96443954459096326 0 0.39641108128798319 0.94356127926187128 0 0.33122374654748771 0.57588941099433744 0 0.35765792684946668 0.6000687869219653 0 0.31502927232353312 0.6134992213375432 0 0.35864735590330371 0.63903383440414463 0 0.31502927232353312 0.6134992213375432 0 0.35765792684946668 0.6000687869219653 0 0.35864735590330371 0.63903383440414463 0 0.35765792684946668 0.6000687869219653 0 0.39743091024207589 0.6239520004230239 0 0.33122374654748771 0.57588941099433744 0 0.37272913873093971 0.56192925302619479 0 0.35765792684946668 0.6000687869219653 0 0.38244435121258652 0.51653317813019495 0 0.37272913873093971 0.56192925302619479 0 0.33190227185843768 0.52715113583864037 0 0.33122374654748771 0.57588941099433744 0 0.33190227185843768 0.52715113583864037 0 0.37272913873093971 0.56192925302619479 0 0.38244435121258652 0.51653317813019495 0 0.33190227185843768 0.52715113583864037 0 0.35024835142131061 0.48654922671676981 0 0.33122374654748771 0.57588941099433744 0 0.29110487519241501 0.56588143995431495 0 0.33190227185843768 0.52715113583864037 0 0.28307294598219601 0.50789252727458634 0 0.33190227185843768 0.52715113583864037 0 0.29110487519241501 0.56588143995431495 0 0.31068898841644388 0.47541502461811092 0 0.33190227185843768 0.52715113583864037 0 0.28307294598219601 0.50789252727458634 0 0.28307294598219601 0.50789252727458634 0 0.25115337790845271 0.54719303014923271 0 0.23975172658309729 0.49475499200540818 0 0.28307294598219601 0.50789252727458634 0 0.29110487519241501 0.56588143995431495 0 0.25115337790845271 0.54719303014923271 0 0.26573297623774761 0.59828298563722948 0 0.25115337790845271 0.54719303014923271 0 0.29110487519241501 0.56588143995431495 0 0.33122374654748771 0.57588941099433744 0 0.31502927232353312 0.6134992213375432 0 0.29110487519241501 0.56588143995431495 0 0.26573297623774761 0.59828298563722948 0 0.29110487519241501 0.56588143995431495 0 0.31502927232353312 0.6134992213375432 0 0.26573297623774761 0.59828298563722948 0 0.31502927232353312 0.6134992213375432 0 0.27820712747429932 0.65530134213254643 0 0.26573297623774761 0.59828298563722948 0 0.27820712747429932 0.65530134213254643 0 0.2459498854893499 0.63248470766216769 0 0.2236846579037573 0.67380363126050236 0 0.27820712747429932 0.65530134213254643 0 0.26439878998046262 0.7048065392091396 0 0.31378396441836959 0.70157213313026345 0 0.27820712747429932 0.65530134213254643 0 0.32263089806001177 0.66003674931826484 0 0.31378396441836959 0.70157213313026345 0 0.26439878998046262 0.7048065392091396 0 0.27820712747429932 0.65530134213254643 0 0.27820712747429932 0.65530134213254643 0 0.31502927232353312 0.6134992213375432 0 0.32263089806001177 0.66003674931826484 0 0.25676291524611189 0.7436741304886243 0 0.26439878998046262 0.7048065392091396 0 0.29904318922293632 0.74132814928635593 0 0.31378396441836959 0.70157213313026345 0 0.29904318922293632 0.74132814928635593 0 0.26439878998046262 0.7048065392091396 0 0.31378396441836959 0.70157213313026345 0 0.35415581127540569 0.73730480045900215 0 0.29904318922293632 0.74132814928635593 0 0.31378396441836959 0.70157213313026345 0 0.36622285152418499 0.69092437780804039 0 0.35415581127540569 0.73730480045900215 0 0.40326160981139969 0.73346192995102844 0 0.35415581127540569 0.73730480045900215 0 0.36622285152418499 0.69092437780804039 0 0.35864735590330371 0.63903383440414463 0 0.32263089806001177 0.66003674931826484 0 0.31502927232353312 0.6134992213375432 0 0.31378396441836959 0.70157213313026345 0 0.32263089806001177 0.66003674931826484 0 0.36622285152418499 0.69092437780804039 0 0.35864735590330371 0.63903383440414463 0 0.36622285152418499 0.69092437780804039 0 0.32263089806001177 0.66003674931826484 0 0.35864735590330371 0.63903383440414463 0 0.3977710372045391 0.65868194622830212 0 0.36622285152418499 0.69092437780804039 0 0.35864735590330371 0.63903383440414463 0 0.39743091024207589 0.6239520004230239 0 0.3977710372045391 0.65868194622830212 0 0.36622285152418499 0.69092437780804039 0 0.3977710372045391 0.65868194622830212 0 0.43323420005758778 0.6913544522562407 0 0.43846182030517877 0.64845797726506715 0 0.43323420005758778 0.6913544522562407 0 0.3977710372045391 0.65868194622830212 0 0.43846182030517877 0.64845797726506715 0 0.39743091024207589 0.6239520004230239 0 0.43545892161006339 0.61093128915313821 0 0.43846182030517877 0.64845797726506715 0 0.3977710372045391 0.65868194622830212 0 0.39743091024207589 0.6239520004230239 0 0.40326160981139969 0.73346192995102844 0 0.36622285152418499 0.69092437780804039 0 0.43323420005758778 0.6913544522562407 0 0.40326160981139969 0.73346192995102844 0 0.43323420005758778 0.6913544522562407 0 0.45582236402875981 0.73896743678908217 0 0.40326160981139969 0.73346192995102844 0 0.45582236402875981 0.73896743678908217 0 0.42676259796334498 0.76772545931379299 0 0.5 0.69999999999999996 0 0.45582236402875981 0.73896743678908217 0 0.43323420005758778 0.6913544522562407 0 0.5 0.69999999999999996 0 0.50945740445113552 0.75476055527778108 0 0.45582236402875981 0.73896743678908217 0 0.5 0.69999999999999996 0 0.43323420005758778 0.6913544522562407 0 0.47913475093885149 0.66010775372412711 0 0.43846182030517877 0.64845797726506715 0 0.47095389620662098 0.61892551373708504 0 0.47913475093885149 0.66010775372412711 0 0.43846182030517877 0.64845797726506715 0 0.43545892161006339 0.61093128915313821 0 0.47095389620662098 0.61892551373708504 0 0.43846182030517877 0.64845797726506715 0 0.47913475093885149 0.66010775372412711 0 0.43323420005758778 0.6913544522562407 0 0.50715858906372158 0.63295939104129484 0 0.47913475093885149 0.66010775372412711 0 0.47095389620662098 0.61892551373708504 0 0.50715858906372158 0.63295939104129484 0 0.47095389620662098 0.61892551373708504 0 0.5166924242153631 0.59825134841919447 0 0.46666084890304671 0.57634471035397938 0 0.5166924242153631 0.59825134841919447 0 0.47095389620662098 0.61892551373708504 0 0.46666084890304671 0.57634471035397938 0 0.47095389620662098 0.61892551373708504 0 0.43545892161006339 0.61093128915313821 0 0.4089290844030305 0.58728915500154233 0 0.43545892161006339 0.61093128915313821 0 0.39743091024207589 0.6239520004230239 0 0.43545892161006339 0.61093128915313821 0 0.4089290844030305 0.58728915500154233 0 0.46666084890304671 0.57634471035397938 0 0.4089290844030305 0.58728915500154233 0 0.42644501560315817 0.54603747078095544 0 0.46666084890304671 0.57634471035397938 0 0.4089290844030305 0.58728915500154233 0 0.37272913873093971 0.56192925302619479 0 0.42644501560315817 0.54603747078095544 0 0.4089290844030305 0.58728915500154233 0 0.35765792684946668 0.6000687869219653 0 0.37272913873093971 0.56192925302619479 0 0.4089290844030305 0.58728915500154233 0 0.39743091024207589 0.6239520004230239 0 0.35765792684946668 0.6000687869219653 0 0.38244435121258652 0.51653317813019495 0 0.42644501560315817 0.54603747078095544 0 0.37272913873093971 0.56192925302619479 0 0.38244435121258652 0.51653317813019495 0 0.43507373378304309 0.49699695397193322 0 0.42644501560315817 0.54603747078095544 0 0.46666084890304671 0.57634471035397938 0 0.47793794143994173 0.52940715638744962 0 0.53245488764484505 0.55078124999999989 0 0.49102375406324739 0.49123754822244059 0 0.47793794143994173 0.52940715638744962 0 0.43507373378304309 0.49699695397193322 0 0.43507373378304309 0.49699695397193322 0 0.47793794143994173 0.52940715638744962 0 0.42644501560315817 0.54603747078095544 0 0.46666084890304671 0.57634471035397938 0 0.42644501560315817 0.54603747078095544 0 0.47793794143994173 0.52940715638744962 0 0.49102375406324739 0.49123754822244059 0 0.53330375813596242 0.50827942741749099 0 0.47793794143994173 0.52940715638744962 0 0.53245488764484505 0.55078124999999989 0 0.47793794143994173 0.52940715638744962 0 0.53330375813596242 0.50827942741749099 0 0.53245488764484505 0.55078124999999989 0 0.53330375813596242 0.50827942741749099 0 0.57435499076887508 0.54267261987897775 0 0.57412547362576272 0.58273804879550706 0 0.53245488764484505 0.55078124999999989 0 0.57435499076887508 0.54267261987897775 0 0.57611405284611883 0.50165903596042916 0 0.57435499076887508 0.54267261987897775 0 0.53330375813596242 0.50827942741749099 0 0.57611405284611883 0.50165903596042916 0 0.62042975506801734 0.54295974692364424 0 0.57435499076887508 0.54267261987897775 0 0.57412547362576272 0.58273804879550706 0 0.57435499076887508 0.54267261987897775 0 0.62042975506801734 0.54295974692364424 0 0.57611405284611883 0.50165903596042916 0 0.61547661924074692 0.48539576058873962 0 0.62042975506801734 0.54295974692364424 0 0.6405463747586706 0.63290524857395714 0 0.5991018319127801 0.62925360607495295 0 0.63065402604362242 0.59661356661633302 0 0.57412547362576272 0.58273804879550706 0 0.63065402604362242 0.59661356661633302 0 0.5991018319127801 0.62925360607495295 0 0.57412547362576272 0.58273804879550706 0 0.62042975506801734 0.54295974692364424 0 0.63065402604362242 0.59661356661633302 0 0.57412547362576272 0.58273804879550706 0 0.5991018319127801 0.62925360607495295 0 0.5498280205245758 0.6290146943450976 0 0.46666084890304671 0.57634471035397938 0 0.53245488764484505 0.55078124999999989 0 0.5166924242153631 0.59825134841919447 0 0.57412547362576272 0.58273804879550706 0 0.5498280205245758 0.6290146943450976 0 0.5166924242153631 0.59825134841919447 0 0.57412547362576272 0.58273804879550706 0 0.5166924242153631 0.59825134841919447 0 0.53245488764484505 0.55078124999999989 0 0.50715858906372158 0.63295939104129484 0 0.5166924242153631 0.59825134841919447 0 0.5498280205245758 0.6290146943450976 0 0.50715858906372158 0.63295939104129484 0 0.52584555706968406 0.66664215091846768 0 0.47913475093885149 0.66010775372412711 0 0.50715858906372158 0.63295939104129484 0 0.5498280205245758 0.6290146943450976 0 0.52584555706968406 0.66664215091846768 0 0.5 0.69999999999999996 0 0.47913475093885149 0.66010775372412711 0 0.52584555706968406 0.66664215091846768 0 0.54999999999999993 0.69999999999999996 0 0.52584555706968406 0.66664215091846768 0 0.57484956128872922 0.66573805030881994 0 0.57484956128872922 0.66573805030881994 0 0.52584555706968406 0.66664215091846768 0 0.5498280205245758 0.6290146943450976 0 0.50945740445113552 0.75476055527778108 0 0.5 0.69999999999999996 0 0.55363780716230748 0.74348740161571747 0 0.5 0.69999999999999996 0 0.52584555706968406 0.66664215091846768 0 0.54999999999999993 0.69999999999999996 0 0.5 0.69999999999999996 0 0.54999999999999993 0.69999999999999996 0 0.5 0.69999999999999996 0 0.54999999999999993 0.69999999999999996 0 0.55363780716230748 0.74348740161571747 0 0.59999999999999976 0.69999999999999996 0 0.59636844454254345 0.75937156204589151 0 0.55363780716230748 0.74348740161571747 0 0.54999999999999993 0.69999999999999996 0 0.59999999999999976 0.69999999999999996 0 0.54999999999999993 0.69999999999999996 0 0.57484956128872922 0.66573805030881994 0 0.59999999999999976 0.69999999999999996 0 0.54999999999999993 0.69999999999999996 0 0.59999999999999976 0.69999999999999996 0 0.55363780716230748 0.74348740161571747 0 0.59999999999999976 0.69999999999999996 0 0.6499999999999998 0.69999999999999996 0 0.59999999999999976 0.69999999999999996 0 0.62460753523532009 0.66851202781000296 0 0.6499999999999998 0.69999999999999996 0 0.59999999999999976 0.69999999999999996 0 0.63221990677827677 0.73442891067859706 0 0.59636844454254345 0.75937156204589151 0 0.57484956128872922 0.66573805030881994 0 0.5498280205245758 0.6290146943450976 0 0.5991018319127801 0.62925360607495295 0 0.59999999999999976 0.69999999999999996 0 0.57484956128872922 0.66573805030881994 0 0.62460753523532009 0.66851202781000296 0 0.57484956128872922 0.66573805030881994 0 0.5991018319127801 0.62925360607495295 0 0.62460753523532009 0.66851202781000296 0 0.6405463747586706 0.63290524857395714 0 0.62460753523532009 0.66851202781000296 0 0.5991018319127801 0.62925360607495295 0 0.6405463747586706 0.63290524857395714 0 0.675261390228442 0.65996937624687813 0 0.62460753523532009 0.66851202781000296 0 0.6499999999999998 0.69999999999999996 0 0.62460753523532009 0.66851202781000296 0 0.675261390228442 0.65996937624687813 0 0.6499999999999998 0.69999999999999996 0 0.675261390228442 0.65996937624687813 0 0.69999999999999984 0.69999999999999996 0 0.6405463747586706 0.63290524857395714 0 0.67529834988829951 0.61613270668143583 0 0.675261390228442 0.65996937624687813 0 0.64753070846764316 0.77332939069435502 0 0.63221990677827677 0.73442891067859706 0 0.66427993341343905 0.73232764502436276 0 0.6499999999999998 0.69999999999999996 0 0.66427993341343905 0.73232764502436276 0 0.63221990677827677 0.73442891067859706 0 0.59999999999999976 0.69999999999999996 0 0.6499999999999998 0.69999999999999996 0 0.63221990677827677 0.73442891067859706 0 0.6499999999999998 0.69999999999999996 0 0.69999999999999984 0.69999999999999996 0 0.6499999999999998 0.69999999999999996 0 0.69999999999999984 0.69999999999999996 0 0.66427993341343905 0.73232764502436276 0 0.69999999999999984 0.69999999999999996 0 0.6916490518212759 0.75387992374886192 0 0.66427993341343905 0.73232764502436276 0 0.69999999999999984 0.69999999999999996 0 0.72501250972655151 0.74067302935308721 0 0.6916490518212759 0.75387992374886192 0 0.69999999999999984 0.69999999999999996 0 0.74999999999999989 0.69999999999999996 0 0.72501250972655151 0.74067302935308721 0 0.69999999999999984 0.69999999999999996 0 0.72500000000000064 0.67022701834392062 0 0.74999999999999989 0.69999999999999996 0 0.69999999999999984 0.69999999999999996 0 0.74999999999999989 0.69999999999999996 0 0.74999999999999989 0.69999999999999996 0 0.75841349681148107 0.75422312624214749 0 0.72501250972655151 0.74067302935308721 0 0.71406021706547751 0.63292083137662503 0 0.72500000000000064 0.67022701834392062 0 0.675261390228442 0.65996937624687813 0 0.71406021706547751 0.63292083137662503 0 0.675261390228442 0.65996937624687813 0 0.67529834988829951 0.61613270668143583 0 0.69999999999999984 0.69999999999999996 0 0.675261390228442 0.65996937624687813 0 0.72500000000000064 0.67022701834392062 0 0.71406021706547751 0.63292083137662503 0 0.74994237037456724 0.62775548192980357 0 0.72500000000000064 0.67022701834392062 0 0.7750489929959945 0.66593931409600093 0 0.72500000000000064 0.67022701834392062 0 0.74994237037456724 0.62775548192980357 0 0.71406021706547751 0.63292083137662503 0 0.71809016091162536 0.58185040402320831 0 0.74994237037456724 0.62775548192980357 0 0.77293540622714185 0.59448302402785813 0 0.74994237037456724 0.62775548192980357 0 0.71809016091162536 0.58185040402320831 0 0.71406021706547751 0.63292083137662503 0 0.67529834988829951 0.61613270668143583 0 0.71809016091162536 0.58185040402320831 0 0.67323294229744413 0.57556450033612505 0 0.67569444444444449 0.53500863336860327 0 0.71809016091162536 0.58185040402320831 0 0.67323294229744413 0.57556450033612505 0 0.71809016091162536 0.58185040402320831 0 0.67529834988829951 0.61613270668143583 0 0.7152569930854884 0.5237994455134295 0 0.77151014687832564 0.54436834383023036 0 0.71809016091162536 0.58185040402320831 0 0.7152569930854884 0.5237994455134295 0 0.73947346780852752 0.49062440112282169 0 0.77151014687832564 0.54436834383023036 0 0.7152569930854884 0.5237994455134295 0 0.67569444444444449 0.53500863336860327 0 0.69385896817107129 0.48377516041410151 0 0.7152569930854884 0.5237994455134295 0 0.71809016091162536 0.58185040402320831 0 0.67569444444444449 0.53500863336860327 0 0.67323294229744413 0.57556450033612505 0 0.62042975506801734 0.54295974692364424 0 0.67569444444444449 0.53500863336860327 0 0.6541250972820879 0.49999999999999989 0 0.69385896817107129 0.48377516041410151 0 0.67569444444444449 0.53500863336860327 0 0.6541250972820879 0.49999999999999989 0 0.67569444444444449 0.53500863336860327 0 0.62042975506801734 0.54295974692364424 0 0.6541250972820879 0.49999999999999989 0 0.62042975506801734 0.54295974692364424 0 0.61547661924074692 0.48539576058873962 0 0.67323294229744413 0.57556450033612505 0 0.63065402604362242 0.59661356661633302 0 0.62042975506801734 0.54295974692364424 0 0.6405463747586706 0.63290524857395714 0 0.63065402604362242 0.59661356661633302 0 0.67529834988829951 0.61613270668143583 0 0.67323294229744413 0.57556450033612505 0 0.67529834988829951 0.61613270668143583 0 0.63065402604362242 0.59661356661633302 0 0.60000000000138687 1 0 0.57382506491224949 0.9629411906298494 0 0.62065498684670595 0.95224934003983619 0 0.65000000000104008 1 0 0.60000000000138687 1 0 0.62065498684670595 0.95224934003983619 0 0.57724883562309992 0.92155686857100794 0 0.62065498684670595 0.95224934003983619 0 0.57382506491224949 0.9629411906298494 0 0.60000000000138687 1 0 0.55000000000173355 1 0 0.57382506491224949 0.9629411906298494 0 0.55000000000173355 1 0 0.50000000000205869 1 0 0.52122150208832174 0.94089974453840242 0 0.57724883562309992 0.92155686857100794 0 0.57382506491224949 0.9629411906298494 0 0.52122150208832174 0.94089974453840242 0 0.55000000000173355 1 0 0.52122150208832174 0.94089974453840242 0 0.57382506491224949 0.9629411906298494 0 0.57724883562309992 0.92155686857100794 0 0.52122150208832174 0.94089974453840242 0 0.54783390826260769 0.89287767010860219 0 0.50202631463681879 0.87892870825713787 0 0.54783390826260769 0.89287767010860219 0 0.52122150208832174 0.94089974453840242 0 0.55899371797446828 0.85003102233514438 0 0.5832743223239254 0.88483152652961872 0 0.54783390826260769 0.89287767010860219 0 0.57724883562309992 0.92155686857100794 0 0.54783390826260769 0.89287767010860219 0 0.5832743223239254 0.88483152652961872 0 0.57724883562309992 0.92155686857100794 0 0.5832743223239254 0.88483152652961872 0 0.61885627562261258 0.90282959257498208 0 0.57724883562309992 0.92155686857100794 0 0.61885627562261258 0.90282959257498208 0 0.62065498684670595 0.95224934003983619 0 0.61343887413683884 0.856862479058357 0 0.61885627562261258 0.90282959257498208 0 0.5832743223239254 0.88483152652961872 0 0.61343887413683884 0.856862479058357 0 0.60294066490120068 0.80851322453934582 0 0.65005442820240822 0.82644988530054031 0 0.61343887413683884 0.856862479058357 0 0.55899371797446828 0.85003102233514438 0 0.60294066490120068 0.80851322453934582 0 0.54782696902220018 0.79245182748204157 0 0.60294066490120068 0.80851322453934582 0 0.55899371797446828 0.85003102233514438 0 0.61343887413683884 0.856862479058357 0 0.5832743223239254 0.88483152652961872 0 0.55899371797446828 0.85003102233514438 0 0.50202631463681879 0.87892870825713787 0 0.55899371797446828 0.85003102233514438 0 0.54783390826260769 0.89287767010860219 0 0.50202631463681879 0.87892870825713787 0 0.50627822638148745 0.8263979829520941 0 0.55899371797446828 0.85003102233514438 0 0.54782696902220018 0.79245182748204157 0 0.55899371797446828 0.85003102233514438 0 0.50627822638148745 0.8263979829520941 0 0.54782696902220018 0.79245182748204157 0 0.50627822638148745 0.8263979829520941 0 0.50731287292894423 0.78963574450233831 0 0.54782696902220018 0.79245182748204157 0 0.50731287292894423 0.78963574450233831 0 0.50945740445113552 0.75476055527778108 0 0.54782696902220018 0.79245182748204157 0 0.50945740445113552 0.75476055527778108 0 0.55363780716230748 0.74348740161571747 0 0.54782696902220018 0.79245182748204157 0 0.55363780716230748 0.74348740161571747 0 0.59636844454254345 0.75937156204589151 0 0.54782696902220018 0.79245182748204157 0 0.59636844454254345 0.75937156204589151 0 0.60294066490120068 0.80851322453934582 0 0.64753070846764316 0.77332939069435502 0 0.60294066490120068 0.80851322453934582 0 0.59636844454254345 0.75937156204589151 0 0.64753070846764316 0.77332939069435502 0 0.59636844454254345 0.75937156204589151 0 0.63221990677827677 0.73442891067859706 0 0.64753070846764316 0.77332939069435502 0 0.65005442820240822 0.82644988530054031 0 0.60294066490120068 0.80851322453934582 0 0.64753070846764316 0.77332939069435502 0 0.68024162096458085 0.79868546898116533 0 0.65005442820240822 0.82644988530054031 0 0.64753070846764316 0.77332939069435502 0 0.6916490518212759 0.75387992374886192 0 0.68024162096458085 0.79868546898116533 0 0.64753070846764316 0.77332939069435502 0 0.66427993341343905 0.73232764502436276 0 0.6916490518212759 0.75387992374886192 0 0.6916490518212759 0.75387992374886192 0 0.72501250972655151 0.74067302935308721 0 0.72500000000000064 0.7952620967744265 0 0.72501250972655151 0.74067302935308721 0 0.75841349681148107 0.75422312624214749 0 0.72500000000000064 0.7952620967744265 0 0.72500000000000064 0.7952620967744265 0 0.68024162096458085 0.79868546898116533 0 0.6916490518212759 0.75387992374886192 0 0.72500000000000064 0.7952620967744265 0 0.68697391633157634 0.84450604838764298 0 0.68024162096458085 0.79868546898116533 0 0.72500000000000064 0.7952620967744265 0 0.72863726579783861 0.85390518901155588 0 0.68697391633157634 0.84450604838764298 0 0.72500000000000064 0.7952620967744265 0 0.76901770135486491 0.84293557325473656 0 0.72863726579783861 0.85390518901155588 0 0.7250000000005199 0.89375000000045834 0 0.68697391633157634 0.84450604838764298 0 0.72863726579783861 0.85390518901155588 0 0.7250000000005199 0.89375000000045834 0 0.66412543161245952 0.88015090885499059 0 0.68697391633157634 0.84450604838764298 0 0.68697391633157634 0.84450604838764298 0 0.66412543161245952 0.88015090885499059 0 0.65005442820240822 0.82644988530054031 0 0.68697391633157634 0.84450604838764298 0 0.65005442820240822 0.82644988530054031 0 0.68024162096458085 0.79868546898116533 0 0.61343887413683884 0.856862479058357 0 0.65005442820240822 0.82644988530054031 0 0.66412543161245952 0.88015090885499059 0 0.61343887413683884 0.856862479058357 0 0.66412543161245952 0.88015090885499059 0 0.61885627562261258 0.90282959257498208 0 0.65507451745379841 0.92229208810758578 0 0.61885627562261258 0.90282959257498208 0 0.66412543161245952 0.88015090885499059 0 0.65507451745379841 0.92229208810758578 0 0.62065498684670595 0.95224934003983619 0 0.61885627562261258 0.90282959257498208 0 0.65507451745379841 0.92229208810758578 0 0.68987011941058407 0.92105047536677087 0 0.68015064798562208 0.95924320340003011 0 0.65507451745379841 0.92229208810758578 0 0.66412543161245952 0.88015090885499059 0 0.68987011941058407 0.92105047536677087 0 0.7250000000005199 0.89375000000045834 0 0.68987011941058407 0.92105047536677087 0 0.66412543161245952 0.88015090885499059 0 0.7250000000005199 0.89375000000045834 0 0.72863726579783861 0.85390518901155588 0 0.76891166905518427 0.88835469571185499 0 0.7250000000005199 0.89375000000045834 0 0.75729602384198635 0.92353652857884294 0 0.7250000000005199 0.94981617647078953 0 0.7250000000005199 0.89375000000045834 0 0.7250000000005199 0.94981617647078953 0 0.68987011941058407 0.92105047536677087 0 0.7250000000005199 0.94981617647078953 0 0.68015064798562208 0.95924320340003011 0 0.68987011941058407 0.92105047536677087 0 0.75000000000034661 1 0 0.7000000000006934 1 0 0.7250000000005199 0.94981617647078953 0 0.75000000000034661 1 0 0.7250000000005199 0.94981617647078953 0 0.770759834363826 0.95919399014344442 0 0.7000000000006934 1 0 0.68015064798562208 0.95924320340003011 0 0.7250000000005199 0.94981617647078953 0 0.7000000000006934 1 0 0.65000000000104008 1 0 0.68015064798562208 0.95924320340003011 0 0.65507451745379841 0.92229208810758578 0 0.68015064798562208 0.95924320340003011 0 0.62065498684670595 0.95224934003983619 0 0.65000000000104008 1 0 0.62065498684670595 0.95224934003983619 0 0.68015064798562208 0.95924320340003011 0 0.84999999999965292 1 0 0.85170973911348691 0.93569607295217616 0 0.89898474358632463 0.95391965591118966 0 0.84999999999965292 1 0 0.81486180804382891 0.96321394949790495 0 0.85170973911348691 0.93569607295217616 0 0.79680861578988083 0.92656778056766709 0 0.85170973911348691 0.93569607295217616 0 0.81486180804382891 0.96321394949790495 0 0.84999999999965292 1 0 0.79999999999999982 1 0 0.81486180804382891 0.96321394949790495 0 0.79999999999999982 1 0 0.770759834363826 0.95919399014344442 0 0.81486180804382891 0.96321394949790495 0 0.79999999999999982 1 0 0.75000000000034661 1 0 0.770759834363826 0.95919399014344442 0 0.7250000000005199 0.94981617647078953 0 0.75729602384198635 0.92353652857884294 0 0.770759834363826 0.95919399014344442 0 0.79680861578988083 0.92656778056766709 0 0.81486180804382891 0.96321394949790495 0 0.770759834363826 0.95919399014344442 0 0.79680861578988083 0.92656778056766709 0 0.75729602384198635 0.92353652857884294 0 0.76891166905518427 0.88835469571185499 0 0.79680861578988083 0.92656778056766709 0 0.770759834363826 0.95919399014344442 0 0.75729602384198635 0.92353652857884294 0 0.7250000000005199 0.89375000000045834 0 0.76891166905518427 0.88835469571185499 0 0.75729602384198635 0.92353652857884294 0 0.79680861578988083 0.92656778056766709 0 0.76891166905518427 0.88835469571185499 0 0.81159157511211755 0.88795995483179491 0 0.85170973911348691 0.93569607295217616 0 0.81159157511211755 0.88795995483179491 0 0.85600844944837662 0.88483418979512773 0 0.79680861578988083 0.92656778056766709 0 0.81159157511211755 0.88795995483179491 0 0.85170973911348691 0.93569607295217616 0 0.90416666666660628 0.9041666666666166 0 0.85170973911348691 0.93569607295217616 0 0.85600844944837662 0.88483418979512773 0 0.82709327591091286 0.84937141670920724 0 0.88088768115933802 0.84674609810493673 0 0.85600844944837662 0.88483418979512773 0 0.82709327591091286 0.84937141670920724 0 0.84725310900444062 0.80779732082917555 0 0.88088768115933802 0.84674609810493673 0 0.82709327591091286 0.84937141670920724 0 0.80041942726660109 0.81543261647703358 0 0.84725310900444062 0.80779732082917555 0 0.82709327591091286 0.84937141670920724 0 0.85600844944837662 0.88483418979512773 0 0.81159157511211755 0.88795995483179491 0 0.76901770135486491 0.84293557325473656 0 0.81159157511211755 0.88795995483179491 0 0.76891166905518427 0.88835469571185499 0 0.82709327591091286 0.84937141670920724 0 0.81159157511211755 0.88795995483179491 0 0.76901770135486491 0.84293557325473656 0 0.76901770135486491 0.84293557325473656 0 0.76891166905518427 0.88835469571185499 0 0.72863726579783861 0.85390518901155588 0 0.76901770135486491 0.84293557325473656 0 0.77094201086366854 0.79647480515688507 0 0.80041942726660109 0.81543261647703358 0 0.82709327591091286 0.84937141670920724 0 0.76901770135486491 0.84293557325473656 0 0.80041942726660109 0.81543261647703358 0 0.80185942888539485 0.77452061303608133 0 0.80041942726660109 0.81543261647703358 0 0.77094201086366854 0.79647480515688507 0 0.72500000000000064 0.7952620967744265 0 0.75841349681148107 0.75422312624214749 0 0.77094201086366854 0.79647480515688507 0 0.72500000000000064 0.7952620967744265 0 0.77094201086366854 0.79647480515688507 0 0.76901770135486491 0.84293557325473656 0 0.80185942888539485 0.77452061303608133 0 0.77094201086366854 0.79647480515688507 0 0.75841349681148107 0.75422312624214749 0 0.80185942888539485 0.77452061303608133 0 0.75841349681148107 0.75422312624214749 0 0.78578450296893509 0.73292684821144505 0 0.80185942888539485 0.77452061303608133 0 0.85491058998424563 0.76004753345552634 0 0.84725310900444062 0.80779732082917555 0 0.80185942888539485 0.77452061303608133 0 0.81864958914779962 0.73589050177899629 0 0.85491058998424563 0.76004753345552634 0 0.80185942888539485 0.77452061303608133 0 0.84725310900444062 0.80779732082917555 0 0.80041942726660109 0.81543261647703358 0 0.90299850604011456 0.79563452813489832 0 0.84725310900444062 0.80779732082917555 0 0.85491058998424563 0.76004753345552634 0 0.90299850604011456 0.79563452813489832 0 0.85491058998424563 0.76004753345552634 0 0.89999166460796554 0.74528934923809909 0 0.90299850604011456 0.79563452813489832 0 0.94399509803918602 0.75600490196082126 0 0.95386563387742829 0.80414874155775029 0 0.90299850604011456 0.79563452813489832 0 0.89999166460796554 0.74528934923809909 0 0.94399509803918602 0.75600490196082126 0 0.94399509803918602 0.75600490196082126 0 0.97435614836745565 0.77499999999987745 0 0.95386563387742829 0.80414874155775029 0 0.94399509803918602 0.75600490196082126 0 0.97166519676947294 0.73337114490064459 0 0.97435614836745565 0.77499999999987745 0 1 0.74999999999993494 0 0.97435614836745565 0.77499999999987745 0 0.97166519676947294 0.73337114490064459 0 1 0.74999999999993494 0 1 0.7999999999998193 0 0.97435614836745565 0.77499999999987745 0 1 0.7999999999998193 0 0.95386563387742829 0.80414874155775029 0 0.97435614836745565 0.77499999999987745 0 1 0.84999999999982645 0 0.95391631417670719 0.89584263333814784 0 0.93677536231884972 0.85000000000000286 0 1 0.84999999999982645 0 0.93677536231884972 0.85000000000000286 0 0.95386563387742829 0.80414874155775029 0 1 0.7999999999998193 0 1 0.84999999999982645 0 0.95386563387742829 0.80414874155775029 0 0.90416666666660628 0.9041666666666166 0 0.88088768115933802 0.84674609810493673 0 0.93677536231884972 0.85000000000000286 0 0.90299850604011456 0.79563452813489832 0 0.95386563387742829 0.80414874155775029 0 0.93677536231884972 0.85000000000000286 0 0.90299850604011456 0.79563452813489832 0 0.93677536231884972 0.85000000000000286 0 0.88088768115933802 0.84674609810493673 0 0.90299850604011456 0.79563452813489832 0 0.88088768115933802 0.84674609810493673 0 0.84725310900444062 0.80779732082917555 0 0.90416666666660628 0.9041666666666166 0 0.85600844944837662 0.88483418979512773 0 0.88088768115933802 0.84674609810493673 0 0.90416666666660628 0.9041666666666166 0 0.89898474358632463 0.95391965591118966 0 0.85170973911348691 0.93569607295217616 0 0.90416666666660628 0.9041666666666166 0 0.95391631417670719 0.89584263333814784 0 0.94399509803919068 0.9439950980391687 0 0.90416666666660628 0.9041666666666166 0 0.94399509803919068 0.9439950980391687 0 0.89898474358632463 0.95391965591118966 0 0.90416666666660628 0.9041666666666166 0 0.93677536231884972 0.85000000000000286 0 0.95391631417670719 0.89584263333814784 0 1 0.84999999999982645 0 1 0.8999999999998336 0 0.95391631417670719 0.89584263333814784 0 1 0.8999999999998336 0 1 0.94999999999997109 0 0.97435614836744289 0.92499999999990257 0 1 0.8999999999998336 0 0.97435614836744289 0.92499999999990257 0 0.95391631417670719 0.89584263333814784 0 0.94399509803919068 0.9439950980391687 0 0.95391631417670719 0.89584263333814784 0 0.97435614836744289 0.92499999999990257 0 0.94399509803919068 0.9439950980391687 0 0.97435614836744289 0.92499999999990257 0 0.97166519676946206 0.96662885509935492 0 1 0.94999999999997109 0 0.97166519676946206 0.96662885509935492 0 0.97435614836744289 0.92499999999990257 0 1 1 0 0.97166519676946206 0.96662885509935492 0 1 0.94999999999997109 0 1 1 0 0.94999999999979179 1 0 0.97166519676946206 0.96662885509935492 0 0.94999999999979179 1 0 0.94399509803919068 0.9439950980391687 0 0.97166519676946206 0.96662885509935492 0 0.94999999999979179 1 0 0.89999999999958358 1 0 0.89898474358632463 0.95391965591118966 0 0.94999999999979179 1 0 0.89898474358632463 0.95391965591118966 0 0.94399509803919068 0.9439950980391687 0 0.89999999999958358 1 0 0.84999999999965292 1 0 0.89898474358632463 0.95391965591118966 0 0.86956835336234861 0.571283299838105 0 0.81723410853263523 0.59419663659258926 0 0.82862096804812391 0.55037090955459045 0 0.83758014339878906 0.63222013025741819 0 0.81723410853263523 0.59419663659258926 0 0.87159648282691515 0.61285406320581504 0 0.83758014339878906 0.63222013025741819 0 0.79884539758237771 0.62875045078114233 0 0.81723410853263523 0.59419663659258926 0 0.86956835336234861 0.571283299838105 0 0.87159648282691515 0.61285406320581504 0 0.81723410853263523 0.59419663659258926 0 0.86956835336234861 0.571283299838105 0 0.82862096804812391 0.55037090955459045 0 0.86907294890112186 0.52008116128001669 0 0.82862096804812391 0.55037090955459045 0 0.81441713509985358 0.51161854125224959 0 0.86907294890112186 0.52008116128001669 0 0.84723782639812573 0.48638347960178252 0 0.86907294890112186 0.52008116128001669 0 0.81441713509985358 0.51161854125224959 0 0.82862096804812391 0.55037090955459045 0 0.77151014687832564 0.54436834383023036 0 0.81441713509985358 0.51161854125224959 0 0.77846603114747959 0.49850927265137401 0 0.81441713509985358 0.51161854125224959 0 0.77151014687832564 0.54436834383023036 0 0.77846603114747959 0.49850927265137401 0 0.77151014687832564 0.54436834383023036 0 0.73947346780852752 0.49062440112282169 0 0.77293540622714185 0.59448302402785813 0 0.71809016091162536 0.58185040402320831 0 0.77151014687832564 0.54436834383023036 0 0.81723410853263523 0.59419663659258926 0 0.77293540622714185 0.59448302402785813 0 0.77151014687832564 0.54436834383023036 0 0.82862096804812391 0.55037090955459045 0 0.81723410853263523 0.59419663659258926 0 0.77151014687832564 0.54436834383023036 0 0.77293540622714185 0.59448302402785813 0 0.81723410853263523 0.59419663659258926 0 0.79884539758237771 0.62875045078114233 0 0.77293540622714185 0.59448302402785813 0 0.79884539758237771 0.62875045078114233 0 0.74994237037456724 0.62775548192980357 0 0.7750489929959945 0.66593931409600093 0 0.74994237037456724 0.62775548192980357 0 0.79884539758237771 0.62875045078114233 0 0.74999999999999989 0.69999999999999996 0 0.72500000000000064 0.67022701834392062 0 0.7750489929959945 0.66593931409600093 0 0.79999999999999982 0.69999999999999996 0 0.7750489929959945 0.66593931409600093 0 0.82457059160610424 0.66831947184359608 0 0.7750489929959945 0.66593931409600093 0 0.79884539758237771 0.62875045078114233 0 0.82457059160610424 0.66831947184359608 0 0.74999999999999989 0.69999999999999996 0 0.78578450296893509 0.73292684821144505 0 0.75841349681148107 0.75422312624214749 0 0.74999999999999989 0.69999999999999996 0 0.79999999999999982 0.69999999999999996 0 0.78578450296893509 0.73292684821144505 0 0.74999999999999989 0.69999999999999996 0 0.7750489929959945 0.66593931409600093 0 0.79999999999999982 0.69999999999999996 0 0.74999999999999989 0.69999999999999996 0 0.79999999999999982 0.69999999999999996 0 0.80185942888539485 0.77452061303608133 0 0.78578450296893509 0.73292684821144505 0 0.81864958914779962 0.73589050177899629 0 0.79999999999999982 0.69999999999999996 0 0.81864958914779962 0.73589050177899629 0 0.78578450296893509 0.73292684821144505 0 0.84999999999999987 0.69999999999999996 0 0.85491058998424563 0.76004753345552634 0 0.81864958914779962 0.73589050177899629 0 0.79999999999999982 0.69999999999999996 0 0.84999999999999987 0.69999999999999996 0 0.79999999999999982 0.69999999999999996 0 0.82457059160610424 0.66831947184359608 0 0.84999999999999987 0.69999999999999996 0 0.79999999999999982 0.69999999999999996 0 0.84999999999999987 0.69999999999999996 0 0.81864958914779962 0.73589050177899629 0 0.84999999999999987 0.69999999999999996 0 0.89999999999999991 0.69999999999999996 0 0.84999999999999987 0.69999999999999996 0 0.89999166460796554 0.74528934923809909 0 0.85491058998424563 0.76004753345552634 0 0.83758014339878906 0.63222013025741819 0 0.82457059160610424 0.66831947184359608 0 0.79884539758237771 0.62875045078114233 0 0.84999999999999987 0.69999999999999996 0 0.82457059160610424 0.66831947184359608 0 0.87712158428786946 0.65709029563313581 0 0.83758014339878906 0.63222013025741819 0 0.87159648282691515 0.61285406320581504 0 0.87712158428786946 0.65709029563313581 0 0.83758014339878906 0.63222013025741819 0 0.87712158428786946 0.65709029563313581 0 0.82457059160610424 0.66831947184359608 0 0.91750694127105259 0.63017627779935648 0 0.92057473616084773 0.66770436535372446 0 0.87712158428786946 0.65709029563313581 0 0.91750694127105259 0.63017627779935648 0 0.87712158428786946 0.65709029563313581 0 0.87159648282691515 0.61285406320581504 0 0.84999999999999987 0.69999999999999996 0 0.87712158428786946 0.65709029563313581 0 0.89999999999999991 0.69999999999999996 0 0.89999999999999991 0.69999999999999996 0 0.87712158428786946 0.65709029563313581 0 0.92057473616084773 0.66770436535372446 0 0.91750694127105259 0.63017627779935648 0 0.9578014258160763 0.65787212321113708 0 0.92057473616084773 0.66770436535372446 0 0.84999999999999987 0.69999999999999996 0 0.89999999999999991 0.69999999999999996 0 0.89999166460796554 0.74528934923809909 0 0.89999999999999991 0.69999999999999996 0 0.94999999999999996 0.69999999999999996 0 0.89999999999999991 0.69999999999999996 0 0.92057473616084773 0.66770436535372446 0 0.94999999999999996 0.69999999999999996 0 0.89999999999999991 0.69999999999999996 0 0.94999999999999996 0.69999999999999996 0 0.89999166460796554 0.74528934923809909 0 0.94999999999999996 0.69999999999999996 0 0.94399509803918602 0.75600490196082126 0 0.89999166460796554 0.74528934923809909 0 0.94999999999999996 0.69999999999999996 0 0.97166519676947294 0.73337114490064459 0 0.94399509803918602 0.75600490196082126 0 0.94999999999999996 0.69999999999999996 0 1 0.69999999999999996 0 1 0.69999999999999996 0 0.97166519676947294 0.73337114490064459 0 0.94999999999999996 0.69999999999999996 0 1 0.69999999999999996 0 1 0.74999999999993494 0 0.97166519676947294 0.73337114490064459 0 0.91750694127105259 0.63017627779935648 0 0.95867599106212187 0.60011091146651041 0 0.9578014258160763 0.65787212321113708 0 0.94999999999999996 0.69999999999999996 0 0.92057473616084773 0.66770436535372446 0 0.9578014258160763 0.65787212321113708 0 1 0.69999999999999996 0 0.94999999999999996 0.69999999999999996 0 0.9578014258160763 0.65787212321113708 0 1 0.69999999999999996 0 0.9578014258160763 0.65787212321113708 0 1 0.64999999999986979 0 1 0.64999999999986979 0 0.9578014258160763 0.65787212321113708 0 0.95867599106212187 0.60011091146651041 0 1 0.54999999999963112 0 0.95867599106212187 0.60011091146651041 0 0.93732437411268477 0.55911392101136159 0 1 0.59999999999973963 0 1 0.64999999999986979 0 0.95867599106212187 0.60011091146651041 0 1 0.54999999999963112 0 1 0.59999999999973963 0 0.95867599106212187 0.60011091146651041 0 0.91750694127105259 0.63017627779935648 0 0.91143117093204207 0.58709913730335972 0 0.95867599106212187 0.60011091146651041 0 0.93732437411268477 0.55911392101136159 0 0.95867599106212187 0.60011091146651041 0 0.91143117093204207 0.58709913730335972 0 0.86956835336234861 0.571283299838105 0 0.90900154012161016 0.53607784105648792 0 0.91143117093204207 0.58709913730335972 0 0.86956835336234861 0.571283299838105 0 0.91143117093204207 0.58709913730335972 0 0.87159648282691515 0.61285406320581504 0 0.91750694127105259 0.63017627779935648 0 0.87159648282691515 0.61285406320581504 0 0.91143117093204207 0.58709913730335972 0 0.91696753777131557 0.497780560203536 0 0.90900154012161016 0.53607784105648792 0 0.86907294890112186 0.52008116128001669 0 0.86956835336234861 0.571283299838105 0 0.86907294890112186 0.52008116128001669 0 0.90900154012161016 0.53607784105648792 0 0.93732437411268477 0.55911392101136159 0 0.90900154012161016 0.53607784105648792 0 0.95631871884947484 0.51827533208233789 0 0.93732437411268477 0.55911392101136159 0 0.91143117093204207 0.58709913730335972 0 0.90900154012161016 0.53607784105648792 0 0.91696753777131557 0.497780560203536 0 0.95631871884947484 0.51827533208233789 0 0.90900154012161016 0.53607784105648792 0 1 0.54999999999963112 0 0.93732437411268477 0.55911392101136159 0 0.95631871884947484 0.51827533208233789 0 1 0.49999999999950101 0 1 0.54999999999963112 0 0.95631871884947484 0.51827533208233789 0 1 0.49999999999950101 0 0.95631871884947484 0.51827533208233789 0 0.96228564064454991 0.48206450662049471 0 1 0.44999999999963131 0 1 0.49999999999950101 0 0.96228564064454991 0.48206450662049471 0 1 0.44999999999963131 0 0.96228564064454991 0.48206450662049471 0 0.93814194660195893 0.44426664081746747 0 0.91696753777131557 0.497780560203536 0 0.93814194660195893 0.44426664081746747 0 0.96228564064454991 0.48206450662049471 0 0.91696753777131557 0.497780560203536 0 0.96228564064454991 0.48206450662049471 0 0.95631871884947484 0.51827533208233789 0 1 0.34999999999993492 0 1 0.39999999999978308 0 0.95871855522754235 0.40006508612975411 0 1 0.39999999999978308 0 1 0.44999999999963131 0 0.95871855522754235 0.40006508612975411 0 1 0.44999999999963131 0 0.93814194660195893 0.44426664081746747 0 0.95871855522754235 0.40006508612975411 0 0.91750694127107502 0.36982372220068471 0 0.95871855522754235 0.40006508612975411 0 0.90594285160987287 0.4141265964174129 0 0.93814194660195893 0.44426664081746747 0 0.90594285160987287 0.4141265964174129 0 0.95871855522754235 0.40006508612975411 0 0.90594285160987287 0.4141265964174129 0 0.88594198078881503 0.46167788676578442 0 0.86411095495256451 0.42388805655111889 0 0.86411095495256451 0.42388805655111889 0 0.86844634540301924 0.38530937474099819 0 0.90594285160987287 0.4141265964174129 0 0.91750694127107502 0.36982372220068471 0 0.90594285160987287 0.4141265964174129 0 0.86844634540301924 0.38530937474099819 0 0.91696753777131557 0.497780560203536 0 0.88594198078881503 0.46167788676578442 0 0.93814194660195893 0.44426664081746747 0 0.93814194660195893 0.44426664081746747 0 0.88594198078881503 0.46167788676578442 0 0.90594285160987287 0.4141265964174129 0 0.91696753777131557 0.497780560203536 0 0.86907294890112186 0.52008116128001669 0 0.88594198078881503 0.46167788676578442 0 0.84723782639812573 0.48638347960178252 0 0.88594198078881503 0.46167788676578442 0 0.86907294890112186 0.52008116128001669 0 0.84723782639812573 0.48638347960178252 0 0.81441713509985358 0.51161854125224959 0 0.81400510706333218 0.47357325943904899 0 0.84723782639812573 0.48638347960178252 0 0.81400510706333218 0.47357325943904899 0 0.84925632466077294 0.45359738909549091 0 0.81973119833356312 0.43505687159469048 0 0.84925632466077294 0.45359738909549091 0 0.81400510706333218 0.47357325943904899 0 0.84723782639812573 0.48638347960178252 0 0.84925632466077294 0.45359738909549091 0 0.88594198078881503 0.46167788676578442 0 0.86411095495256451 0.42388805655111889 0 0.84925632466077294 0.45359738909549091 0 0.81973119833356312 0.43505687159469048 0 0.86411095495256451 0.42388805655111889 0 0.88594198078881503 0.46167788676578442 0 0.84925632466077294 0.45359738909549091 0 0.86411095495256451 0.42388805655111889 0 0.81308179852519835 0.39754945808726527 0 0.86844634540301924 0.38530937474099819 0 0.83573492347052902 0.36590755630746369 0 0.86844634540301924 0.38530937474099819 0 0.81308179852519835 0.39754945808726527 0 0.86411095495256451 0.42388805655111889 0 0.81973119833356312 0.43505687159469048 0 0.81308179852519835 0.39754945808726527 0 0.77354604466818633 0.40378688774472771 0 0.81973119833356312 0.43505687159469048 0 0.77972660463949339 0.45529290596363098 0 0.77354604466818633 0.40378688774472771 0 0.81308179852519835 0.39754945808726527 0 0.81973119833356312 0.43505687159469048 0 0.77354604466818633 0.40378688774472771 0 0.78145581580700685 0.34881365920033602 0 0.81308179852519835 0.39754945808726527 0 0.77354604466818633 0.40378688774472771 0 0.77972660463949339 0.45529290596363098 0 0.73483647259922602 0.44789725365921768 0 0.73483647259922602 0.44789725365921768 0 0.77972660463949339 0.45529290596363098 0 0.73947346780852752 0.49062440112282169 0 0.77846603114747959 0.49850927265137401 0 0.73947346780852752 0.49062440112282169 0 0.77972660463949339 0.45529290596363098 0 0.77846603114747959 0.49850927265137401 0 0.77972660463949339 0.45529290596363098 0 0.81400510706333218 0.47357325943904899 0 0.77846603114747959 0.49850927265137401 0 0.81400510706333218 0.47357325943904899 0 0.81441713509985358 0.51161854125224959 0 0.81973119833356312 0.43505687159469048 0 0.81400510706333218 0.47357325943904899 0 0.77972660463949339 0.45529290596363098 0 0.79999999999999982 0.29999999999999999 0 0.77075983436335049 0.25919399014334171 0 0.81486180804364938 0.26321394949780091 0 0.74999999999999989 0.29999999999999999 0 0.79999999999999982 0.29999999999999999 0 0.74999999999999989 0.29999999999999999 0 0.77075983436335049 0.25919399014334171 0 0.79999999999999982 0.29999999999999999 0 0.74999999999999989 0.29999999999999999 0 0.79999999999999982 0.29999999999999999 0 0.78145581580700685 0.34881365920033602 0 0.74999999999999989 0.29999999999999999 0 0.78145581580700685 0.34881365920033602 0 0.73090396928863699 0.33699297293167962 0 0.77354604466818633 0.40378688774472771 0 0.74764719760526988 0.3719647154012321 0 0.78145581580700685 0.34881365920033602 0 0.78145581580700685 0.34881365920033602 0 0.74764719760526988 0.3719647154012321 0 0.73090396928863699 0.33699297293167962 0 0.83573492347052902 0.36590755630746369 0 0.81308179852519835 0.39754945808726527 0 0.78145581580700685 0.34881365920033602 0 0.79999999999999982 0.29999999999999999 0 0.82500000000000062 0.33010209762754811 0 0.78145581580700685 0.34881365920033602 0 0.83573492347052902 0.36590755630746369 0 0.78145581580700685 0.34881365920033602 0 0.82500000000000062 0.33010209762754811 0 0.83573492347052902 0.36590755630746369 0 0.82500000000000062 0.33010209762754811 0 0.87430060258887643 0.34056085888204451 0 0.83573492347052902 0.36590755630746369 0 0.87430060258887643 0.34056085888204451 0 0.86844634540301924 0.38530937474099819 0 0.84999999999999987 0.29999999999999999 0 0.87430060258887643 0.34056085888204451 0 0.82500000000000062 0.33010209762754811 0 0.84999999999999987 0.29999999999999999 0 0.89999999999999991 0.29999999999999999 0 0.87430060258887643 0.34056085888204451 0 0.84999999999999987 0.29999999999999999 0 0.81486180804364938 0.26321394949780091 0 0.8517097391133297 0.2356960729520409 0 0.84999999999999987 0.29999999999999999 0 0.8517097391133297 0.2356960729520409 0 0.89898474358614167 0.25391965591104898 0 0.84999999999999987 0.29999999999999999 0 0.89999999999999991 0.29999999999999999 0 0.79999999999999982 0.29999999999999999 0 0.84999999999999987 0.29999999999999999 0 0.82500000000000062 0.33010209762754811 0 0.79999999999999982 0.29999999999999999 0 0.81486180804364938 0.26321394949780091 0 0.84999999999999987 0.29999999999999999 0 0.79999999999999982 0.29999999999999999 0 0.84999999999999987 0.29999999999999999 0 0.84999999999999987 0.29999999999999999 0 0.89898474358614167 0.25391965591104898 0 0.89999999999999991 0.29999999999999999 0 0.89999999999999991 0.29999999999999999 0 0.94999999999999996 0.29999999999999999 0 0.89999999999999991 0.29999999999999999 0 0.94999999999999996 0.29999999999999999 0 0.92012390126144183 0.33123581297173937 0 0.89999999999999991 0.29999999999999999 0 0.89898474358614167 0.25391965591104898 0 0.94999999999999996 0.29999999999999999 0 0.94999999999999996 0.29999999999999999 0 0.89898474358614167 0.25391965591104898 0 0.94399509803921056 0.24399509803922639 0 0.91750694127107502 0.36982372220068471 0 0.86844634540301924 0.38530937474099819 0 0.87430060258887643 0.34056085888204451 0 0.91750694127107502 0.36982372220068471 0 0.87430060258887643 0.34056085888204451 0 0.92012390126144183 0.33123581297173937 0 0.89999999999999991 0.29999999999999999 0 0.92012390126144183 0.33123581297173937 0 0.87430060258887643 0.34056085888204451 0 0.91750694127107502 0.36982372220068471 0 0.92012390126144183 0.33123581297173937 0 0.95780851984364423 0.34215720972155339 0 0.91750694127107502 0.36982372220068471 0 0.95780851984364423 0.34215720972155339 0 0.95871855522754235 0.40006508612975411 0 0.94999999999999996 0.29999999999999999 0 0.95780851984364423 0.34215720972155339 0 0.92012390126144183 0.33123581297173937 0 1 0.29999999999999999 0 0.95780851984364423 0.34215720972155339 0 0.94999999999999996 0.29999999999999999 0 1 0.29999999999999999 0 1 0.34999999999993492 0 0.95780851984364423 0.34215720972155339 0 1 0.34999999999993492 0 0.95871855522754235 0.40006508612975411 0 0.95780851984364423 0.34215720972155339 0 0.94999999999999996 0.29999999999999999 0 0.94399509803921056 0.24399509803922639 0 0.97166519676951801 0.26662885509932011 0 0.94999999999999996 0.29999999999999999 0 1 0.29999999999999999 0 1 0.29999999999999999 0 0.94999999999999996 0.29999999999999999 0 0.97166519676951801 0.26662885509932011 0 1 0.29999999999999999 0 0.97166519676951801 0.26662885509932011 0 1 0.24999999999987299 0 1 0.24999999999987299 0 0.97166519676951801 0.26662885509932011 0 0.97435614836740092 0.22499999999981049 0 1 0.19999999999974799 0 1 0.24999999999987299 0 0.97435614836740092 0.22499999999981049 0 0.94399509803921056 0.24399509803922639 0 0.95391631417672862 0.19584263333809451 0 0.97435614836740092 0.22499999999981049 0 0.94399509803921056 0.24399509803922639 0 0.97435614836740092 0.22499999999981049 0 0.97166519676951801 0.26662885509932011 0 1 0.19999999999974799 0 0.97435614836740092 0.22499999999981049 0 0.95391631417672862 0.19584263333809451 0 1 0.14999999999961891 0 0.95391631417672862 0.19584263333809451 0 0.93677536231883773 0.14999999999999089 0 1 0.14999999999961891 0 0.93677536231883773 0.14999999999999089 0 0.95386563387744361 0.1041487415577465 0 1 0.14999999999961891 0 1 0.19999999999974799 0 0.95391631417672862 0.19584263333809451 0 0.90416666666668166 0.20416666666667119 0 0.93677536231883773 0.14999999999999089 0 0.95391631417672862 0.19584263333809451 0 0.90416666666668166 0.20416666666667119 0 0.88088768115941807 0.14674609810479519 0 0.93677536231883773 0.14999999999999089 0 0.90299850604006393 0.09563452813493091 0 0.93677536231883773 0.14999999999999089 0 0.88088768115941807 0.14674609810479519 0 0.90416666666668166 0.20416666666667119 0 0.85600844944842547 0.1848341897950983 0 0.88088768115941807 0.14674609810479519 0 0.90416666666668166 0.20416666666667119 0 0.89898474358614167 0.25391965591104898 0 0.8517097391133297 0.2356960729520409 0 0.90416666666668166 0.20416666666667119 0 0.94399509803921056 0.24399509803922639 0 0.89898474358614167 0.25391965591104898 0 0.90416666666668166 0.20416666666667119 0 0.95391631417672862 0.19584263333809451 0 0.94399509803921056 0.24399509803922639 0 0.94999999999986839 0 0 0.97166519676946894 0.033371144900598393 0 0.94399509803922566 0.056004901960802607 0 1 0 0 0.97166519676946894 0.033371144900598393 0 0.94999999999986839 0 0 1 0 0 1 0.049999999999896842 0 0.97166519676946894 0.033371144900598393 0 1 0.049999999999896842 0 0.97435614836748241 0.074999999999825387 0 0.97166519676946894 0.033371144900598393 0 0.94399509803922566 0.056004901960802607 0 0.97166519676946894 0.033371144900598393 0 0.97435614836748241 0.074999999999825387 0 0.94399509803922566 0.056004901960802607 0 0.97435614836748241 0.074999999999825387 0 0.95386563387744361 0.1041487415577465 0 1 0.099999999999753911 0 0.95386563387744361 0.1041487415577465 0 0.97435614836748241 0.074999999999825387 0 1 0.049999999999896842 0 1 0.099999999999753911 0 0.97435614836748241 0.074999999999825387 0 1 0.099999999999753911 0 1 0.14999999999961891 0 0.95386563387744361 0.1041487415577465 0 0.90299850604006393 0.09563452813493091 0 0.95386563387744361 0.1041487415577465 0 0.93677536231883773 0.14999999999999089 0 0.90299850604006393 0.09563452813493091 0 0.88088768115941807 0.14674609810479519 0 0.84725310900442086 0.10779732082922661 0 0.90299850604006393 0.09563452813493091 0 0.85491058998398861 0.060047533455626502 0 0.899991664607802 0.045289349238254978 0 0.90299850604006393 0.09563452813493091 0 0.94399509803922566 0.056004901960802607 0 0.95386563387744361 0.1041487415577465 0 0.90299850604006393 0.09563452813493091 0 0.899991664607802 0.045289349238254978 0 0.94399509803922566 0.056004901960802607 0 0.94999999999986839 0 0 0.94399509803922566 0.056004901960802607 0 0.899991664607802 0.045289349238254978 0 0.84999999999960507 0 0 0.89999999999973679 0 0 0.899991664607802 0.045289349238254978 0 0.89999999999973679 0 0 0.94999999999986839 0 0 0.899991664607802 0.045289349238254978 0 0.79999999999947335 0 0 0.84999999999960507 0 0 0.81864958914740749 0.035890501779055867 0 0.84999999999960507 0 0 0.899991664607802 0.045289349238254978 0 0.85491058998398861 0.060047533455626502 0 0.80185942888501827 0.074520613036224564 0 0.81864958914740749 0.035890501779055867 0 0.85491058998398861 0.060047533455626502 0 0.84999999999960507 0 0 0.85491058998398861 0.060047533455626502 0 0.81864958914740749 0.035890501779055867 0 0.80185942888501827 0.074520613036224564 0 0.85491058998398861 0.060047533455626502 0 0.84725310900442086 0.10779732082922661 0 0.90299850604006393 0.09563452813493091 0 0.84725310900442086 0.10779732082922661 0 0.85491058998398861 0.060047533455626502 0 0.80185942888501827 0.074520613036224564 0 0.84725310900442086 0.10779732082922661 0 0.80076557130237269 0.1154587552654202 0 0.82709327591102189 0.14937141670914489 0 0.80076557130237269 0.1154587552654202 0 0.84725310900442086 0.10779732082922661 0 0.80185942888501827 0.074520613036224564 0 0.80076557130237269 0.1154587552654202 0 0.76878382444651716 0.097147941686331368 0 0.72525833953073282 0.1032114801687094 0 0.76878382444651716 0.097147941686331368 0 0.77144070960558853 0.14311854477243749 0 0.77144070960558853 0.14311854477243749 0 0.76878382444651716 0.097147941686331368 0 0.80076557130237269 0.1154587552654202 0 0.80185942888501827 0.074520613036224564 0 0.76878382444651716 0.097147941686331368 0 0.7527966693318906 0.053051678021508272 0 0.80185942888501827 0.074520613036224564 0 0.78393852574753176 0.032039079577822822 0 0.81864958914740749 0.035890501779055867 0 0.80185942888501827 0.074520613036224564 0 0.7527966693318906 0.053051678021508272 0 0.78393852574753176 0.032039079577822822 0 0.74999999999934175 0 0 0.78393852574753176 0.032039079577822822 0 0.7527966693318906 0.053051678021508272 0 0.74999999999934175 0 0 0.79999999999947335 0 0 0.78393852574753176 0.032039079577822822 0 0.79999999999947335 0 0 0.81864958914740749 0.035890501779055867 0 0.78393852574753176 0.032039079577822822 0 0.79680861578956375 0.22656778056752541 0 0.81283102246527783 0.1881007222486438 0 0.8517097391133297 0.2356960729520409 0 0.8517097391133297 0.2356960729520409 0 0.81283102246527783 0.1881007222486438 0 0.85600844944842547 0.1848341897950983 0 0.79680861578956375 0.22656778056752541 0 0.8517097391133297 0.2356960729520409 0 0.81486180804364938 0.26321394949780091 0 0.90416666666668166 0.20416666666667119 0 0.8517097391133297 0.2356960729520409 0 0.85600844944842547 0.1848341897950983 0 0.82709327591102189 0.14937141670914489 0 0.88088768115941807 0.14674609810479519 0 0.85600844944842547 0.1848341897950983 0 0.82709327591102189 0.14937141670914489 0 0.84725310900442086 0.10779732082922661 0 0.88088768115941807 0.14674609810479519 0 0.82709327591102189 0.14937141670914489 0 0.85600844944842547 0.1848341897950983 0 0.81283102246527783 0.1881007222486438 0 0.77144070960558853 0.14311854477243749 0 0.81283102246527783 0.1881007222486438 0 0.76587607630038135 0.18880039518954719 0 0.82709327591102189 0.14937141670914489 0 0.81283102246527783 0.1881007222486438 0 0.77144070960558853 0.14311854477243749 0 0.82709327591102189 0.14937141670914489 0 0.77144070960558853 0.14311854477243749 0 0.80076557130237269 0.1154587552654202 0 0.77144070960558853 0.14311854477243749 0 0.76587607630038135 0.18880039518954719 0 0.72634814642510737 0.16106886917518889 0 0.79680861578956375 0.22656778056752541 0 0.75668890529066124 0.2244279804069782 0 0.76587607630038135 0.18880039518954719 0 0.79680861578956375 0.22656778056752541 0 0.76587607630038135 0.18880039518954719 0 0.81283102246527783 0.1881007222486438 0 0.79680861578956375 0.22656778056752541 0 0.81486180804364938 0.26321394949780091 0 0.77075983436335049 0.25919399014334171 0 0.79680861578956375 0.22656778056752541 0 0.77075983436335049 0.25919399014334171 0 0.75668890529066124 0.2244279804069782 0 0.72500000000000064 0.2498161764706 0 0.75668890529066124 0.2244279804069782 0 0.77075983436335049 0.25919399014334171 0 0.72500000000001008 0.19776155966387679 0 0.75668890529066124 0.2244279804069782 0 0.72500000000000064 0.2498161764706 0 0.72500000000001008 0.19776155966387679 0 0.72500000000000064 0.2498161764706 0 0.69397719155551807 0.2245125647000914 0 0.72500000000000064 0.2498161764706 0 0.67933712972090698 0.25920070958121938 0 0.69397719155551807 0.2245125647000914 0 0.72500000000001008 0.19776155966387679 0 0.69397719155551807 0.2245125647000914 0 0.6865991819015953 0.189116534044597 0 0.72500000000001008 0.19776155966387679 0 0.76587607630038135 0.18880039518954719 0 0.75668890529066124 0.2244279804069782 0 0.72500000000001008 0.19776155966387679 0 0.72634814642510737 0.16106886917518889 0 0.76587607630038135 0.18880039518954719 0 0.72525833953073282 0.1032114801687094 0 0.77144070960558853 0.14311854477243749 0 0.72634814642510737 0.16106886917518889 0 0.72525833953073282 0.1032114801687094 0 0.72634814642510737 0.16106886917518889 0 0.68391457121233579 0.14440470121196541 0 0.72500000000001008 0.19776155966387679 0 0.6865991819015953 0.189116534044597 0 0.72634814642510737 0.16106886917518889 0 0.68391457121233579 0.14440470121196541 0 0.72634814642510737 0.16106886917518889 0 0.6865991819015953 0.189116534044597 0 0.68391457121233579 0.14440470121196541 0 0.6865991819015953 0.189116534044597 0 0.64011864159029941 0.18789607982138171 0 0.6236733212988993 0.14864538214901801 0 0.65290632656860115 0.11434202593454081 0 0.68391457121233579 0.14440470121196541 0 0.6236733212988993 0.14864538214901801 0 0.68391457121233579 0.14440470121196541 0 0.64011864159029941 0.18789607982138171 0 0.65394964615507722 0.22666784374016369 0 0.59814117807200873 0.23398510860739519 0 0.64011864159029941 0.18789607982138171 0 0.65394964615507722 0.22666784374016369 0 0.62657463266645097 0.26524202571255862 0 0.59814117807200873 0.23398510860739519 0 0.65394964615507722 0.22666784374016369 0 0.69397719155551807 0.2245125647000914 0 0.67933712972090698 0.25920070958121938 0 0.65394964615507722 0.22666784374016369 0 0.64011864159029941 0.18789607982138171 0 0.6865991819015953 0.189116534044597 0 0.65394964615507722 0.22666784374016369 0 0.6865991819015953 0.189116534044597 0 0.69397719155551807 0.2245125647000914 0 0.69999999999921003 0 0 0.72683645290270404 0.027797073151180601 0 0.7010294155333181 0.056779085686491267 0 0.69999999999921003 0 0 0.7010294155333181 0.056779085686491267 0 0.66369801598854572 0.036327466368102787 0 0.74999999999934175 0 0 0.7527966693318906 0.053051678021508272 0 0.72683645290270404 0.027797073151180601 0 0.69999999999921003 0 0 0.74999999999934175 0 0 0.72683645290270404 0.027797073151180601 0 0.7527966693318906 0.053051678021508272 0 0.7010294155333181 0.056779085686491267 0 0.72683645290270404 0.027797073151180601 0 0.72525833953073282 0.1032114801687094 0 0.68330259535470161 0.10038702501083881 0 0.7010294155333181 0.056779085686491267 0 0.72525833953073282 0.1032114801687094 0 0.7010294155333181 0.056779085686491267 0 0.7527966693318906 0.053051678021508272 0 0.72525833953073282 0.1032114801687094 0 0.7527966693318906 0.053051678021508272 0 0.76878382444651716 0.097147941686331368 0 0.72525833953073282 0.1032114801687094 0 0.68391457121233579 0.14440470121196541 0 0.68330259535470161 0.10038702501083881 0 0.65408113592120842 0.073941773121567966 0 0.68330259535470161 0.10038702501083881 0 0.65290632656860115 0.11434202593454081 0 0.68391457121233579 0.14440470121196541 0 0.65290632656860115 0.11434202593454081 0 0.68330259535470161 0.10038702501083881 0 0.6236733212988993 0.14864538214901801 0 0.61956000905586006 0.1043312481793135 0 0.65290632656860115 0.11434202593454081 0 0.65408113592120842 0.073941773121567966 0 0.65290632656860115 0.11434202593454081 0 0.61956000905586006 0.1043312481793135 0 0.65408113592120842 0.073941773121567966 0 0.61956000905586006 0.1043312481793135 0 0.61940220174112337 0.047251958781050582 0 0.65408113592120842 0.073941773121567966 0 0.7010294155333181 0.056779085686491267 0 0.68330259535470161 0.10038702501083881 0 0.65408113592120842 0.073941773121567966 0 0.66369801598854572 0.036327466368102787 0 0.7010294155333181 0.056779085686491267 0 0.65408113592120842 0.073941773121567966 0 0.61940220174112337 0.047251958781050582 0 0.66369801598854572 0.036327466368102787 0 0.64999999999907843 0 0 0.66369801598854572 0.036327466368102787 0 0.61940220174112337 0.047251958781050582 0 0.64999999999907843 0 0 0.69999999999921003 0 0 0.66369801598854572 0.036327466368102787 0 0.5499999999988151 0 0 0.59999999999894682 0 0 0.57396793757665954 0.037011367187645222 0 0.59999999999894682 0 0 0.64999999999907843 0 0 0.61940220174112337 0.047251958781050582 0 0.59999999999894682 0 0 0.61940220174112337 0.047251958781050582 0 0.57396793757665954 0.037011367187645222 0 0.57667858002728545 0.078486105337742612 0 0.57396793757665954 0.037011367187645222 0 0.61940220174112337 0.047251958781050582 0 0.57667858002728545 0.078486105337742612 0 0.61940220174112337 0.047251958781050582 0 0.61956000905586006 0.1043312481793135 0 0.6236733212988993 0.14864538214901801 0 0.58516465772821369 0.11653801664834119 0 0.61956000905586006 0.1043312481793135 0 0.57667858002728545 0.078486105337742612 0 0.61956000905586006 0.1043312481793135 0 0.58516465772821369 0.11653801664834119 0 0.56202748619534593 0.15054058349222879 0 0.54979595918804436 0.1060565713905809 0 0.58516465772821369 0.11653801664834119 0 0.57667858002728545 0.078486105337742612 0 0.58516465772821369 0.11653801664834119 0 0.54979595918804436 0.1060565713905809 0 0.51076801031701946 0.1202837388510348 0 0.52375890611712683 0.059318771819432882 0 0.54979595918804436 0.1060565713905809 0 0.51076801031701946 0.1202837388510348 0 0.47881186583059909 0.093591717165689425 0 0.52375890611712683 0.059318771819432882 0 0.57667858002728545 0.078486105337742612 0 0.54979595918804436 0.1060565713905809 0 0.52375890611712683 0.059318771819432882 0 0.5499999999988151 0 0 0.57396793757665954 0.037011367187645222 0 0.52375890611712683 0.059318771819432882 0 0.57667858002728545 0.078486105337742612 0 0.52375890611712683 0.059318771819432882 0 0.57396793757665954 0.037011367187645222 0 0.49999999999869432 0 0 0.5499999999988151 0 0 0.52375890611712683 0.059318771819432882 0 0.55306006949600994 0.20198184231352201 0 0.59443395090188023 0.18455690917515069 0 0.59814117807200873 0.23398510860739519 0 0.55306006949600994 0.20198184231352201 0 0.59814117807200873 0.23398510860739519 0 0.54248833945060504 0.2520322959927106 0 0.59814117807200873 0.23398510860739519 0 0.59443395090188023 0.18455690917515069 0 0.64011864159029941 0.18789607982138171 0 0.6236733212988993 0.14864538214901801 0 0.64011864159029941 0.18789607982138171 0 0.59443395090188023 0.18455690917515069 0 0.6236733212988993 0.14864538214901801 0 0.56202748619534593 0.15054058349222879 0 0.58516465772821369 0.11653801664834119 0 0.6236733212988993 0.14864538214901801 0 0.59443395090188023 0.18455690917515069 0 0.56202748619534593 0.15054058349222879 0 0.55306006949600994 0.20198184231352201 0 0.56202748619534593 0.15054058349222879 0 0.59443395090188023 0.18455690917515069 0 0.55306006949600994 0.20198184231352201 0 0.51729576145820033 0.1683240575987815 0 0.56202748619534593 0.15054058349222879 0 0.51076801031701946 0.1202837388510348 0 0.54979595918804436 0.1060565713905809 0 0.56202748619534593 0.15054058349222879 0 0.51076801031701946 0.1202837388510348 0 0.51729576145820033 0.1683240575987815 0 0.48466639505193998 0.1421439844745814 0 0.51076801031701946 0.1202837388510348 0 0.56202748619534593 0.15054058349222879 0 0.51729576145820033 0.1683240575987815 0 0.55306006949600994 0.20198184231352201 0 0.50760557329222289 0.20700468884612061 0 0.51729576145820033 0.1683240575987815 0 0.50760557329222289 0.20700468884612061 0 0.55306006949600994 0.20198184231352201 0 0.54248833945060504 0.2520322959927106 0 0.49695729691142171 0.25014895411178018 0 0.50760557329222289 0.20700468884612061 0 0.54248833945060504 0.2520322959927106 0 0.5 0.29999999999999999 0 0.49695729691142171 0.25014895411178018 0 0.54248833945060504 0.2520322959927106 0 0.5 0.29999999999999999 0 0.54999999999999993 0.29999999999999999 0 0.52752007115234678 0.33170632466418198 0 0.5 0.29999999999999999 0 0.54248833945060504 0.2520322959927106 0 0.54999999999999993 0.29999999999999999 0 0.5 0.29999999999999999 0 0.54999999999999993 0.29999999999999999 0 0.54999999999999993 0.29999999999999999 0 0.54248833945060504 0.2520322959927106 0 0.5794309697024993 0.27124795968204829 0 0.59814117807200873 0.23398510860739519 0 0.5794309697024993 0.27124795968204829 0 0.54248833945060504 0.2520322959927106 0 0.54999999999999993 0.29999999999999999 0 0.59999999999999976 0.29999999999999999 0 0.54999999999999993 0.29999999999999999 0 0.5794309697024993 0.27124795968204829 0 0.59999999999999976 0.29999999999999999 0 0.59999999999999976 0.29999999999999999 0 0.6499999999999998 0.29999999999999999 0 0.59999999999999976 0.29999999999999999 0 0.5794309697024993 0.27124795968204829 0 0.62657463266645097 0.26524202571255862 0 0.59814117807200873 0.23398510860739519 0 0.62657463266645097 0.26524202571255862 0 0.5794309697024993 0.27124795968204829 0 0.6084546825910605 0.37989672713932537 0 0.56836770495988642 0.3523062350852913 0 0.61959173890754571 0.33832250091341232 0 0.59999999999999976 0.29999999999999999 0 0.6499999999999998 0.29999999999999999 0 0.61959173890754571 0.33832250091341232 0 0.59999999999999976 0.29999999999999999 0 0.61959173890754571 0.33832250091341232 0 0.56836770495988642 0.3523062350852913 0 0.54999999999999993 0.29999999999999999 0 0.59999999999999976 0.29999999999999999 0 0.56836770495988642 0.3523062350852913 0 0.56836770495988642 0.3523062350852913 0 0.52289427570932567 0.3932284363388488 0 0.52752007115234678 0.33170632466418198 0 0.54999999999999993 0.29999999999999999 0 0.56836770495988642 0.3523062350852913 0 0.52752007115234678 0.33170632466418198 0 0.5 0.29999999999999999 0 0.52752007115234678 0.33170632466418198 0 0.49077833859261139 0.35229981449445641 0 0.52752007115234678 0.33170632466418198 0 0.52289427570932567 0.3932284363388488 0 0.49077833859261139 0.35229981449445641 0 0.52289427570932567 0.3932284363388488 0 0.56836770495988642 0.3523062350852913 0 0.57744073070774993 0.41535148636609359 0 0.52289427570932567 0.3932284363388488 0 0.57744073070774993 0.41535148636609359 0 0.53823865529665704 0.45873898050322898 0 0.52289427570932567 0.3932284363388488 0 0.53823865529665704 0.45873898050322898 0 0.48858720058566618 0.43964267759203868 0 0.49102375406324739 0.49123754822244059 0 0.53823865529665704 0.45873898050322898 0 0.53330375813596242 0.50827942741749099 0 0.49102375406324739 0.49123754822244059 0 0.48858720058566618 0.43964267759203868 0 0.53823865529665704 0.45873898050322898 0 0.57611405284611883 0.50165903596042916 0 0.53330375813596242 0.50827942741749099 0 0.53823865529665704 0.45873898050322898 0 0.57611405284611883 0.50165903596042916 0 0.57975577671020095 0.46172033326338591 0 0.61547661924074692 0.48539576058873962 0 0.57611405284611883 0.50165903596042916 0 0.53823865529665704 0.45873898050322898 0 0.57975577671020095 0.46172033326338591 0 0.61209567303293111 0.44669033081290321 0 0.57975577671020095 0.46172033326338591 0 0.57744073070774993 0.41535148636609359 0 0.53823865529665704 0.45873898050322898 0 0.57744073070774993 0.41535148636609359 0 0.57975577671020095 0.46172033326338591 0 0.61209567303293111 0.44669033081290321 0 0.61547661924074692 0.48539576058873962 0 0.57975577671020095 0.46172033326338591 0 0.6084546825910605 0.37989672713932537 0 0.57744073070774993 0.41535148636609359 0 0.56836770495988642 0.3523062350852913 0 0.61209567303293111 0.44669033081290321 0 0.57744073070774993 0.41535148636609359 0 0.63912439215427275 0.41063340167983359 0 0.6084546825910605 0.37989672713932537 0 0.63912439215427275 0.41063340167983359 0 0.57744073070774993 0.41535148636609359 0 0.6084546825910605 0.37989672713932537 0 0.65481233915350323 0.35652751921065562 0 0.63912439215427275 0.41063340167983359 0 0.6879972333610942 0.43038561374960838 0 0.65178832218679827 0.45929119821019959 0 0.63912439215427275 0.41063340167983359 0 0.6879972333610942 0.43038561374960838 0 0.63912439215427275 0.41063340167983359 0 0.68128176404677243 0.38629093627004979 0 0.65481233915350323 0.35652751921065562 0 0.68128176404677243 0.38629093627004979 0 0.63912439215427275 0.41063340167983359 0 0.6541250972820879 0.49999999999999989 0 0.61547661924074692 0.48539576058873962 0 0.65178832218679827 0.45929119821019959 0 0.61209567303293111 0.44669033081290321 0 0.65178832218679827 0.45929119821019959 0 0.61547661924074692 0.48539576058873962 0 0.61209567303293111 0.44669033081290321 0 0.63912439215427275 0.41063340167983359 0 0.65178832218679827 0.45929119821019959 0 0.6879972333610942 0.43038561374960838 0 0.69385896817107129 0.48377516041410151 0 0.65178832218679827 0.45929119821019959 0 0.6541250972820879 0.49999999999999989 0 0.65178832218679827 0.45929119821019959 0 0.69385896817107129 0.48377516041410151 0 0.7152569930854884 0.5237994455134295 0 0.69385896817107129 0.48377516041410151 0 0.73947346780852752 0.49062440112282169 0 0.6879972333610942 0.43038561374960838 0 0.73483647259922602 0.44789725365921768 0 0.69385896817107129 0.48377516041410151 0 0.73483647259922602 0.44789725365921768 0 0.73947346780852752 0.49062440112282169 0 0.69385896817107129 0.48377516041410151 0 0.71508799138962864 0.36622814920737751 0 0.72622533758026719 0.40265885511101601 0 0.68128176404677243 0.38629093627004979 0 0.6879972333610942 0.43038561374960838 0 0.72622533758026719 0.40265885511101601 0 0.73483647259922602 0.44789725365921768 0 0.6879972333610942 0.43038561374960838 0 0.68128176404677243 0.38629093627004979 0 0.72622533758026719 0.40265885511101601 0 0.77354604466818633 0.40378688774472771 0 0.73483647259922602 0.44789725365921768 0 0.72622533758026719 0.40265885511101601 0 0.71508799138962864 0.36622814920737751 0 0.74764719760526988 0.3719647154012321 0 0.72622533758026719 0.40265885511101601 0 0.77354604466818633 0.40378688774472771 0 0.72622533758026719 0.40265885511101601 0 0.74764719760526988 0.3719647154012321 0 0.71508799138962864 0.36622814920737751 0 0.73090396928863699 0.33699297293167962 0 0.74764719760526988 0.3719647154012321 0 0.71508799138962864 0.36622814920737751 0 0.68887083591306764 0.33632058575757479 0 0.73090396928863699 0.33699297293167962 0 0.71508799138962864 0.36622814920737751 0 0.68128176404677243 0.38629093627004979 0 0.68887083591306764 0.33632058575757479 0 0.69999999999999984 0.29999999999999999 0 0.73090396928863699 0.33699297293167962 0 0.68887083591306764 0.33632058575757479 0 0.69999999999999984 0.29999999999999999 0 0.72500000000000064 0.2498161764706 0 0.74999999999999989 0.29999999999999999 0 0.69999999999999984 0.29999999999999999 0 0.74999999999999989 0.29999999999999999 0 0.69999999999999984 0.29999999999999999 0 0.74999999999999989 0.29999999999999999 0 0.73090396928863699 0.33699297293167962 0 0.74999999999999989 0.29999999999999999 0 0.72500000000000064 0.2498161764706 0 0.77075983436335049 0.25919399014334171 0 0.69999999999999984 0.29999999999999999 0 0.67933712972090698 0.25920070958121938 0 0.72500000000000064 0.2498161764706 0 0.6499999999999998 0.29999999999999999 0 0.67933712972090698 0.25920070958121938 0 0.69999999999999984 0.29999999999999999 0 0.6499999999999998 0.29999999999999999 0 0.69999999999999984 0.29999999999999999 0 0.68887083591306764 0.33632058575757479 0 0.6499999999999998 0.29999999999999999 0 0.69999999999999984 0.29999999999999999 0 0.6499999999999998 0.29999999999999999 0 0.62657463266645097 0.26524202571255862 0 0.67933712972090698 0.25920070958121938 0 0.65394964615507722 0.22666784374016369 0 0.67933712972090698 0.25920070958121938 0 0.62657463266645097 0.26524202571255862 0 0.59999999999999976 0.29999999999999999 0 0.62657463266645097 0.26524202571255862 0 0.6499999999999998 0.29999999999999999 0 0.6499999999999998 0.29999999999999999 0 0.65481233915350323 0.35652751921065562 0 0.61959173890754571 0.33832250091341232 0 0.6084546825910605 0.37989672713932537 0 0.61959173890754571 0.33832250091341232 0 0.65481233915350323 0.35652751921065562 0 0.65481233915350323 0.35652751921065562 0 0.68887083591306764 0.33632058575757479 0 0.68128176404677243 0.38629093627004979 0 0.6499999999999998 0.29999999999999999 0 0.68887083591306764 0.33632058575757479 0 0.65481233915350323 0.35652751921065562 0 
</DataArray>
</Points>
<Cells>
<DataArray type="UInt32" Name="connectivity" format="ascii">
0 1 2 3 4 5 6 7 8 9 10 11 12 13 14 15 16 17 18 19 20 21 22 23 24 25 26 27 28 29 30 31 32 33 34 35 36 37 38 39 40 41 42 43 44 45 46 47 48 49 50 51 52 53 54 55 56 57 58 59 60 61 62 63 64 65 66 67 68 69 70 71 72 73 74 75 76 77 78 79 80 81 82 83 84 85 86 87 88 89 90 91 92 93 94 95 96 97 98 99 100 101 102 103 104 105 106 107 108 109 110 111 112 113 114 115 116 117 118 119 120 121 122 123 124 125 126 127 128 129 130 131 132 133 134 135 136 137 138 139 140 141 142 143 144 145 146 147 148 149 150 151 152 153 154 155 156 157 158 159 160 161 162 163 164 165 166 167 168 169 170 171 172 173 174 175 176 177 178 179 180 181 182 183 184 185 186 187 188 189 190 191 192 193 194 195 196 197 198 199 200 201 202 203 204 205 206 207 208 209 210 211 212 213 214 215 216 217 218 219 220 221 222 223 224 225 226 227 228 229 230 231 232 233 234 235 236 237 238 239 240 241 242 243 244 245 246 247 248 249 250 251 252 253 254 255 256 257 258 259 260 261 262 263 264 265 266 267 268 269 270 271 272 273 274 275 276 277 278 279 280 281 282 283 284 285 286 287 288 289 290 291 292 293 294 295 296 297 298 299 300 301 302 303 304 305 306 307 308 309 310 311 312 313 314 315 316 317 318 319 320 321 322 323 324 325 326 327 328 329 330 331 332 333 334 335 336 337 338 339 340 341 342 343 344 345 346 347 348 349 350 351 352 353 354 355 356 357 358 359 360 361 362 363 364 365 366 367 368 369 370 371 372 373 374 375 376 377 378 379 380 381 382 383 384 385 386 387 388 389 390 391 392 393 394 395 396 397 398 399 400 401 402 403 404 405 406 407 408 409 410 411 412 413 414 415 416 417 418 419 420 421 422 423 424 425 426 427 428 429 430 431 432 433 434 435 436 437 438 439 440 441 442 443 444 445 446 447 448 449 450 451 452 453 454 455 456 457 458 459 460 461 462 463 464 465 466 467 468 469 470 471 472 473 474 475 476 477 478 479 480 481 482 483 484 485 486 487 488 489 490 491 492 493 494 495 496 497 498 499 500 501 502 503 504 505 506 507 508 509 510 511 512 513 514 515 516 517 518 519 520 521 522 523 524 525 526 527 528 529 530 531 532 533 534 535 536 537 538 539 540 541 542 543 544 545 546 547 548 549 550 551 552 553 554 555 556 557 558 559 560 561 562 563 564 565 566 567 568 569 570 571 572 573 574 575 576 577 578 579 580 581 582 583 584 585 586 587 588 589 590 591 592 593 594 595 596 597 598 599 600 601 602 603 604 605 606 607 608 609 610 611 612 613 614 615 616 617 618 619 620 621 622 623 624 625 626 627 628 629 630 631 632 633 634 635 636 637 638 639 640 641 642 643 644 645 646 647 648 649 650 651 652 653 654 655 656 657 658 659 660 661 662 663 664 665 666 667 668 669 670 671 672 673 674 675 676 677 678 679 680 681 682 683 684 685 686 687 688 689 690 691 692 693 694 695 696 697 698 699 700 701 702 703 704 705 706 707 708 709 710 711 712 713 714 715 716 717 718 719 720 721 722 723 724 725 726 727 728 729 730 731 732 733 734 735 736 737 738 739 740 741 742 743 744 745 746 747 748 749 750 751 752 753 754 755 756 757 758 759 760 761 762 763 764 765 766 767 768 769 770 771 772 773 774 775 776 777 778 779 780 781 782 783 784 785 786 787 788 789 790 791 792 793 794 795 796 797 798 799 800 801 802 803 804 805 806 807 808 809 810 811 812 813 814 815 816 817 818 819 820 821 822 823 824 825 826 827 828 829 830 831 832 833 834 835 836 837 838 839 840 841 842 843 844 845 846 847 848 849 850 851 852 853 854 855 856 857 858 859 860 861 862 863 864 865 866 867 868 869 870 871 872 873 874 875 876 877 878 879 880 881 882 883 884 885 886 887 888 889 890 891 892 893 894 895 896 897 898 899 900 901 902 903 904 905 906 907 908 909 910 911 912 913 914 915 916 917 918 919 920 921 922 923 924 925 926 927 928 929 930 931 932 933 934 935 936 937 938 939 940 941 942 943 944 945 946 947 948 949 950 951 952 953 954 955 956 957 958 959 960 961 962 963 964 965 966 967 968 969 970 971 972 973 974 975 976 977 978 979 980 981 982 983 984 985 986 987 988 989 990 991 992 993 994 995 996 997 998 999 1000 1001 1002 1003 1004 1005 1006 1007 1008 1009 1010 1011 1012 1013 1014 1015 1016 1017 1018 1019 1020 1021 1022 1023 1024 1025 1026 1027 1028 1029 1030 1031 1032 1033 1034 1035 1036 1037 1038 1039 1040 1041 1042 1043 1044 1045 1046 1047 1048 1049 1050 1051 1052 1053 1054 1055 1056 1057 1058 1059 1060 1061 1062 1063 1064 1065 1066 1067 1068 1069 1070 1071 1072 1073 1074 1075 1076 1077 1078 1079 1080 1081 1082 1083 1084 1085 1086 1087 1088 1089 1090 1091 1092 1093 1094 1095 1096 1097 1098 1099 1100 1101 1102 1103 1104 1105 1106 1107 1108 1109 1110 1111 1112 1113 1114 1115 1116 1117 1118 1119 1120 1121 1122 1123 1124 1125 1126 1127 1128 1129 1130 1131 1132 1133 1134 1135 1136 1137 1138 1139 1140 1141 1142 1143 1144 1145 1146 1147 1148 1149 1150 1151 1152 1153 1154 1155 1156 1157 1158 1159 1160 1161 1162 1163 1164 1165 1166 1167 1168 1169 1170 1171 1172 1173 1174 1175 1176 1177 1178 1179 1180 1181 1182 1183 1184 1185 1186 1187 1188 1189 1190 1191 1192 1193 1194 1195 1196 1197 1198 1199 1200 1201 1202 1203 1204 1205 1206 1207 1208 1209 1210 1211 1212 1213 1214 1215 1216 1217 1218 1219 1220 1221 1222 1223 1224 1225 1226 1227 1228 1229 1230 1231 1232 1233 1234 1235 1236 1237 1238 1239 1240 1241 1242 1243 1244 1245 1246 1247 1248 1249 1250 1251 1252 1253 1254 1255 1256 1257 1258 1259 1260 1261 1262 1263 1264 1265 1266 1267 1268 1269 1270 1271 1272 1273 1274 1275 1276 1277 1278 1279 1280 1281 1282 1283 1284 1285 1286 1287 1288 1289 1290 1291 1292 1293 1294 1295 1296 1297 1298 1299 1300 1301 1302 1303 1304 1305 1306 1307 1308 1309 1310 1311 1312 1313 1314 1315 1316 1317 1318 1319 1320 1321 1322 1323 1324 1325 1326 1327 1328 1329 1330 1331 1332 1333 1334 1335 1336 1337 1338 1339 1340 1341 1342 1343 1344 1345 1346 1347 1348 1349 1350 1351 1352 1353 1354 1355 1356 1357 1358 1359 1360 1361 1362 1363 1364 1365 1366 1367 1368 1369 1370 1371 1372 1373 1374 1375 1376 1377 1378 1379 1380 1381 1382 1383 1384 1385 1386 1387 1388 1389 1390 1391 1392 1393 1394 1395 1396 1397 1398 1399 1400 1401 1402 1403 1404 1405 1406 1407 1408 1409 1410 1411 1412 1413 1414 1415 1416 1417 1418 1419 1420 1421 1422 1423 1424 1425 1426 1427 1428 1429 1430 1431 1432 1433 1434 1435 1436 1437 1438 1439 1440 1441 1442 1443 1444 1445 1446 1447 1448 1449 1450 1451 1452 1453 1454 1455 1456 1457 1458 1459 1460 1461 1462 1463 1464 1465 1466 1467 1468 1469 1470 1471 1472 1473 1474 1475 1476 1477 1478 1479 1480 1481 1482 1483 1484 1485 1486 1487 1488 1489 1490 1491 1492 1493 1494 1495 1496 1497 1498 1499 1500 1501 1502 1503 1504 1505 1506 1507 1508 1509 1510 1511 1512 1513 1514 1515 1516 1517 1518 1519 1520 1521 1522 1523 1524 1525 1526 1527 1528 1529 1530 1531 1532 1533 1534 1535 1536 1537 1538 1539 1540 1541 1542 1543 1544 1545 1546 1547 1548 1549 1550 1551 1552 1553 1554 1555 1556 1557 1558 1559 1560 1561 1562 1563 1564 1565 1566 1567 1568 1569 1570 1571 1572 1573 1574 1575 1576 1577 1578 1579 1580 1581 1582 1583 1584 1585 1586 1587 1588 1589 1590 1591 1592 1593 1594 1595 1596 1597 1598 1599 1600 1601 1602 1603 1604 1605 1606 1607 1608 1609 1610 1611 1612 1613 1614 1615 1616 1617 1618 1619 1620 1621 1622 1623 1624 1625 1626 1627 1628 1629 1630 1631 1632 1633 1634 1635 1636 1637 1638 1639 1640 1641 1642 1643 1644 1645 1646 1647 1648 1649 1650 1651 1652 1653 1654 1655 1656 1657 1658 1659 1660 1661 1662 1663 1664 1665 1666 1667 1668 1669 1670 1671 1672 1673 1674 1675 1676 1677 1678 1679 1680 1681 1682 1683 1684 1685 1686 1687 1688 1689 1690 1691 1692 1693 1694 1695 1696 1697 1698 1699 1700 1701 1702 1703 1704 1705 1706 1707 1708 1709 1710 1711 1712 1713 1714 1715 1716 1717 1718 1719 1720 1721 1722 1723 1724 1725 1726 1727 1728 1729 1730 1731 1732 1733 1734 1735 1736 1737 1738 1739 1740 1741 1742 1743 1744 1745 1746 1747 1748 1749 1750 1751 1752 1753 1754 1755 1756 1757 1758 1759 1760 1761 1762 1763 1764 1765 1766 1767 1768 1769 1770 1771 1772 1773 1774 1775 1776 1777 1778 1779 1780 1781 1782 1783 1784 1785 1786 1787 1788 1789 1790 1791 1792 1793 1794 1795 1796 1797 1798 1799 1800 1801 1802 1803 1804 1805 1806 1807 1808 1809 1810 1811 1812 1813 1814 1815 1816 1817 1818 1819 1820 1821 1822 1823 1824 1825 1826 1827 1828 1829 1830 1831 1832 1833 1834 1835 1836 1837 1838 1839 1840 1841 1842 1843 1844 1845 1846 1847 1848 1849 1850 1851 1852 1853 1854 1855 1856 1857 1858 1859 1860 1861 1862 1863 1864 1865 1866 1867 1868 1869 1870 1871 1872 1873 1874 1875 1876 1877 1878 1879 1880 1881 1882 1883 1884 1885 1886 1887 1888 1889 1890 1891 1892 1893 1894 1895 1896 1897 1898 1899 1900 1901 1902 1903 1904 1905 1906 1907 1908 1909 1910 1911 1912 1913 1914 1915 1916 1917 1918 1919 1920 1921 1922 1923 1924 1925 1926 1927 1928 1929 1930 1931 1932 1933 1934 1935 1936 1937 1938 1939 1940 1941 1942 1943 1944 1945 1946 1947 1948 1949 1950 1951 1952 1953 1954 1955 1956 1957 1958 1959 1960 1961 1962 1963 1964 1965 1966 1967 1968 1969 1970 1971 1972 1973 1974 1975 1976 1977 1978 1979 1980 1981 1982 1983 1984 1985 1986 1987 1988 1989 1990 1991 1992 1993 1994 1995 1996 1997 1998 1999 2000 2001 2002 2003 2004 2005 2006 2007 2008 2009 2010 2011 2012 2013 2014 2015 2016 2017 2018 2019 2020 2021 2022 2023 2024 2025 2026 2027 2028 2029 2030 2031 2032 2033 2034 2035 2036 2037 2038 2039 2040 2041 2042 2043 2044 2045 2046 2047 2048 2049 2050 2051 2052 2053 2054 2055 2056 2057 2058 2059 2060 2061 2062 2063 2064 2065 2066 2067 2068 2069 2070 2071 2072 2073 2074 2075 2076 2077 2078 2079 2080 2081 2082 2083 2084 2085 2086 2087 2088 2089 2090 2091 2092 2093 2094 2095 2096 2097 2098 2099 2100 2101 2102 2103 2104 2105 2106 2107 2108 2109 2110 2111 2112 2113 2114 2115 2116 2117 2118 2119 2120 2121 2122 2123 2124 2125 2126 2127 2128 2129 2130 2131 2132 2133 2134 2135 2136 2137 2138 2139 2140 2141 2142 2143 2144 2145 2146 2147 2148 2149 2150 2151 2152 2153 2154 2155 2156 2157 2158 2159 2160 2161 2162 2163 2164 2165 2166 2167 2168 2169 2170 2171 2172 2173 2174 2175 2176 2177 2178 2179 2180 2181 2182 2183 2184 2185 2186 2187 2188 2189 2190 2191 2192 2193 2194 2195 2196 2197 2198 2199 2200 2201 2202 2203 2204 2205 2206 2207 2208 2209 2210 2211 2212 2213 2214 2215 2216 2217 2218 2219 2220 2221 2222 2223 2224 2225 2226 2227 2228 2229 2230 2231 2232 2233 2234 2235 2236 2237 2238 2239 2240 2241 2242 2243 2244 2245 2246 2247 2248 2249 2250 2251 2252 2253 2254 2255 2256 2257 2258 2259 2260 2261 2262 2263 2264 2265 2266 2267 2268 2269 2270 2271 2272 2273 2274 2275 2276 2277 2278 2279 2280 2281 2282 2283 2284 2285 2286 2287 2288 2289 2290 2291 2292 2293 2294 2295 2296 2297 2298 2299 2300 2301 2302 2303 2304 2305 2306 2307 2308 2309 2310 2311 2312 2313 2314 2315 2316 2317 2318 2319 2320 2321 2322 2323 2324 2325 2326 2327 2328 2329 2330 2331 2332 2333 2334 2335 2336 2337 2338 2339 2340 2341 2342 2343 2344 2345 2346 2347 2348 2349 2350 2351 2352 2353 2354 2355 2356 2357 2358 2359 2360 2361 2362 2363 2364 2365 2366 2367 2368 2369 2370 2371 2372 2373 2374 2375 2376 2377 2378 2379 2380 2381 2382 2383 2384 2385 2386 2387 2388 2389 2390 2391 2392 2393 2394 2395 2396 2397 2398 2399 2400 2401 2402 2403 2404 2405 2406 2407 2408 2409 2410 2411 2412 2413 2414 2415 2416 2417 2418 2419 2420 2421 2422 2423 2424 2425 2426 2427 2428 2429 2430 2431 2432 2433 2434 2435 2436 2437 2438 2439 2440 2441 2442 2443 2444 2445 2446 2447 2448 2449 2450 2451 2452 2453 2454 2455 2456 2457 2458 2459 2460 2461 2462 2463 2464 2465 2466 2467 2468 2469 2470 2471 2472 2473 2474 2475 2476 2477 2478 2479 2480 2481 2482 2483 2484 2485 2486 2487 2488 2489 2490 2491 2492 2493 2494 2495 2496 2497 2498 2499 2500 2501 2502 2503 2504 2505 2506 2507 2508 2509 2510 2511 2512 2513 2514 2515 2516 2517 2518 2519 2520 2521 2522 2523 2524 2525 2526 2527 2528 2529 2530 2531 2532 2533 2534 2535 2536 2537 2538 2539 2540 2541 2542 2543 2544 2545 2546 2547 2548 2549 2550 2551 2552 2553 2554 2555 2556 2557 2558 2559 2560 2561 2562 2563 2564 2565 2566 2567 2568 2569 2570 2571 2572 2573 2574 2575 2576 2577 2578 2579 2580 2581 2582 2583 2584 2585 2586 2587 2588 2589 2590 2591 2592 2593 2594 2595 2596 2597 2598 2599 2600 2601 2602 2603 2604 2605 2606 2607 2608 2609 2610 2611 2612 2613 2614 2615 2616 2617 2618 2619 2620 2621 2622 2623 2624 2625 2626 2627 2628 2629 2630 2631 2632 2633 2634 2635 2636 2637 2638 2639 2640 2641 2642 2643 2644 2645 2646 2647 2648 2649 2650 2651 2652 2653 2654 2655 2656 2657 2658 2659 2660 2661 2662 2663 2664 2665 2666 2667 2668 2669 2670 2671 2672 2673 2674 2675 2676 2677 2678 2679 2680 2681 2682 2683 2684 2685 2686 2687 2688 2689 2690 2691 2692 2693 2694 2695 2696 2697 2698 2699 2700 2701 2702 2703 2704 2705 2706 2707 2708 2709 2710 2711 2712 2713 2714 2715 2716 2717 2718 2719 2720 2721 2722 2723 2724 2725 2726 2727 2728 2729 2730 2731 2732 2733 2734 2735 2736 2737 2738 2739 2740 2741 2742 2743 2744 2745 2746 2747 2748 2749 2750 2751 2752 2753 2754 2755 2756 2757 2758 2759 2760 2761 2762 2763 2764 2765 2766 2767 2768 2769 2770 2771 2772 2773 2774 2775 2776 2777 2778 2779 2780 2781 2782 2783 2784 2785 2786 2787 2788 2789 2790 2791 2792 2793 2794 2795 2796 2797 2798 2799 2800 2801 2802 2803 2804 2805 2806 2807 2808 2809 2810 2811 2812 2813 2814 2815 2816 2817 2818 2819 2820 2821 2822 2823 2824 2825 2826 2827 2828 2829 2830 2831 2832 2833 2834 2835 2836 2837 2838 2839 2840 2841 2842 2843 2844 2845 2846 2847 2848 2849 2850 2851 2852 2853 2854 2855 2856 2857 2858 2859 2860 2861 2862 2863 2864 2865 2866 2867 2868 2869 2870 2871 2872 2873 2874 2875 2876 2877 2878 2879 2880 2881 2882 2883 2884 2885 2886 2887 2888 2889 2890 2891 2892 2893 2894 2895 2896 2897 2898 2899 2900 2901 2902 2903 2904 2905 2906 2907 2908 2909 2910 2911 2912 2913 2914 2915 2916 2917 2918 2919 2920 2921 2922 2923 2924 2925 2926 2927 2928 2929 2930 2931 2932 2933 2934 2935 2936 2937 2938 2939 2940 2941 2942 2943 2944 2945 2946 2947 2948 2949 2950 2951 2952 2953 2954 2955 2956 2957 2958 2959 2960 2961 2962 2963 2964 2965 2966 2967 2968 2969 2970 2971 2972 2973 2974 2975 2976 2977 2978 2979 2980 2981 2982 2983 2984 2985 2986 2987 2988 2989 2990 2991 2992 2993 2994 2995 2996 2997 2998 2999 3000 3001 3002 3003 3004 3005 3006 3007 3008 3009 3010 3011 3012 3013 3014 3015 3016 3017 3018 3019 3020 3021 3022 3023 3024 3025 3026 3027 3028 3029 3030 3031 3032 3033 3034 3035 3036 3037 3038 3039 3040 3041 3042 3043 3044 3045 3046 3047 3048 3049 3050 3051 3052 3053 3054 3055 3056 3057 3058 3059 3060 3061 3062 3063 3064 3065 3066 3067 3068 3069 3070 3071 3072 3073 3074 3075 3076 3077 3078 3079 3080 3081 3082 3083 3084 3085 3086 3087 3088 3089 3090 3091 3092 3093 3094 3095 3096 3097 3098 3099 3100 3101 3102 3103 3104 3105 3106 3107 3108 3109 3110 3111 3112 3113 3114 3115 3116 3117 3118 3119 3120 3121 3122 3123 3124 3125 3126 3127 3128 3129 3130 3131 3132 3133 3134 3135 3136 3137 3138 3139 3140 3141 
</DataArray>
<DataArray type="UInt32" Name="offsets" format="ascii">
3 6 9 12 15 18 21 24 27 30 33 36 39 42 45 48 51 54 57 60 63 66 69 72 75 78 81 84 87 90 93 96 99 102 105 108 111 114 117 120 123 126 129 132 135 138 141 144 147 150 153 156 159 162 165 168 171 174 177 180 183 186 189 192 195 198 201 204 207 210 213 216 219 222 225 228 231 234 237 240 243 246 249 252 255 258 261 264 267 270 273 276 279 282 285 288 291 294 297 300 303 306 309 312 315 318 321 324 327 330 333 336 339 342 345 348 351 354 357 360 363 366 369 372 375 378 381 384 387 390 393 396 399 402 405 408 411 414 417 420 423 426 429 432 435 438 441 444 447 450 453 456 459 462 465 468 471 474 477 480 483 486 489 492 495 498 501 504 507 510 513 516 519 522 525 528 531 534 537 540 543 546 549 552 555 558 561 564 567 570 573 576 579 582 585 588 591 594 597 600 603 606 609 612 615 618 621 624 627 630 633 636 639 642 645 648 651 654 657 660 663 666 669 672 675 678 681 684 687 690 693 696 699 702 705 708 711 714 717 720 723 726 729 732 735 738 741 744 747 750 753 756 759 762 765 768 771 774 777 780 783 786 789 792 795 798 801 804 807 810 813 816 819 822 825 828 831 834 837 840 843 846 849 852 855 858 861 864 867 870 873 876 879 882 885 888 891 894 897 900 903 906 909 912 915 918 921 924 927 930 933 936 939 942 945 948 951 954 957 960 963 966 969 972 975 978 981 984 987 990 993 996 999 1002 1005 1008 1011 1014 1017 1020 1023 1026 1029 1032 1035 1038 1041 1044 1047 1050 1053 1056 1059 1062 1065 1068 1071 1074 1077 1080 1083 1086 1089 1092 1095 1098 1101 1104 1107 1110 1113 1116 1119 1122 1125 1128 1131 1134 1137 1140 1143 1146 1149 1152 1155 1158 1161 1164 1167 1170 1173 1176 1179 1182 1185 1188 1191 1194 1197 1200 1203 1206 1209 1212 1215 1218 1221 1224 1227 1230 1233 1236 1239 1242 1245 1248 1251 1254 1257 1260 1263 1266 1269 1272 1275 1278 1281 1284 1287 1290 1293 1296 1299 1302 1305 1308 1311 1314 1317 1320 1323 1326 1329 1332 1335 1338 1341 1344 1347 1350 1353 1356 1359 1362 1365 1368 1371 1374 1377 1380 1383 1386 1389 1392 1395 1398 1401 1404 1407 1410 1413 1416 1419 1422 1425 1428 1431 1434 1437 1440 1443 1446 1449 1452 1455 1458 1461 1464 1467 1470 1473 1476 1479 1482 1485 1488 1491 1494 1497 1500 1503 1506 1509 1512 1515 1518 1521 1524 1527 1530 1533 1536 1539 1542 1545 1548 1551 1554 1557 1560 1563 1566 1569 1572 1575 1578 1581 1584 1587 1590 1593 1596 1599 1602 1605 1608 1611 1614 1616 1619 1622 1624 1627 1630 1632 1635 1638 1641 1644 1647 1650 1653 1656 1659 1662 1665 1668 1671 1673 1676 1679 1682 1685 1688 1690 1693 1696 1699 1702 1705 1708 1711 1714 1717 1720 1723 1726 1729 1732 1735 1738 1741 1744 1747 1750 1753 1756 1759 1762 1765 1768 1771 1774 1777 1780 1783 1786 1789 1792 1795 1798 1801 1804 1807 1810 1813 1816 1819 1822 1825 1828 1831 1834 1837 1840 1843 1846 1849 1852 1855 1858 1861 1864 1867 1870 1873 1876 1879 1882 1885 1888 1891 1894 1897 1900 1903 1906 1909 1912 1915 1918 1921 1924 1927 1930 1933 1936 1939 1942 1945 1948 1951 1954 1957 1960 1963 1966 1969 1972 1975 1978 1981 1984 1987 1990 1993 1996 1999 2002 2005 2008 2011 2014 2017 2020 2023 2026 2029 2032 2035 2038 2041 2044 2047 2050 2053 2056 2059 2062 2065 2068 2071 2074 2077 2080 2083 2086 2089 2092 2095 2098 2101 2104 2107 2110 2113 2116 2119 2122 2125 2128 2131 2134 2137 2140 2143 2146 2149 2152 2155 2158 2161 2164 2167 2170 2173 2176 2179 2182 2185 2188 2191 2194 2196 2199 2202 2205 2207 2210 2213 2215 2218 2221 2224 2227 2230 2233 2236 2239 2242 2245 2248 2250 2253 2256 2259 2262 2264 2267 2270 2273 2276 2279 2282 2285 2288 2291 2294 2297 2300 2303 2306 2309 2312 2315 2318 2321 2324 2327 2330 2333 2336 2339 2342 2345 2348 2351 2354 2357 2360 2363 2366 2369 2372 2375 2378 2381 2384 2387 2390 2393 2396 2399 2402 2405 2408 2411 2414 2417 2420 2423 2426 2429 2432 2435 2438 2440 2443 2446 2449 2452 2455 2458 2461 2464 2467 2470 2473 2476 2479 2482 2484 2487 2490 2492 2495 2497 2500 2503 2506 2509 2512 2515 2518 2521 2524 2527 2530 2533 2536 2538 2541 2544 2547 2550 2553 2556 2559 2562 2565 2568 2571 2574 2577 2580 2583 2586 2589 2592 2595 2598 2601 2604 2607 2610 2613 2616 2619 2622 2625 2628 2631 2634 2637 2640 2643 2646 2649 2652 2655 2658 2661 2664 2667 2670 2673 2676 2679 2682 2685 2688 2691 2694 2697 2700 2703 2706 2709 2712 2715 2718 2721 2724 2727 2730 2733 2736 2739 2742 2745 2748 2751 2754 2757 2760 2763 2766 2769 2772 2775 2778 2781 2784 2787 2790 2793 2796 2799 2802 2805 2808 2811 2814 2817 2820 2823 2826 2829 2832 2835 2838 2841 2844 2847 2850 2853 2856 2859 2862 2865 2868 2871 2874 2877 2880 2883 2886 2889 2892 2895 2898 2901 2904 2907 2910 2913 2916 2919 2922 2925 2928 2931 2934 2937 2940 2943 2946 2948 2951 2954 2956 2959 2961 2964 2967 2970 2973 2976 2979 2982 2985 2988 2991 2994 2997 3000 3003 3006 3009 3012 3015 3018 3021 3024 3027 3030 3033 3036 3039 3042 3045 3048 3051 3054 3057 3060 3063 3066 3069 3072 3075 3078 3081 3084 3087 3090 3093 3096 3099 3102 3104 3107 3110 3113 3116 3119 3121 3124 3127 3130 3133 3136 3139 3142 
</DataArray>
<DataArray type="UInt32" Name="types" format="ascii">
5 5 5 5 5 5 5 5 5 5 5 5 5 5 5 5 5 5 5 5 5 5 5 5 5 5 5 5 5 5 5 5 5 5 5 5 5 5 5 5 5 5 5 5 5 5 5 5 5 5 5 5 5 5 5 5 5 5 5 5 5 5 5 5 5 5 5 5 5 5 5 5 5 5 5 5 5 5 5 5 5 5 5 5 5 5 5 5 5 5 5 5 5 5 5 5 5 5 5 5 5 5 5 5 5 5 5 5 5 5 5 5 5 5 5 5 5 5 5 5 5 5 5 5 5 5 5 5 5 5 5 5 5 5 5 5 5 5 5 5 5 5 5 5 5 5 5 5 5 5 5 5 5 5 5 5 5 5 5 5 5 5 5 5 5 5 5 5 5 5 5 5 5 5 5 5 5 5 5 5 5 5 5 5 5 5 5 5 5 5 5 5 5 5 5 5 5 5 5 5 5 5 5 5 5 5 5 5 5 5 5 5 5 5 5 5 5 5 5 5 5 5 5 5 5 5 5 5 5 5 5 5 5 5 5 5 5 5 5 5 5 5 5 5 5 5 5 5 5 5 5 5 5 5 5 5 5 5 5 5 5 5 5 5 5 5 5 5 5 5 5 5 5 5 5 5 5 5 5 5 5 5 5 5 5 5 5 5 5 5 5 5 5 5 5 5 5 5 5 5 5 5 5 5 5 5 5 5 5 5 5 5 5 5 5 5 5 5 5 5 5 5 5 5 5 5 5 5 5 5 5 5 5 5 5 5 5 5 5 5 5 5 5 5 5 5 5 5 5 5 5 5 5 5 5 5 5 5 5 5 5 5 5 5 5 5 5 5 5 5 5 5 5 5 5 5 5 5 5 5 5 5 5 5 5 5 5 5 5 5 5 5 5 5 5 5 5 5 5 5 5 5 5 5 5 5 5 5 5 5 5 5 5 5 5 5 5 5 5 5 5 5 5 5 5 5 5 5 5 5 5 5 5 5 5 5 5 5 5 5 5 5 5 5 5 5 5 5 5 5 5 5 5 5 5 5 5 5 5 5 5 5 5 5 5 5 5 5 5 5 5 5 5 5 5 5 5 5 5 5 5 5 5 5 5 5 5 5 5 5 5 5 5 5 5 5 5 5 5 5 5 5 5 5 5 5 5 5 5 5 5 5 5 5 5 5 5 5 5 5 5 5 5 5 5 5 5 5 5 5 5 5 5 5 5 5 5 5 3 5 5 3 5 5 3 5 5 5 5 5 5 5 5 5 5 5 5 5 3 5 5 5 5 5 3 5 5 5 5 5 5 5 5 5 5 5 5 5 5 5 5 5 5 5 5 5 5 5 5 5 5 5 5 5 5 5 5 5 5 5 5 5 5 5 5 5 5 5 5 5 5 5 5 5 5 5 5 5 5 5 5 5 5 5 5 5 5 5 5 5 5 5 5 5 5 5 5 5 5 5 5 5 5 5 5 5 5 5 5 5 5 5 5 5 5 5 5 5 5 5 5 5 5 5 5 5 5 5 5 5 5 5 5 5 5 5 5 5 5 5 5 5 5 5 5 5 5 5 5 5 5 5 5 5 5 5 5 5 5 5 5 5 5 5 5 5 5 5 5 5 5 5 5 5 5 5 5 5 5 5 5 5 5 5 5 5 5 5 5 5 5 5 5 3 5 5 5 3 5 5 3 5 5 5 5 5 5 5 5 5 5 5 3 5 5 5 5 3 5 5 5 5 5 5 5 5 5 5 5 5 5 5 5 5 5 5 5 5 5 5 5 5 5 5 5 5 5 5 5 5 5 5 5 5 5 5 5 5 5 5 5 5 5 5 5 5 5 5 5 5 5 5 5 5 5 5 3 5 5 5 5 5 5 5 5 5 5 5 5 5 5 3 5 5 3 5 3 5 5 5 5 5 5 5 5 5 5 5 5 5 3 5 5 5 5 5 5 5 5 5 5 5 5 5 5 5 5 5 5 5 5 5 5 5 5 5 5 5 5 5 5 5 5 5 5 5 5 5 5 5 5 5 5 5 5 5 5 5 5 5 5 5 5 5 5 5 5 5 5 5 5 5 5 5 5 5 5 5 5 5 5 5 5 5 5 5 5 5 5 5 5 5 5 5 5 5 5 5 5 5 5 5 5 5 5 5 5 5 5 5 5 5 5 5 5 5 5 5 5 5 5 5 5 5 5 5 5 5 5 5 5 5 5 5 5 5 5 5 5 5 5 5 5 5 5 5 5 3 5 5 3 5 3 5 5 5 5 5 5 5 5 5 5 5 5 5 5 5 5 5 5 5 5 5 5 5 5 5 5 5 5 5 5 5 5 5 5 5 5 5 5 5 5 5 5 5 5 5 5 5 3 5 5 5 5 5 3 5 5 5 5 5 5 5 
</DataArray>
</Cells>
<PointData Scalars="" Vectors="displacement," Tensors="">
<DataArray type="Float64" Name="displacement" NumberOfComponents="3" format="ascii">
-1.508522151872029e-09 -6.2021529880154455e-10 0 -1.7546210554771253e-06 4.2881733403946536e-08 0 -8.0073869924764978e-07 2.0340629299396822e-07 0 -1.508522151872029e-09 -6.2021529880154455e-10 0 -8.0073869924764999e-07 2.0340629299396827e-07 0 -1.4244016145647117e-09 4.5739963168989592e-10 0 -1.7546210554771253e-06 4.2881733403946536e-08 0 -1.8119134830381396e-06 7.7167107798154598e-07 0 -8.0073869924764978e-07 2.0340629299396822e-07 0 -1.4244016145647117e-09 4.5739963168989592e-10 0 -8.0073869924764978e-07 2.0340629299396827e-07 0 -1.8119134830381396e-06 7.7167107798154598e-07 0 -1.4192825595130782e-09 2.9456886650802967e-10 0 -1.4244016145647117e-09 4.5739963168989592e-10 0 -1.1609493197048412e-06 1.0975685349186802e-06 0 -7.490136568152361e-10 8.4321281602444908e-10 0 -1.4192825595130782e-09 2.9456886650802967e-10 0 -1.1609493197048412e-06 1.0975685349186802e-06 0 -2.5363753228863899e-06 1.6615834610394645e-06 0 -1.1609493197048412e-06 1.0975685349186802e-06 0 -1.8119134830381396e-06 7.7167107798154598e-07 0 -1.4244016145647117e-09 4.5739963168989592e-10 0 -1.8119134830381396e-06 7.7167107798154598e-07 0 -1.1609493197048412e-06 1.0975685349186802e-06 0 -2.5363753228863899e-06 1.6615834610394645e-06 0 -1.3496329425521986e-06 1.825530927662996e-06 0 -1.1609493197048412e-06 1.0975685349186802e-06 0 -2.5363753228863899e-06 1.6615834610394645e-06 0 -2.5964987374867572e-06 2.3338524331307708e-06 0 -1.3496329425521986e-06 1.825530927662996e-06 0 -2.5363753228863899e-06 1.6615834610394645e-06 0 -3.9183485670210597e-06 2.1530522698994721e-06 0 -2.5964987374867572e-06 2.3338524331307708e-06 0 -3.1506471737308449e-06 2.7572805395043735e-06 0 -2.5964987374867572e-06 2.3338524331307708e-06 0 -3.9183485670210597e-06 2.1530522698994721e-06 0 -5.5820530470931032e-06 1.757549998944489e-06 0 -3.9183485670210597e-06 2.1530522698994721e-06 0 -3.8913508035276338e-06 1.2867981662063563e-06 0 -2.5363753228863899e-06 1.6615834610394645e-06 0 -3.8913508035276338e-06 1.2867981662063563e-06 0 -3.9183485670210597e-06 2.1530522698994721e-06 0 -3.964030967763296e-06 5.3941198897832416e-07 0 -6.6844931507966879e-06 7.4753909864050926e-07 0 -3.8913508035276338e-06 1.2867981662063563e-06 0 -1.7546210554771253e-06 4.2881733403946536e-08 0 -3.964030967763296e-06 5.3941198897832416e-07 0 -1.8119134830381396e-06 7.7167107798154598e-07 0 -3.964030967763296e-06 5.3941198897832416e-07 0 -3.8913508035276338e-06 1.2867981662063563e-06 0 -1.8119134830381396e-06 7.7167107798154598e-07 0 -2.5363753228863899e-06 1.6615834610394645e-06 0 -1.8119134830381396e-06 7.7167107798154598e-07 0 -3.8913508035276338e-06 1.2867981662063563e-06 0 -2.9003641871297161e-11 7.4489003613570218e-10 0 -4.7286707766645521e-10 6.0590715732475086e-10 0 -1.9381832064894362e-07 1.5258779785649996e-06 0 -4.7286707766645521e-10 6.0590715732475086e-10 0 -4.7586830777184505e-07 1.2749247151288418e-06 0 -1.9381832064894362e-07 1.5258779785649996e-06 0 -8.4505251519997535e-07 2.3819647612287258e-06 0 -1.9381832064894362e-07 1.5258779785649996e-06 0 -4.7586830777184505e-07 1.2749247151288418e-06 0 -7.490136568152361e-10 8.4321281602444908e-10 0 -1.3496329425521986e-06 1.825530927662996e-06 0 -4.7586830777184505e-07 1.2749247151288418e-06 0 -7.490136568152361e-10 8.4321281602444908e-10 0 -1.1609493197048412e-06 1.0975685349186802e-06 0 -1.3496329425521986e-06 1.825530927662996e-06 0 -8.4505251519997535e-07 2.3819647612287258e-06 0 -4.7586830777184505e-07 1.2749247151288418e-06 0 -1.3496329425521986e-06 1.825530927662996e-06 0 -4.7286707766645521e-10 6.0590715732475086e-10 0 -7.490136568152361e-10 8.4321281602444908e-10 0 -4.7586830777184505e-07 1.2749247151288418e-06 0 -1.3496329425521986e-06 1.825530927662996e-06 0 -2.5964987374867572e-06 2.3338524331307708e-06 0 -1.8656629237724858e-06 2.6087628974456121e-06 0 -3.1506471737308449e-06 2.7572805395043735e-06 0 -1.8656629237724858e-06 2.6087628974456121e-06 0 -2.5964987374867572e-06 2.3338524331307708e-06 0 -8.4505251519997535e-07 2.3819647612287258e-06 0 -1.3496329425521986e-06 1.825530927662996e-06 0 -1.8656629237724858e-06 2.6087628974456121e-06 0 -8.4505251519997535e-07 2.3819647612287258e-06 0 -1.2872858876842994e-06 3.0520072761203285e-06 0 -7.0734360654941147e-08 2.6575566118844625e-06 0 -8.4505251519997535e-07 2.3819647612287258e-06 0 -1.8656629237724858e-06 2.6087628974456121e-06 0 -1.2872858876842994e-06 3.0520072761203285e-06 0 -8.4505251519997535e-07 2.3819647612287258e-06 0 -7.0734360654941147e-08 2.6575566118844625e-06 0 -1.9381832064894362e-07 1.5258779785649996e-06 0 2.1438493438117957e-07 1.6672287387668337e-06 0 -1.9381832064894362e-07 1.5258779785649996e-06 0 -7.0734360654941147e-08 2.6575566118844625e-06 0 -1.2872858876842994e-06 3.0520072761203285e-06 0 -1.6390656885505917e-07 3.0880569871199166e-06 0 -7.0734360654941147e-08 2.6575566118844625e-06 0 -4.8712668268334476e-07 3.102089548926849e-06 0 -1.6390656885505899e-07 3.0880569871199166e-06 0 -1.2872858876842994e-06 3.0520072761203285e-06 0 -4.8712668268334476e-07 3.102089548926849e-06 0 -1.2872858876842994e-06 3.0520072761203285e-06 0 -2.3567569046178436e-06 2.9614336388920172e-06 0 -3.1506471737308449e-06 2.7572805395043735e-06 0 -4.3757899826329919e-06 2.5894951408021712e-06 0 -2.3567569046178436e-06 2.9614336388920172e-06 0 -3.1506471737308449e-06 2.7572805395043735e-06 0 -1.2872858876842994e-06 3.0520072761203285e-06 0 -1.8656629237724858e-06 2.6087628974456121e-06 0 -3.1506471737308449e-06 2.7572805395043735e-06 0 -2.3567569046178436e-06 2.9614336388920172e-06 0 -1.2872858876842994e-06 3.0520072761203285e-06 0 -3.1506471737308449e-06 2.7572805395043735e-06 0 -5.0163935374675822e-06 2.3131577285060087e-06 0 -4.3757899826329911e-06 2.5894951408021716e-06 0 -3.2489532573038696e-06 2.4822052769724504e-06 0 -4.3757899826329919e-06 2.5894951408021716e-06 0 -6.1821123503837574e-06 1.8658347199987787e-06 0 -3.2489532573038696e-06 2.4822052769724504e-06 0 -6.1821123503837574e-06 1.8658347199987787e-06 0 -5.1522375017375971e-06 1.4637631399679432e-06 0 -3.2489532573038696e-06 2.4822052769724504e-06 0 -5.1522375017375971e-06 1.463763139967943e-06 0 -3.1020716793564473e-06 1.4698590432688147e-06 0 -3.2489532573038696e-06 2.4822052769724504e-06 0 -2.3567569046178436e-06 2.9614336388920172e-06 0 -4.3757899826329911e-06 2.5894951408021716e-06 0 -4.8712668268334476e-07 3.102089548926849e-06 0 -2.3567569046178436e-06 2.9614336388920172e-06 0 -1.1999993457328743e-06 2.5917254324521788e-06 0 -3.2489532573038696e-06 2.4822052769724504e-06 0 -1.1999993457328743e-06 2.5917254324521788e-06 0 -2.3567569046178436e-06 2.9614336388920172e-06 0 -3.2489532573038696e-06 2.4822052769724504e-06 0 -3.1020716793564473e-06 1.4698590432688147e-06 0 -1.1999993457328743e-06 2.5917254324521788e-06 0 6.6725716214871102e-07 2.0178507391134244e-06 0 9.2092307229116079e-07 2.8389922455492263e-06 0 -1.1999993457328743e-06 2.5917254324521788e-06 0 -4.8712668268334476e-07 3.102089548926849e-06 0 -1.1999993457328743e-06 2.5917254324521788e-06 0 9.209230722911609e-07 2.8389922455492263e-06 0 -6.6844931507966879e-06 7.4753909864050926e-07 0 -7.9795903230370039e-06 1.2330196388187983e-06 0 -5.5820530470931032e-06 1.757549998944489e-06 0 -7.138131001807244e-06 1.8470175206173867e-06 0 -5.5820530470931024e-06 1.757549998944489e-06 0 -7.9795903230370039e-06 1.2330196388187981e-06 0 -6.6844931507966879e-06 7.4753909864050926e-07 0 -9.9140537400015407e-06 2.5285862244653637e-07 0 -7.9795903230370039e-06 1.2330196388187981e-06 0 -6.6844931507966879e-06 7.4753909864050926e-07 0 -5.5820530470931032e-06 1.7575499989444892e-06 0 -3.8913508035276338e-06 1.2867981662063563e-06 0 -5.5820530470931032e-06 1.757549998944489e-06 0 -5.0163935374675822e-06 2.3131577285060087e-06 0 -3.9183485670210597e-06 2.1530522698994721e-06 0 -3.1506471737308449e-06 2.7572805395043735e-06 0 -3.9183485670210597e-06 2.1530522698994721e-06 0 -5.0163935374675822e-06 2.3131577285060087e-06 0 -7.138131001807244e-06 1.8470175206173867e-06 0 -4.3757899826329911e-06 2.5894951408021716e-06 0 -5.0163935374675822e-06 2.3131577285060087e-06 0 -7.138131001807244e-06 1.8470175206173867e-06 0 -5.0163935374675822e-06 2.3131577285060087e-06 0 -5.5820530470931032e-06 1.757549998944489e-06 0 -7.138131001807244e-06 1.8470175206173867e-06 0 -6.1821123503837574e-06 1.8658347199987787e-06 0 -4.3757899826329911e-06 2.5894951408021716e-06 0 -7.138131001807244e-06 1.8470175206173867e-06 0 -8.8527821254970792e-06 1.039792298513306e-06 0 -6.1821123503837574e-06 1.8658347199987787e-06 0 -8.3854040792936548e-06 4.2610477391448418e-07 0 -6.1821123503837574e-06 1.8658347199987787e-06 0 -8.8527821254970809e-06 1.039792298513306e-06 0 -7.138131001807244e-06 1.8470175206173867e-06 0 -1.009873317806761e-05 6.8633491225230698e-07 0 -8.8527821254970809e-06 1.039792298513306e-06 0 -1.2236144128349036e-05 -5.308417880659119e-07 0 -8.8527821254970809e-06 1.039792298513306e-06 0 -1.009873317806761e-05 6.8633491225230698e-07 0 -7.138131001807244e-06 1.8470175206173867e-06 0 -7.9795903230370039e-06 1.2330196388187981e-06 0 -1.009873317806761e-05 6.8633491225230698e-07 0 -9.9140537400015407e-06 2.5285862244653653e-07 0 -1.009873317806761e-05 6.8633491225230698e-07 0 -7.9795903230370039e-06 1.2330196388187981e-06 0 -9.9140537400015407e-06 2.5285862244653653e-07 0 -1.3591629840160198e-05 -1.0033419790721646e-06 0 -1.009873317806761e-05 6.8633491225230698e-07 0 -1.3591629840160198e-05 -1.0033419790721646e-06 0 -1.7509114007162944e-05 -3.1649713133197479e-06 0 -1.2236144128349036e-05 -5.308417880659119e-07 0 -1.3591629840160198e-05 -1.0033419790721646e-06 0 -1.2236144128349036e-05 -5.308417880659119e-07 0 -1.009873317806761e-05 6.8633491225230698e-07 0 -1.7509114007162944e-05 -3.1649713133197479e-06 0 -1.6432016180408624e-05 -3.3609527766980707e-06 0 -1.2236144128349036e-05 -5.308417880659119e-07 0 -1.7509114007162944e-05 -3.1649713133197479e-06 0 -2.2052632183639135e-05 -6.4281866441434077e-06 0 -1.6432016180408624e-05 -3.3609527766980707e-06 0 -1.4602477338280412e-05 -4.4381006630293051e-06 0 -1.6432016180408624e-05 -3.3609527766980707e-06 0 -1.9962626293512737e-05 -6.304043100903958e-06 0 -1.4602477338280412e-05 -4.4381006630293051e-06 0 -1.9962626293512737e-05 -6.304043100903958e-06 0 -2.0226011681651142e-05 -8.9873069837863548e-06 0 -2.2052632183639135e-05 -6.4281866441434077e-06 0 -1.9962626293512737e-05 -6.304043100903958e-06 0 -1.6432016180408624e-05 -3.3609527766980707e-06 0 -2.2052632183639135e-05 -6.4281866441434077e-06 0 -2.7078966618198153e-05 -1.0971953756696085e-05 0 -1.9962626293512737e-05 -6.304043100903958e-06 0 -1.4602477338280412e-05 -4.4381006630293051e-06 0 -1.3853306231888696e-05 -7.9852809269206597e-06 0 -9.4104124623220159e-06 -4.2654136997292629e-06 0 -1.4602477338280412e-05 -4.4381006630293051e-06 0 -9.4104124623220159e-06 -4.2654136997292629e-06 0 -9.7748185307414741e-06 -1.7715687097343668e-06 0 -1.4602477338280412e-05 -4.4381006630293051e-06 0 -1.2293119589100794e-05 -1.6847595058289603e-06 0 -1.6432016180408624e-05 -3.3609527766980707e-06 0 -1.4602477338280412e-05 -4.4381006630293051e-06 0 -9.7748185307414741e-06 -1.7715687097343668e-06 0 -1.2293119589100794e-05 -1.6847595058289603e-06 0 -8.3854040792936548e-06 4.2610477391448418e-07 0 -1.2293119589100796e-05 -1.6847595058289606e-06 0 -9.7748185307414741e-06 -1.7715687097343668e-06 0 -1.2236144128349036e-05 -5.308417880659119e-07 0 -1.6432016180408624e-05 -3.3609527766980707e-06 0 -1.2293119589100794e-05 -1.6847595058289603e-06 0 -1.2293119589100794e-05 -1.6847595058289603e-06 0 -8.3854040792936548e-06 4.2610477391448413e-07 0 -1.2236144128349036e-05 -5.308417880659119e-07 0 -1.2236144128349036e-05 -5.308417880659119e-07 0 -8.3854040792936548e-06 4.2610477391448418e-07 0 -8.8527821254970809e-06 1.039792298513306e-06 0 -8.3854040792936548e-06 4.2610477391448418e-07 0 -5.1522375017375971e-06 1.4637631399679432e-06 0 -6.1821123503837574e-06 1.8658347199987787e-06 0 -8.3854040792936548e-06 4.2610477391448418e-07 0 -5.967293267015016e-06 1.0080956682506402e-07 0 -5.1522375017375971e-06 1.4637631399679432e-06 0 -3.1020716793564473e-06 1.4698590432688147e-06 0 -5.1522375017375963e-06 1.4637631399679434e-06 0 -5.967293267015016e-06 1.0080956682506402e-07 0 -6.4555369964283516e-06 -1.8143145723032351e-06 0 -3.2541182942072393e-06 -4.7118302178080123e-07 0 -5.967293267015016e-06 1.0080956682506402e-07 0 -3.1020716793564473e-06 1.4698590432688147e-06 0 -5.967293267015016e-06 1.0080956682506402e-07 0 -3.2541182942072393e-06 -4.7118302178080123e-07 0 -8.3854040792936548e-06 4.2610477391448418e-07 0 -9.7748185307414741e-06 -1.7715687097343668e-06 0 -5.967293267015016e-06 1.0080956682506402e-07 0 -8.7499044314486619e-07 1.1103327640763135e-06 0 6.6725716214871102e-07 2.0178507391134244e-06 0 -1.1999993457328743e-06 2.5917254324521788e-06 0 -3.1020716793564473e-06 1.4698590432688147e-06 0 -8.7499044314486619e-07 1.1103327640763135e-06 0 -1.1999993457328743e-06 2.5917254324521788e-06 0 -3.1020716793564473e-06 1.4698590432688147e-06 0 -3.2541182942072389e-06 -4.7118302178080123e-07 0 -8.7499044314486619e-07 1.1103327640763135e-06 0 -2.0403347546050692e-07 -1.524270049284338e-06 0 1.6803289185261054e-06 8.2575550733425568e-07 0 -8.7499044314486619e-07 1.1103327640763135e-06 0 -2.0403347546050692e-07 -1.524270049284338e-06 0 -8.7499044314486661e-07 1.1103327640763133e-06 0 -3.2541182942072393e-06 -4.7118302178080123e-07 0 -2.0403347546050692e-07 -1.524270049284338e-06 0 -3.2541182942072393e-06 -4.7118302178080123e-07 0 -4.5791194121662713e-06 -3.2520545583778257e-06 0 -2.0403347546050692e-07 -1.524270049284338e-06 0 -4.5791194121662713e-06 -3.2520545583778257e-06 0 -1.6838094009891908e-06 -5.3001413512202794e-06 0 -2.0403347546050692e-07 -1.524270049284338e-06 0 -1.6838094009891908e-06 -5.3001413512202794e-06 0 2.575311705301496e-06 -4.0054145105624478e-06 0 -6.4555369964283516e-06 -1.8143145723032351e-06 0 -5.967293267015016e-06 1.0080956682506402e-07 0 -9.7748185307414741e-06 -1.7715687097343668e-06 0 -6.4555369964283516e-06 -1.8143145723032351e-06 0 -9.7748185307414741e-06 -1.7715687097343666e-06 0 -9.4104124623220159e-06 -4.2654136997292629e-06 0 -6.4555369964283516e-06 -1.8143145723032351e-06 0 -4.5791194121662713e-06 -3.2520545583778257e-06 0 -3.2541182942072393e-06 -4.7118302178080123e-07 0 -7.3795779102514927e-06 -6.9555986281262905e-06 0 -4.5791194121662713e-06 -3.2520545583778257e-06 0 -9.4104124623220159e-06 -4.2654136997292629e-06 0 -6.4555369964283516e-06 -1.8143145723032351e-06 0 -9.4104124623220159e-06 -4.2654136997292629e-06 0 -4.5791194121662713e-06 -3.2520545583778257e-06 0 -7.3795779102514927e-06 -6.9555986281262905e-06 0 -9.4104124623220159e-06 -4.2654136997292629e-06 0 -1.3853306231888696e-05 -7.9852809269206597e-06 0 -7.3795779102514927e-06 -6.9555986281262905e-06 0 -1.1715539141336698e-05 -1.2605260874279588e-05 0 -3.8517457631343996e-06 -9.6281332668654063e-06 0 -7.3795779102514927e-06 -6.9555986281262905e-06 0 -1.3853306231888695e-05 -7.985280926920658e-06 0 -1.1715539141336698e-05 -1.2605260874279588e-05 0 1.6844075898552229e-06 -8.028961710268218e-06 0 2.575311705301496e-06 -4.0054145105624486e-06 0 -1.6838094009891908e-06 -5.3001413512202794e-06 0 -7.3795779102514927e-06 -6.9555986281262905e-06 0 -1.683809400989191e-06 -5.3001413512202794e-06 0 -4.5791194121662713e-06 -3.2520545583778257e-06 0 -7.3795779102514927e-06 -6.9555986281262905e-06 0 -3.8517457631343996e-06 -9.6281332668654063e-06 0 -1.6838094009891908e-06 -5.3001413512202794e-06 0 1.6844075898552229e-06 -8.028961710268218e-06 0 -1.6838094009891908e-06 -5.3001413512202794e-06 0 -3.8517457631343996e-06 -9.6281332668654063e-06 0 1.6844075898552229e-06 -8.028961710268218e-06 0 -3.8517457631343996e-06 -9.6281332668654063e-06 0 -3.5283223654428312e-07 -1.3299277041192686e-05 0 -5.9997213137519883e-06 -1.5961501205559425e-05 0 -3.5283223654428302e-07 -1.3299277041192685e-05 0 -3.8517457631343996e-06 -9.6281332668654063e-06 0 -5.9997213137519883e-06 -1.5961501205559425e-05 0 -9.4800763340662676e-06 -2.436420312072838e-05 0 -3.4059644891743388e-06 -2.1335346657534636e-05 0 -5.9997213137519883e-06 -1.5961501205559425e-05 0 -3.4059644891743388e-06 -2.1335346657534636e-05 0 -3.5283223654428312e-07 -1.3299277041192686e-05 0 2.7408377212277871e-06 -1.7586282329987775e-05 0 -3.5283223654428312e-07 -1.3299277041192686e-05 0 -3.4059644891743388e-06 -2.1335346657534636e-05 0 -5.9997213137519883e-06 -1.5961501205559425e-05 0 -1.1715539141336698e-05 -1.2605260874279588e-05 0 -1.2900423402096937e-05 -1.9011329047307174e-05 0 -5.9997213137519883e-06 -1.5961501205559425e-05 0 -3.8517457631343996e-06 -9.6281332668654063e-06 0 -1.1715539141336698e-05 -1.2605260874279588e-05 0 -5.9997213137519883e-06 -1.5961501205559425e-05 0 -1.2900423402096937e-05 -1.9011329047307174e-05 0 -9.4800763340662676e-06 -2.436420312072838e-05 0 -1.1715539141336698e-05 -1.2605260874279588e-05 0 -2.0127442872652636e-05 -1.9096032949044123e-05 0 -1.2900423402096937e-05 -1.9011329047307174e-05 0 -1.7229146775965751e-05 -2.4195687276588882e-05 0 -1.2900423402096937e-05 -1.9011329047307174e-05 0 -2.0127442872652636e-05 -1.9096032949044123e-05 0 -1.9814134917702146e-05 -1.3219899764931508e-05 0 -2.0127442872652636e-05 -1.9096032949044123e-05 0 -1.1715539141336698e-05 -1.2605260874279588e-05 0 -1.9814134917702146e-05 -1.3219899764931508e-05 0 -2.7406647747354494e-05 -1.8997500283278848e-05 0 -2.0127442872652636e-05 -1.9096032949044123e-05 0 -2.863123215425796e-05 -2.8187833687158353e-05 0 -2.0127442872652636e-05 -1.9096032949044123e-05 0 -2.7406647747354494e-05 -1.8997500283278848e-05 0 -3.7676319282002424e-05 -2.5492691580488507e-05 0 -2.863123215425796e-05 -2.8187833687158353e-05 0 -2.7406647747354494e-05 -1.8997500283278848e-05 0 -3.2368181441957622e-05 -1.7337352465848913e-05 0 -3.7676319282002424e-05 -2.5492691580488507e-05 0 -2.7406647747354494e-05 -1.8997500283278848e-05 0 -3.2368181441957622e-05 -1.7337352465848913e-05 0 -2.7406647747354494e-05 -1.8997500283278848e-05 0 -2.5376772625604302e-05 -1.3706438305942024e-05 0 -1.9814134917702146e-05 -1.3219899764931508e-05 0 -2.5376772625604302e-05 -1.3706438305942026e-05 0 -2.7406647747354494e-05 -1.8997500283278848e-05 0 -2.7078966618198153e-05 -1.0971953756696085e-05 0 -2.5376772625604302e-05 -1.3706438305942024e-05 0 -2.0226011681651142e-05 -8.9873069837863548e-06 0 -1.9814134917702146e-05 -1.3219899764931508e-05 0 -2.0226011681651142e-05 -8.9873069837863548e-06 0 -2.5376772625604302e-05 -1.3706438305942024e-05 0 -2.7078966618198153e-05 -1.0971953756696085e-05 0 -3.2368181441957622e-05 -1.7337352465848913e-05 0 -2.5376772625604302e-05 -1.3706438305942024e-05 0 -2.7078966618198153e-05 -1.0971953756696085e-05 0 -2.0226011681651142e-05 -8.9873069837863531e-06 0 -1.9962626293512737e-05 -6.304043100903958e-06 0 -1.4602477338280412e-05 -4.4381006630293051e-06 0 -2.0226011681651142e-05 -8.9873069837863548e-06 0 -1.3853306231888696e-05 -7.9852809269206597e-06 0 -1.9814134917702146e-05 -1.3219899764931508e-05 0 -1.1715539141336698e-05 -1.2605260874279588e-05 0 -1.3853306231888696e-05 -7.9852809269206597e-06 0 -1.9814134917702146e-05 -1.3219899764931508e-05 0 -1.3853306231888696e-05 -7.9852809269206597e-06 0 -2.0226011681651142e-05 -8.9873069837863548e-06 0 1.0218652776573307e-05 -2.4412773459951855e-06 0 9.4909367499958815e-06 -1.10541211399472e-06 0 8.5309937750637859e-06 -3.8493199005193713e-06 0 7.9706716018009615e-06 -2.0744523178093772e-06 0 8.5309937750637859e-06 -3.8493199005193713e-06 0 9.4909367499958815e-06 -1.10541211399472e-06 0 7.9706716018009615e-06 -2.0744523178093772e-06 0 6.7527344250121274e-06 -4.2405244158276152e-06 0 8.5309937750637859e-06 -3.8493199005193713e-06 0 1.0218652776573307e-05 -2.4412773459951855e-06 0 1.146885081821311e-05 4.6508371513176303e-07 0 9.4909367499958815e-06 -1.10541211399472e-06 0 1.3517464533921103e-05 2.5131538187132444e-06 0 1.146885081821311e-05 4.6508371513176318e-07 0 1.2907483302613571e-05 1.7807920879816841e-07 0 1.0218652776573307e-05 -2.4412773459951855e-06 0 1.2907483302613571e-05 1.7807920879816841e-07 0 1.146885081821311e-05 4.6508371513176318e-07 0 1.0218652776573307e-05 -2.4412773459951855e-06 0 1.1427068040263764e-05 -2.6800788561147394e-06 0 1.2907483302613571e-05 1.7807920879816841e-07 0 1.0218652776573307e-05 -2.4412773459951855e-06 0 1.0027976902789749e-05 -5.4090362510733892e-06 0 1.1427068040263764e-05 -2.680078856114739e-06 0 1.2701102063369008e-05 -3.3651293465102879e-06 0 1.2907483302613571e-05 1.7807920879816841e-07 0 1.1427068040263764e-05 -2.680078856114739e-06 0 1.2701102063369008e-05 -3.3651293465102879e-06 0 1.1427068040263762e-05 -2.6800788561147382e-06 0 1.0027976902789749e-05 -5.40903625107339e-06 0 7.7045945644509003e-06 -9.1845139657060075e-06 0 1.0027976902789749e-05 -5.40903625107339e-06 0 8.3500386319885211e-06 -6.2405920813088151e-06 0 1.0218652776573307e-05 -2.4412773459951855e-06 0 8.3500386319885211e-06 -6.2405920813088142e-06 0 1.0027976902789749e-05 -5.40903625107339e-06 0 1.0218652776573307e-05 -2.4412773459951855e-06 0 8.5309937750637859e-06 -3.8493199005193713e-06 0 8.3500386319885211e-06 -6.2405920813088151e-06 0 7.3436898524855647e-06 -6.6982981634156578e-06 0 8.3500386319885211e-06 -6.2405920813088142e-06 0 8.5309937750637859e-06 -3.8493199005193713e-06 0 7.7045945644509003e-06 -9.1845139657060075e-06 0 8.3500386319885211e-06 -6.2405920813088151e-06 0 6.564533210983337e-06 -9.8982484338812728e-06 0 7.9581330762962618e-06 -1.4776325190709756e-05 0 6.564533210983337e-06 -9.8982484338812728e-06 0 6.9868748356415218e-06 -1.0105585861359142e-05 0 7.3436898524855647e-06 -6.6982981634156578e-06 0 6.9868748356415218e-06 -1.0105585861359142e-05 0 6.564533210983337e-06 -9.8982484338812728e-06 0 7.3436898524855647e-06 -6.6982981634156578e-06 0 5.6761698968816792e-06 -6.5915659718053192e-06 0 6.9868748356415218e-06 -1.0105585861359142e-05 0 7.3436898524855647e-06 -6.6982981634156578e-06 0 6.564533210983337e-06 -9.8982484338812728e-06 0 8.3500386319885211e-06 -6.2405920813088151e-06 0 7.9581330762962618e-06 -1.4776325190709756e-05 0 4.9186829991415399e-06 -1.1230501891297417e-05 0 2.7408377212277871e-06 -1.7586282329987775e-05 0 2.7408377212277871e-06 -1.7586282329987775e-05 0 4.9186829991415399e-06 -1.1230501891297417e-05 0 -3.5283223654428312e-07 -1.3299277041192686e-05 0 7.9581330762962618e-06 -1.4776325190709756e-05 0 6.9868748356415218e-06 -1.0105585861359142e-05 0 4.9186829991415399e-06 -1.1230501891297417e-05 0 5.6761698968816792e-06 -6.5915659718053192e-06 0 4.9186829991415399e-06 -1.1230501891297417e-05 0 6.9868748356415218e-06 -1.0105585861359142e-05 0 1.6844075898552229e-06 -8.028961710268218e-06 0 -3.5283223654428312e-07 -1.3299277041192686e-05 0 4.9186829991415399e-06 -1.1230501891297417e-05 0 1.6844075898552229e-06 -8.028961710268218e-06 0 4.9186829991415391e-06 -1.1230501891297417e-05 0 5.6761698968816792e-06 -6.5915659718053192e-06 0 1.6844075898552229e-06 -8.028961710268218e-06 0 5.6761698968816792e-06 -6.5915659718053192e-06 0 2.575311705301496e-06 -4.0054145105624478e-06 0 5.1242887594046605e-06 -2.644250843492525e-06 0 2.575311705301496e-06 -4.0054145105624478e-06 0 5.6761698968816792e-06 -6.5915659718053192e-06 0 7.3436898524855647e-06 -6.6982981634156578e-06 0 8.5309937750637859e-06 -3.8493199005193713e-06 0 6.7527344250121274e-06 -4.2405244158276152e-06 0 7.3436898524855647e-06 -6.6982981634156578e-06 0 6.7527344250121274e-06 -4.2405244158276152e-06 0 5.6761698968816792e-06 -6.5915659718053192e-06 0 5.1242887594046605e-06 -2.644250843492525e-06 0 5.6761698968816792e-06 -6.5915659718053192e-06 0 6.7527344250121274e-06 -4.2405244158276152e-06 0 6.7527344250121274e-06 -4.2405244158276152e-06 0 6.6628993431761575e-06 -1.2422377745210225e-07 0 5.1242887594046605e-06 -2.644250843492525e-06 0 7.9706716018009615e-06 -2.0744523178093772e-06 0 6.6628993431761575e-06 -1.2422377745210225e-07 0 6.7527344250121274e-06 -4.2405244158276152e-06 0 5.1242887594046605e-06 -2.644250843492525e-06 0 6.6628993431761575e-06 -1.242237774521018e-07 0 4.9552066581420853e-06 -4.2488596394744718e-07 0 6.6628993431761575e-06 -1.2422377745210225e-07 0 5.452542792634875e-06 9.4708966669072202e-07 0 4.9552066581420853e-06 -4.2488596394744718e-07 0 -2.0403347546050692e-07 -1.524270049284338e-06 0 2.575311705301496e-06 -4.0054145105624478e-06 0 3.1301357087692641e-06 -1.0467166786609225e-06 0 5.1242887594046605e-06 -2.644250843492525e-06 0 3.1301357087692646e-06 -1.0467166786609225e-06 0 2.575311705301496e-06 -4.0054145105624478e-06 0 5.1242887594046605e-06 -2.644250843492525e-06 0 4.9552066581420845e-06 -4.2488596394744702e-07 0 3.1301357087692641e-06 -1.0467166786609225e-06 0 3.8500996843489385e-06 8.7583897119740861e-07 0 3.1301357087692641e-06 -1.0467166786609225e-06 0 4.9552066581420853e-06 -4.2488596394744718e-07 0 -2.0403347546050692e-07 -1.524270049284338e-06 0 3.1301357087692641e-06 -1.0467166786609222e-06 0 1.6803289185261054e-06 8.2575550733425568e-07 0 3.8500996843489385e-06 8.7583897119740861e-07 0 1.6803289185261054e-06 8.2575550733425546e-07 0 3.1301357087692641e-06 -1.0467166786609225e-06 0 3.8500996843489385e-06 8.7583897119740861e-07 0 2.5911460982036129e-06 2.2826694026061592e-06 0 1.6803289185261054e-06 8.2575550733425568e-07 0 6.6725716214871102e-07 2.0178507391134244e-06 0 1.6803289185261054e-06 8.2575550733425568e-07 0 2.5911460982036129e-06 2.2826694026061592e-06 0 6.6725716214871102e-07 2.0178507391134244e-06 0 -8.7499044314486619e-07 1.1103327640763135e-06 0 1.6803289185261054e-06 8.2575550733425568e-07 0 6.4961840664868273e-06 1.7411051710791353e-06 0 5.4525427926348759e-06 9.4708966669072191e-07 0 6.6628993431761575e-06 -1.2422377745210225e-07 0 3.8500996843489385e-06 8.7583897119740861e-07 0 4.9552066581420862e-06 -4.2488596394744718e-07 0 5.452542792634875e-06 9.4708966669072202e-07 0 3.8500996843489385e-06 8.7583897119740861e-07 0 5.452542792634875e-06 9.4708966669072202e-07 0 4.6242311159730351e-06 1.9576309953050682e-06 0 3.8500996843489385e-06 8.7583897119740861e-07 0 4.6242311159730351e-06 1.9576309953050682e-06 0 2.5911460982036129e-06 2.2826694026061592e-06 0 6.4961840664868273e-06 1.7411051710791353e-06 0 4.6242311159730351e-06 1.9576309953050682e-06 0 5.452542792634875e-06 9.4708966669072202e-07 0 6.4961840664868273e-06 1.7411051710791353e-06 0 4.7490917837801135e-06 2.5797445807485768e-06 0 4.6242311159730351e-06 1.9576309953050682e-06 0 6.4961840664868273e-06 1.7411051710791353e-06 0 8.484775547566294e-06 1.8683099206461749e-06 0 6.5470944427341738e-06 2.3400852446951825e-06 0 8.484775547566294e-06 1.8683099206461747e-06 0 8.5600865608249965e-06 2.2912281126211243e-06 0 6.5470944427341738e-06 2.3400852446951825e-06 0 6.4961840664868273e-06 1.7411051710791353e-06 0 8.0089362848120729e-06 9.2486262315155195e-07 0 8.484775547566294e-06 1.8683099206461747e-06 0 6.4961840664868273e-06 1.7411051710791353e-06 0 6.6628993431761575e-06 -1.2422377745210225e-07 0 8.0089362848120729e-06 9.2486262315155195e-07 0 6.6628993431761575e-06 -1.2422377745210225e-07 0 8.4631061931408525e-06 -2.4814069869108798e-07 0 8.0089362848120729e-06 9.2486262315155195e-07 0 9.9050292487382657e-06 1.0295577209632397e-06 0 8.0089362848120729e-06 9.2486262315155195e-07 0 8.4631061931408525e-06 -2.4814069869108798e-07 0 9.9050292487382657e-06 1.0295577209632397e-06 0 8.484775547566294e-06 1.8683099206461747e-06 0 8.0089362848120729e-06 9.2486262315155195e-07 0 9.9050292487382657e-06 1.0295577209632397e-06 0 8.4631061931408525e-06 -2.4814069869108798e-07 0 9.4909367499958815e-06 -1.10541211399472e-06 0 7.9706716018009615e-06 -2.0744523178093772e-06 0 9.4909367499958815e-06 -1.1054121139947202e-06 0 8.4631061931408525e-06 -2.4814069869108798e-07 0 7.9706716018009615e-06 -2.0744523178093772e-06 0 8.4631061931408525e-06 -2.4814069869108808e-07 0 6.6628993431761575e-06 -1.2422377745210225e-07 0 1.3517464533921103e-05 2.5131538187132444e-06 0 1.1702151698896333e-05 1.9545954316661642e-06 0 1.146885081821311e-05 4.6508371513176318e-07 0 9.9050292487382657e-06 1.0295577209632397e-06 0 1.146885081821311e-05 4.6508371513176318e-07 0 1.1702151698896333e-05 1.9545954316661642e-06 0 9.9050292487382657e-06 1.0295577209632397e-06 0 9.4909367499958815e-06 -1.10541211399472e-06 0 1.146885081821311e-05 4.6508371513176318e-07 0 9.9050292487382657e-06 1.0295577209632397e-06 0 1.0452895933855147e-05 2.1624329242088807e-06 0 8.484775547566294e-06 1.8683099206461747e-06 0 1.1702151698896333e-05 1.9545954316661642e-06 0 1.2923158856707899e-05 3.0532187039037084e-06 0 1.0452895933855147e-05 2.1624329242088807e-06 0 9.9050292487382657e-06 1.0295577209632397e-06 0 1.1702151698896333e-05 1.9545954316661642e-06 0 1.0452895933855147e-05 2.1624329242088807e-06 0 1.0713948147288202e-05 2.4835471854284809e-06 0 8.5600865608249965e-06 2.2912281126211243e-06 0 1.0452895933855147e-05 2.1624329242088807e-06 0 8.484775547566294e-06 1.8683099206461747e-06 0 1.0452895933855147e-05 2.1624329242088807e-06 0 8.5600865608249965e-06 2.2912281126211243e-06 0 1.0713948147288202e-05 2.4835471854284809e-06 0 8.8000922240509723e-06 2.2335303754675694e-06 0 8.5600865608249965e-06 2.2912281126211243e-06 0 7.0590529658866083e-06 2.3419414194033206e-06 0 8.8000922240509723e-06 2.2335303754675694e-06 0 6.8117076952314272e-06 2.0618160506269046e-06 0 7.0590529658866083e-06 2.3419414194033206e-06 0 6.8117076952314272e-06 2.0618160506269046e-06 0 5.5454981966719753e-06 2.4629204580025378e-06 0 7.0590529658866083e-06 2.3419414194033206e-06 0 6.5470944427341738e-06 2.3400852446951825e-06 0 8.5600865608249965e-06 2.2912281126211243e-06 0 7.0590529658866083e-06 2.3419414194033206e-06 0 8.5600865608249965e-06 2.2912281126211243e-06 0 8.8000922240509723e-06 2.2335303754675694e-06 0 6.4961840664868273e-06 1.7411051710791353e-06 0 6.5470944427341738e-06 2.3400852446951821e-06 0 4.7490917837801143e-06 2.5797445807485768e-06 0 3.8828494737948122e-06 2.6717428786706012e-06 0 4.7490917837801143e-06 2.5797445807485768e-06 0 5.5454981966719753e-06 2.4629204580025378e-06 0 4.7490917837801143e-06 2.5797445807485768e-06 0 6.5470944427341729e-06 2.3400852446951825e-06 0 5.5454981966719753e-06 2.4629204580025378e-06 0 7.0590529658866083e-06 2.3419414194033206e-06 0 5.5454981966719753e-06 2.4629204580025378e-06 0 6.5470944427341738e-06 2.3400852446951825e-06 0 5.1164646933210007e-06 2.0375934549947317e-06 0 3.8524683481602729e-06 2.2420287185118286e-06 0 5.5454981966719753e-06 2.4629204580025378e-06 0 3.8828494737948122e-06 2.6717428786706012e-06 0 5.5454981966719753e-06 2.4629204580025378e-06 0 3.8524683481602729e-06 2.2420287185118286e-06 0 3.8828494737948122e-06 2.6717428786706012e-06 0 3.8524683481602729e-06 2.2420287185118286e-06 0 2.5625103422013864e-06 2.3085328031635791e-06 0 5.1164646933210007e-06 2.0375934549947317e-06 0 3.5486862780050987e-06 1.6237242880446658e-06 0 3.8524683481602729e-06 2.2420287185118286e-06 0 4.3094401793835805e-06 1.1780989110714224e-06 0 3.5486862780050987e-06 1.6237242880446658e-06 0 5.1164646933210007e-06 2.0375934549947317e-06 0 4.3094401793835805e-06 1.1780989110714224e-06 0 5.1164646933210007e-06 2.0375934549947317e-06 0 6.1141280148430983e-06 1.5421247262823656e-06 0 5.1164646933210007e-06 2.0375934549947317e-06 0 6.8117076952314272e-06 2.0618160506269046e-06 0 6.1141280148430983e-06 1.5421247262823656e-06 0 5.1164646933210007e-06 2.0375934549947317e-06 0 5.5454981966719753e-06 2.4629204580025378e-06 0 6.8117076952314272e-06 2.0618160506269046e-06 0 6.6725716214871102e-07 2.0178507391134244e-06 0 2.5911460982036129e-06 2.2826694026061592e-06 0 9.209230722911609e-07 2.8389922455492263e-06 0 2.4986226140367712e-06 2.9135103608811807e-06 0 9.209230722911609e-07 2.8389922455492263e-06 0 2.5911460982036129e-06 2.2826694026061592e-06 0 2.4986226140367712e-06 2.9135103608811807e-06 0 1.082712651080457e-06 3.1091499757352853e-06 0 9.209230722911609e-07 2.8389922455492263e-06 0 2.4986226140367712e-06 2.9135103608811807e-06 0 3.6640204342481682e-06 2.5485925308706269e-06 0 3.4393654953544811e-06 2.8256310294399823e-06 0 2.4986226140367712e-06 2.9135103608811807e-06 0 2.5911460982036129e-06 2.2826694026061592e-06 0 3.6640204342481682e-06 2.5485925308706269e-06 0 2.5911460982036129e-06 2.2826694026061592e-06 0 4.6242311159730351e-06 1.9576309953050682e-06 0 3.6640204342481682e-06 2.5485925308706269e-06 0 4.7490917837801143e-06 2.5797445807485768e-06 0 3.6640204342481682e-06 2.5485925308706269e-06 0 4.6242311159730351e-06 1.9576309953050682e-06 0 4.7490917837801143e-06 2.5797445807485768e-06 0 3.4393654953544811e-06 2.8256310294399823e-06 0 3.6640204342481682e-06 2.5485925308706269e-06 0 3.8828494737948122e-06 2.6717428786706012e-06 0 3.4393654953544815e-06 2.8256310294399827e-06 0 4.7490917837801143e-06 2.5797445807485768e-06 0 3.8828494737948122e-06 2.6717428786706012e-06 0 2.1970810358726151e-06 2.9121743738049811e-06 0 3.4393654953544811e-06 2.8256310294399823e-06 0 3.8828494737948122e-06 2.6717428786706012e-06 0 2.5625103422013864e-06 2.3085328031635791e-06 0 2.1970810358726151e-06 2.9121743738049811e-06 0 2.4986226140367712e-06 2.9135103608811807e-06 0 3.4393654953544811e-06 2.8256310294399823e-06 0 2.1970810358726151e-06 2.9121743738049811e-06 0 2.4986226140367712e-06 2.9135103608811807e-06 0 2.1970810358726151e-06 2.9121743738049811e-06 0 1.082712651080457e-06 3.1091499757352853e-06 0 5.2864365648037576e-07 2.9560247992253248e-06 0 1.082712651080457e-06 3.1091499757352853e-06 0 2.1970810358726151e-06 2.9121743738049811e-06 0 5.2864365648037576e-07 2.9560247992253248e-06 0 -1.6390656885505917e-07 3.0880569871199166e-06 0 1.082712651080457e-06 3.1091499757352853e-06 0 -4.8712668268334476e-07 3.102089548926849e-06 0 9.209230722911609e-07 2.8389922455492263e-06 0 1.082712651080457e-06 3.1091499757352853e-06 0 -4.8712668268334476e-07 3.102089548926849e-06 0 1.082712651080457e-06 3.1091499757352853e-06 0 -1.6390656885505917e-07 3.0880569871199166e-06 0 2.1438493438117957e-07 1.6672287387668337e-06 0 -7.0734360654941147e-08 2.6575566118844625e-06 0 9.4177539130711182e-07 2.5196969699163034e-06 0 5.2864365648037576e-07 2.9560247992253248e-06 0 -7.073436065494116e-08 2.6575566118844625e-06 0 -1.6390656885505917e-07 3.0880569871199166e-06 0 5.2864365648037576e-07 2.9560247992253248e-06 0 9.4177539130711182e-07 2.5196969699163034e-06 0 -7.0734360654941147e-08 2.6575566118844625e-06 0 5.2864365648037576e-07 2.9560247992253248e-06 0 2.1970810358726151e-06 2.9121743738049811e-06 0 9.4177539130711182e-07 2.5196969699163034e-06 0 2.1438493438117957e-07 1.6672287387668337e-06 0 9.4177539130711182e-07 2.5196969699163034e-06 0 5.8997749318946047e-07 1.4462069238520523e-06 0 1.4815344651986797e-06 2.210060371480289e-06 0 5.8997749318946047e-07 1.4462069238520523e-06 0 9.4177539130711182e-07 2.5196969699163034e-06 0 1.4815344651986797e-06 2.210060371480289e-06 0 9.4177539130711172e-07 2.519696969916303e-06 0 2.1970810358726151e-06 2.9121743738049811e-06 0 1.4815344651986797e-06 2.210060371480289e-06 0 2.1970810358726151e-06 2.9121743738049811e-06 0 2.5625103422013864e-06 2.3085328031635791e-06 0 1.4815344651986797e-06 2.210060371480289e-06 0 2.5625103422013864e-06 2.3085328031635791e-06 0 1.0259435083307361e-06 1.3610825442964871e-06 0 1.4815344651986797e-06 2.210060371480289e-06 0 1.0259435083307361e-06 1.3610825442964869e-06 0 5.8997749318946047e-07 1.4462069238520523e-06 0 6.8968921992798644e-10 6.5944767469212236e-10 0 5.8997749318946047e-07 1.4462069238520523e-06 0 1.0259435083307361e-06 1.3610825442964871e-06 0 6.8968921992798644e-10 6.5944767469212236e-10 0 4.0502182757336486e-10 6.5521026280478673e-10 0 5.8997749318946047e-07 1.4462069238520523e-06 0 4.0502182757336486e-10 6.5521026280478673e-10 0 2.1438493438117957e-07 1.6672287387668337e-06 0 5.8997749318946047e-07 1.4462069238520523e-06 0 4.0502182757336486e-10 6.5521026280478673e-10 0 -2.9003641871297161e-11 7.4489003613570218e-10 0 2.1438493438117957e-07 1.6672287387668337e-06 0 -2.9003641871297161e-11 7.4489003613570218e-10 0 -1.9381832064894362e-07 1.5258779785649996e-06 0 2.1438493438117957e-07 1.6672287387668337e-06 0 2.1374714903248397e-06 1.5024357099592771e-06 0 3.5486862780050987e-06 1.6237242880446656e-06 0 2.2014761000072922e-06 8.7991017963673405e-07 0 4.3094401793835805e-06 1.1780989110714224e-06 0 2.2014761000072922e-06 8.7991017963673405e-07 0 3.5486862780050987e-06 1.6237242880446658e-06 0 3.5486862780050987e-06 1.6237242880446658e-06 0 2.1374714903248397e-06 1.5024357099592771e-06 0 3.8524683481602729e-06 2.2420287185118286e-06 0 2.1374714903248397e-06 1.5024357099592771e-06 0 2.5625103422013864e-06 2.3085328031635791e-06 0 3.8524683481602729e-06 2.2420287185118286e-06 0 2.1374714903248397e-06 1.5024357099592771e-06 0 1.0259435083307361e-06 1.3610825442964871e-06 0 2.5625103422013864e-06 2.3085328031635791e-06 0 2.1374714903248397e-06 1.5024357099592771e-06 0 8.8190397756631713e-07 8.3305263987349431e-07 0 1.0259435083307361e-06 1.3610825442964871e-06 0 1.0924420143909953e-09 4.3909357391884747e-10 0 6.8968921992798644e-10 6.5944767469212236e-10 0 1.0259435083307361e-06 1.3610825442964871e-06 0 1.0924420143909953e-09 4.3909357391884747e-10 0 1.0259435083307361e-06 1.3610825442964871e-06 0 8.8190397756631723e-07 8.3305263987349442e-07 0 1.2905969103756584e-09 3.701082306445032e-10 0 1.0924420143909953e-09 4.3909357391884747e-10 0 8.8190397756631723e-07 8.3305263987349442e-07 0 1.2905969103756584e-09 3.701082306445032e-10 0 8.8190397756631734e-07 8.3305263987349452e-07 0 9.330915295938839e-07 6.2259884445468561e-07 0 1.3902875062783829e-09 3.0793309487439679e-10 0 9.330915295938839e-07 6.2259884445468561e-07 0 2.2014761000072922e-06 8.7991017963673405e-07 0 2.1374714903248397e-06 1.5024357099592771e-06 0 2.2014761000072922e-06 8.7991017963673405e-07 0 9.330915295938839e-07 6.2259884445468561e-07 0 2.1374714903248397e-06 1.5024357099592771e-06 0 9.330915295938839e-07 6.2259884445468561e-07 0 8.8190397756631723e-07 8.3305263987349442e-07 0 1.3902875062783829e-09 3.0793309487439679e-10 0 1.2905969103756584e-09 3.701082306445032e-10 0 9.330915295938839e-07 6.2259884445468561e-07 0 1.3902875062783829e-09 3.0793309487439679e-10 0 2.2014761000072922e-06 8.7991017963673405e-07 0 1.4329868927187242e-06 2.5646839779733242e-07 0 1.5016250268856696e-09 -9.4945786625924212e-11 0 1.3902875062784611e-09 3.079330948744108e-10 0 1.4329868927187242e-06 2.5646839779733242e-07 0 1.5016250268856696e-09 -9.4945786625924212e-11 0 1.4329868927187242e-06 2.5646839779733242e-07 0 1.0935075568827759e-06 -1.0468045339541427e-07 0 2.7182651859309063e-06 -2.6257680409613764e-08 0 1.0935075568827759e-06 -1.0468045339541427e-07 0 1.4329868927187242e-06 2.5646839779733242e-07 0 2.2014761000072922e-06 8.7991017963673405e-07 0 2.9742725819253272e-06 4.9578283276896717e-07 0 1.4329868927187242e-06 2.5646839779733242e-07 0 4.3094401793835805e-06 1.1780989110714224e-06 0 2.9742725819253263e-06 4.9578283276896717e-07 0 2.2014761000072922e-06 8.7991017963673405e-07 0 2.7182651859309063e-06 -2.6257680409613764e-08 0 1.4329868927187242e-06 2.5646839779733242e-07 0 2.9742725819253263e-06 4.9578283276896717e-07 0 2.7182651859309063e-06 -2.6257680409613764e-08 0 2.9742725819253263e-06 4.9578283276896717e-07 0 4.3144103997207597e-06 1.7700848499824384e-07 0 2.9742725819253263e-06 4.9578283276896717e-07 0 4.3094401793835805e-06 1.1780989110714224e-06 0 4.3144103997207597e-06 1.7700848499824384e-07 0 2.7182651859309063e-06 -2.6257680409613764e-08 0 4.3144103997207597e-06 1.7700848499824384e-07 0 3.6645125082253009e-06 -6.1785404437312426e-07 0 2.693835114695733e-06 -1.2593184327030718e-06 0 1.5682010899549982e-06 -5.6514840435356736e-07 0 3.6645125082253009e-06 -6.1785404437312426e-07 0 2.7182651859309063e-06 -2.6257680409613764e-08 0 3.6645125082253009e-06 -6.1785404437312426e-07 0 1.5682010899549982e-06 -5.6514840435356736e-07 0 2.7182651859309063e-06 -2.6257680409613764e-08 0 1.5682010899549982e-06 -5.6514840435356736e-07 0 1.0935075568827759e-06 -1.0468045339541427e-07 0 1.5298792065641497e-09 1.7354266312786362e-11 0 1.5016250268854695e-09 -9.4945786625905032e-11 0 1.0935075568827759e-06 -1.0468045339541427e-07 0 1.1884652969855252e-09 -4.8465963467268048e-10 0 1.5298792065641497e-09 1.7354266312786362e-11 0 1.5682010899549982e-06 -5.6514840435356736e-07 0 1.5298792065641497e-09 1.7354266312786362e-11 0 1.0935075568827759e-06 -1.0468045339541434e-07 0 1.5682010899549982e-06 -5.6514840435356736e-07 0 8.7530395810149159e-10 -6.1449928810813406e-10 0 1.1884652969855252e-09 -4.8465963467268048e-10 0 1.2133651357575856e-06 -1.095172096570393e-06 0 2.693835114695733e-06 -1.2593184327030718e-06 0 1.2133651357575858e-06 -1.095172096570393e-06 0 1.5682010899549982e-06 -5.6514840435356736e-07 0 1.1884652969855252e-09 -4.8465963467268048e-10 0 1.5682010899549982e-06 -5.6514840435356736e-07 0 1.2133651357575856e-06 -1.095172096570393e-06 0 3.7906946541318112e-10 -9.1038454668380564e-10 0 8.7530395810149159e-10 -6.1449928810813406e-10 0 7.8345491685289646e-07 -1.7253900837683848e-06 0 8.7530395810149159e-10 -6.1449928810813406e-10 0 1.2133651357575856e-06 -1.095172096570393e-06 0 7.8345491685289646e-07 -1.7253900837683848e-06 0 3.7906946541318112e-10 -9.1038454668380564e-10 0 7.8345491685289646e-07 -1.7253900837683848e-06 0 1.7581235978355031e-07 -1.8700001129556485e-06 0 7.8345491685289646e-07 -1.7253900837683848e-06 0 2.6092731326337277e-06 -2.1997359913599616e-06 0 9.8883639319552903e-07 -2.933606091687955e-06 0 2.333996696384275e-06 -2.8777595457016418e-06 0 9.8883639319552903e-07 -2.933606091687955e-06 0 2.6092731326337277e-06 -2.1997359913599616e-06 0 7.8345491685289646e-07 -1.7253900837683848e-06 0 1.2133651357575856e-06 -1.095172096570393e-06 0 2.6092731326337277e-06 -2.1997359913599616e-06 0 2.333996696384275e-06 -2.8777595457016418e-06 0 1.9073519021489774e-06 -3.324078684105411e-06 0 9.8883639319552903e-07 -2.933606091687955e-06 0 2.693835114695733e-06 -1.2593184327030718e-06 0 2.6092731326337277e-06 -2.1997359913599616e-06 0 1.2133651357575856e-06 -1.095172096570393e-06 0 2.693835114695733e-06 -1.2593184327030718e-06 0 4.2356560324220745e-06 -1.2092833160243503e-06 0 2.6092731326337277e-06 -2.1997359913599616e-06 0 2.693835114695733e-06 -1.2593184327030718e-06 0 3.6645125082253009e-06 -6.1785404437312426e-07 0 4.2356560324220745e-06 -1.2092833160243503e-06 0 5.6697368130993033e-06 -1.5426538006067087e-06 0 2.6092731326337277e-06 -2.1997359913599616e-06 0 4.2356560324220745e-06 -1.2092833160243503e-06 0 6.1544776394337114e-06 -2.7412383861618107e-07 0 5.6697368130993033e-06 -1.5426538006067087e-06 0 4.2356560324220745e-06 -1.2092833160243503e-06 0 6.1544776394337114e-06 -2.7412383861618107e-07 0 8.0675403204767161e-06 -3.4011003489070977e-08 0 5.6697368130993033e-06 -1.5426538006067087e-06 0 5.6697368130993033e-06 -1.5426538006067087e-06 0 3.9217769331072178e-06 -2.5440452517249908e-06 0 2.6092731326337277e-06 -2.1997359913599616e-06 0 2.333996696384275e-06 -2.8777595457016418e-06 0 3.9217769331072178e-06 -2.5440452517249908e-06 0 1.9073519021489774e-06 -3.324078684105411e-06 0 2.333996696384275e-06 -2.8777595457016418e-06 0 2.6092731326337277e-06 -2.1997359913599616e-06 0 3.9217769331072178e-06 -2.5440452517249908e-06 0 5.6697368130993033e-06 -1.5426538006067087e-06 0 5.3845415582657609e-06 -2.1677348426416126e-06 0 3.9217769331072178e-06 -2.5440452517249908e-06 0 2.6781359424861071e-06 -3.3486559280841557e-06 0 1.9073519021489774e-06 -3.324078684105411e-06 0 3.9217769331072178e-06 -2.5440452517249908e-06 0 2.6781359424861071e-06 -3.3486559280841557e-06 0 3.9217769331072178e-06 -2.5440452517249908e-06 0 5.3845415582657609e-06 -2.1677348426416126e-06 0 2.6781359424861071e-06 -3.3486559280841557e-06 0 5.3845415582657609e-06 -2.1677348426416126e-06 0 6.097007868872075e-06 -1.9278679098338677e-06 0 8.3370499094137905e-06 -7.1335805123934515e-07 0 6.097007868872075e-06 -1.9278679098338677e-06 0 5.3845415582657609e-06 -2.1677348426416126e-06 0 8.3370499094137905e-06 -7.1335805123934515e-07 0 9.2437818776346103e-06 -1.1835670525188197e-07 0 6.097007868872075e-06 -1.9278679098338677e-06 0 6.141132031203715e-06 -1.2363534088215223e-06 0 2.301670100923666e-06 -2.9360836034872824e-06 0 6.097007868872075e-06 -1.9278679098338677e-06 0 6.141132031203715e-06 -1.2363534088215223e-06 0 6.097007868872075e-06 -1.9278679098338677e-06 0 9.2437818776346087e-06 -1.1835670525188226e-07 0 8.3370499094137905e-06 -7.1335805123934515e-07 0 5.6697368130993033e-06 -1.5426538006067087e-06 0 8.0675403204767161e-06 -3.4011003489070977e-08 0 8.3370499094137905e-06 -7.1335805123934515e-07 0 5.3845415582657609e-06 -2.1677348426416126e-06 0 5.6697368130993033e-06 -1.5426538006067087e-06 0 8.3370499094137905e-06 -7.1335805123934515e-07 0 8.0675403204767161e-06 -3.4011003489070977e-08 0 1.0472605317733911e-05 8.9696996105241528e-07 0 8.3370499094137905e-06 -7.1335805123934515e-07 0 1.0472605317733911e-05 8.9696996105241528e-07 0 1.2048077559418762e-05 1.5026719544858409e-06 0 9.568622873005546e-06 1.2208069391379731e-06 0 1.0472605317733911e-05 8.9696996105241528e-07 0 8.0675403204767161e-06 -3.4011003489070977e-08 0 1.1699990095550857e-05 1.9339540821763177e-06 0 1.0472605317733911e-05 8.9696996105241528e-07 0 9.568622873005546e-06 1.2208069391379731e-06 0 9.568622873005546e-06 1.2208069391379731e-06 0 8.0675403204767161e-06 -3.4011003489070977e-08 0 7.4749164096279037e-06 6.2068148662575153e-07 0 7.9207094325046908e-06 1.5506794868313528e-06 0 9.568622873005546e-06 1.2208069391379729e-06 0 7.4749164096279037e-06 6.2068148662575153e-07 0 1.1699990095550857e-05 1.9339540821763177e-06 0 9.568622873005546e-06 1.2208069391379731e-06 0 1.0396284214334733e-05 2.0908854334386857e-06 0 7.9207094325046908e-06 1.5506794868313528e-06 0 1.0396284214334733e-05 2.0908854334386857e-06 0 9.568622873005546e-06 1.2208069391379731e-06 0 7.9207094325046908e-06 1.5506794868313528e-06 0 8.8000922240509723e-06 2.2335303754675694e-06 0 1.0396284214334733e-05 2.0908854334386857e-06 0 7.9207094325046908e-06 1.5506794868313528e-06 0 6.1141280148430983e-06 1.5421247262823656e-06 0 6.8117076952314272e-06 2.0618160506269046e-06 0 7.9207094325046908e-06 1.5506794868313528e-06 0 6.8117076952314272e-06 2.0618160506269046e-06 0 8.8000922240509723e-06 2.2335303754675694e-06 0 7.9207094325046908e-06 1.5506794868313528e-06 0 7.4749164096279037e-06 6.2068148662575153e-07 0 5.7622765253989967e-06 7.1577377263700057e-07 0 7.9207094325046908e-06 1.5506794868313528e-06 0 5.7622765253989967e-06 7.1577377263700057e-07 0 6.1141280148430983e-06 1.5421247262823656e-06 0 4.3094401793835805e-06 1.1780989110714224e-06 0 6.1141280148430983e-06 1.5421247262823656e-06 0 5.7622765253989967e-06 7.1577377263700057e-07 0 4.3144103997207597e-06 1.7700848499824384e-07 0 4.3094401793835805e-06 1.1780989110714224e-06 0 5.7622765253989967e-06 7.1577377263700057e-07 0 6.1544776394337114e-06 -2.7412383861618107e-07 0 4.3144103997207597e-06 1.7700848499824384e-07 0 5.7622765253989967e-06 7.1577377263700057e-07 0 6.1544776394337114e-06 -2.7412383861618107e-07 0 3.6645125082253009e-06 -6.1785404437312426e-07 0 4.3144103997207597e-06 1.7700848499824384e-07 0 6.1544776394337114e-06 -2.7412383861618107e-07 0 4.2356560324220745e-06 -1.2092833160243503e-06 0 3.6645125082253009e-06 -6.1785404437312426e-07 0 7.4749164096279037e-06 6.2068148662575153e-07 0 8.0675403204767161e-06 -3.4011003489070977e-08 0 6.1544776394337114e-06 -2.7412383861618107e-07 0 6.1544776394337114e-06 -2.7412383861618107e-07 0 5.7622765253989967e-06 7.1577377263700057e-07 0 7.4749164096279037e-06 6.2068148662575153e-07 0 -9.182281312128595e-06 -1.7416545484158549e-06 0 -5.2604498764696871e-06 -1.3055719233115262e-06 0 -5.1453142028101414e-06 -2.3606651348596775e-06 0 -3.1384725759810351e-06 -2.7233935935607388e-06 0 -5.1453142028101414e-06 -2.3606651348596775e-06 0 -2.3533280078109481e-06 -1.3934093862786662e-06 0 -2.2274054518868833e-06 -3.873031564723242e-07 0 -2.3533280078109481e-06 -1.3934093862786662e-06 0 -5.2604498764696871e-06 -1.3055719233115262e-06 0 -5.2604498764696871e-06 -1.3055719233115262e-06 0 -2.3533280078109481e-06 -1.3934093862786662e-06 0 -5.1453142028101414e-06 -2.3606651348596775e-06 0 -2.2274054518868833e-06 -3.873031564723242e-07 0 -1.0223295860123969e-06 -4.3807799343857798e-07 0 -2.3533280078109481e-06 -1.3934093862786662e-06 0 -1.6960819258562041e-09 6.9342819134669393e-10 0 -1.0223295860123969e-06 -4.3807799343857798e-07 0 -2.2274054518868833e-06 -3.873031564723242e-07 0 -1.6960819258562041e-09 6.9342819134669393e-10 0 -1.9205869375839381e-09 -7.4624316422747476e-10 0 -1.0223295860123969e-06 -4.3807799343857798e-07 0 -1.9205869375839381e-09 -7.4624316422747476e-10 0 -2.3533280078109481e-06 -1.3934093862786662e-06 0 -1.0223295860123969e-06 -4.3807799343857798e-07 0 -1.9205869375839381e-09 -7.4624316422747476e-10 0 -1.4128540660113442e-06 -1.7464364784919969e-06 0 -2.3533280078109481e-06 -1.3934093862786662e-06 0 -3.1384725759810351e-06 -2.7233935935607388e-06 0 -2.3533280078109481e-06 -1.3934093862786662e-06 0 -1.4128540660113438e-06 -1.7464364784919969e-06 0 -1.9205869375839381e-09 -7.4624316422747476e-10 0 -1.7195552220038517e-09 -4.8395608791726676e-10 0 -1.4128540660113438e-06 -1.7464364784919969e-06 0 -1.7195552220041722e-09 -4.8395608791766339e-10 0 -7.5538368696642484e-10 -1.2621341218706803e-09 0 -1.4128540660113438e-06 -1.7464364784919969e-06 0 -3.1384725759810351e-06 -2.7233935935607388e-06 0 -1.4128540660113438e-06 -1.7464364784919969e-06 0 -1.3920417857229515e-06 -2.6877908220384429e-06 0 -3.1384725759810351e-06 -2.7233935935607388e-06 0 -1.3920417857229518e-06 -2.6877908220384429e-06 0 -2.8589646170986983e-06 -3.5824954819376922e-06 0 -3.1384725759810351e-06 -2.7233935935607388e-06 0 -4.8518502116037253e-06 -3.5552121778075708e-06 0 -5.1453142028101414e-06 -2.3606651348596775e-06 0 -7.3829691606815907e-06 -3.1501301081022327e-06 0 -5.1453142028101414e-06 -2.3606651348596775e-06 0 -4.8518502116037253e-06 -3.5552121778075708e-06 0 -3.1378588227594988e-06 -4.1606848373529059e-06 0 -4.8518502116037253e-06 -3.5552121778075708e-06 0 -2.8589646170986983e-06 -3.5824954819376922e-06 0 -3.1384725759810351e-06 -2.7233935935607388e-06 0 -2.8589646170986983e-06 -3.5824954819376922e-06 0 -4.8518502116037253e-06 -3.5552121778075708e-06 0 -3.1378588227594988e-06 -4.1606848373529059e-06 0 -2.8589646170986983e-06 -3.5824954819376922e-06 0 -1.5966238539946175e-06 -3.7315282736753133e-06 0 -2.9152461152328865e-07 -3.1071625021310371e-06 0 -1.5966238539946175e-06 -3.7315282736753133e-06 0 -1.3920417857229515e-06 -2.6877908220384429e-06 0 -1.3920417857229515e-06 -2.6877908220384429e-06 0 -1.5966238539946173e-06 -3.7315282736753133e-06 0 -2.8589646170986983e-06 -3.5824954819376922e-06 0 -7.5538368696642484e-10 -1.2621341218706803e-09 0 -3.2965080822276602e-07 -1.7444766696480026e-06 0 -1.3920417857229515e-06 -2.6877908220384429e-06 0 -7.5538368696642484e-10 -1.2621341218706803e-09 0 -1.3920417857229515e-06 -2.6877908220384429e-06 0 -1.4128540660113438e-06 -1.7464364784919969e-06 0 -7.5538368696642484e-10 -1.2621341218706803e-09 0 -2.4997475843162479e-10 -8.3491679197562237e-10 0 -3.2965080822276602e-07 -1.7444766696480026e-06 0 -2.9152461152328865e-07 -3.1071625021310371e-06 0 -1.3920417857229518e-06 -2.6877908220384425e-06 0 -3.2965080822276602e-07 -1.7444766696480026e-06 0 -2.9152461152328865e-07 -3.1071625021310371e-06 0 -3.2965080822276602e-07 -1.7444766696480026e-06 0 1.7581235978355031e-07 -1.8700001129556485e-06 0 -2.4997475843162479e-10 -8.3491679197562237e-10 0 1.7581235978355031e-07 -1.8700001129556485e-06 0 -3.2965080822276602e-07 -1.7444766696480026e-06 0 -2.4997475843162479e-10 -8.3491679197562237e-10 0 3.7906946541318112e-10 -9.1038454668380564e-10 0 1.7581235978355031e-07 -1.8700001129556485e-06 0 7.8345491685289646e-07 -1.7253900837683848e-06 0 9.8883639319552903e-07 -2.933606091687955e-06 0 1.7581235978355031e-07 -1.8700001129556485e-06 0 -2.9152461152328865e-07 -3.1071625021310371e-06 0 1.7581235978355031e-07 -1.8700001129556485e-06 0 9.8883639319552903e-07 -2.933606091687955e-06 0 -2.9152461152328865e-07 -3.1071625021310371e-06 0 -1.6946605313747333e-08 -3.938754639690324e-06 0 -1.5966238539946175e-06 -3.7315282736753133e-06 0 -2.9152461152328865e-07 -3.1071625021310371e-06 0 9.8883639319552903e-07 -2.933606091687955e-06 0 -1.6946605313747333e-08 -3.938754639690324e-06 0 -1.6946605313747333e-08 -3.938754639690324e-06 0 9.8883639319552903e-07 -2.933606091687955e-06 0 1.9073519021489774e-06 -3.324078684105411e-06 0 2.6781359424861071e-06 -3.3486559280841557e-06 0 -1.6946605313747333e-08 -3.938754639690324e-06 0 1.9073519021489774e-06 -3.324078684105411e-06 0 2.6781359424861071e-06 -3.3486559280841557e-06 0 -1.2101933004103387e-06 -4.1142866649841647e-06 0 -1.6946605313747333e-08 -3.938754639690324e-06 0 2.6781359424861071e-06 -3.3486559280841557e-06 0 6.097007868872075e-06 -1.9278679098338677e-06 0 2.301670100923666e-06 -2.9360836034872824e-06 0 -1.3959313045914447e-06 -3.4070379520242969e-06 0 2.301670100923666e-06 -2.9360836034872824e-06 0 -6.967349535544505e-07 -2.063581955867794e-06 0 -1.3959313045914447e-06 -3.4070379520242969e-06 0 -1.2101933004103387e-06 -4.1142866649841647e-06 0 2.301670100923666e-06 -2.9360836034872824e-06 0 2.6781359424861071e-06 -3.3486559280841557e-06 0 2.301670100923666e-06 -2.9360836034872824e-06 0 -1.2101933004103387e-06 -4.1142866649841647e-06 0 -1.3959313045914447e-06 -3.4070379520242969e-06 0 -5.2837208935088307e-06 -3.9717691478369615e-06 0 -1.2101933004103387e-06 -4.1142866649841647e-06 0 -1.3959313045914447e-06 -3.4070379520242969e-06 0 -6.967349535544505e-07 -2.063581955867794e-06 0 -5.3598082646037204e-06 -2.8953352437089387e-06 0 -1.3959313045914447e-06 -3.4070379520242969e-06 0 -5.3598082646037204e-06 -2.8953352437089387e-06 0 -5.2837208935088307e-06 -3.9717691478369615e-06 0 -3.1378588227594988e-06 -4.1606848373529059e-06 0 -1.2101933004103387e-06 -4.1142866649841647e-06 0 -5.2837208935088307e-06 -3.9717691478369615e-06 0 -3.1378588227594988e-06 -4.1606848373529059e-06 0 -5.2837208935088307e-06 -3.9717691478369615e-06 0 -6.0665222749388576e-06 -3.8528757949552364e-06 0 -3.1378588227594988e-06 -4.1606848373529059e-06 0 -1.6946605313747333e-08 -3.938754639690324e-06 0 -1.2101933004103387e-06 -4.1142866649841647e-06 0 -3.1378588227594988e-06 -4.1606848373529059e-06 0 -1.5966238539946175e-06 -3.7315282736753133e-06 0 -1.6946605313747333e-08 -3.938754639690324e-06 0 -3.1378588227594988e-06 -4.1606848373529059e-06 0 -6.0665222749388576e-06 -3.8528757949552364e-06 0 -4.8518502116037253e-06 -3.5552121778075708e-06 0 -7.3829691606815907e-06 -3.1501301081022327e-06 0 -4.8518502116037253e-06 -3.5552121778075708e-06 0 -6.0665222749388576e-06 -3.8528757949552364e-06 0 -9.3584528632185752e-06 -3.2703957511712375e-06 0 -7.3829691606815899e-06 -3.1501301081022327e-06 0 -6.0665222749388576e-06 -3.8528757949552364e-06 0 -9.3584528632185752e-06 -3.2703957511712375e-06 0 -6.0665222749388576e-06 -3.8528757949552364e-06 0 -5.2837208935088307e-06 -3.9717691478369615e-06 0 -9.3584528632185752e-06 -3.2703957511712375e-06 0 -5.2837208935088307e-06 -3.9717691478369615e-06 0 -1.1064698402290294e-05 -2.3451653154108653e-06 0 -5.2837208935088307e-06 -3.9717691478369615e-06 0 -5.3598082646037196e-06 -2.8953352437089391e-06 0 -1.1064698402290294e-05 -2.3451653154108653e-06 0 -9.3584528632185752e-06 -3.2703957511712375e-06 0 -1.1064698402290294e-05 -2.3451653154108653e-06 0 -1.4427682761202524e-05 -1.7433901702098296e-06 0 -9.3584528632185752e-06 -3.2703957511712375e-06 0 -1.4427682761202524e-05 -1.7433901702098296e-06 0 -1.1062789548402076e-05 -2.4859667761245157e-06 0 -1.8332927200490939e-05 3.4220490487922209e-07 0 -1.4427682761202524e-05 -1.7433901702098296e-06 0 -1.1064698402290294e-05 -2.3451653154108653e-06 0 -1.9784300099634981e-05 6.9688816095665625e-07 0 -1.3992883491365142e-05 -1.1140314701445841e-06 0 -1.4427682761202524e-05 -1.7433901702098296e-06 0 -1.3992883491365142e-05 -1.1140314701445841e-06 0 -1.1062789548402076e-05 -2.4859667761245157e-06 0 -1.4427682761202524e-05 -1.7433901702098296e-06 0 -1.3992883491365142e-05 -1.1140314701445841e-06 0 -9.182281312128595e-06 -1.7416545484158549e-06 0 -1.1062789548402076e-05 -2.4859667761245157e-06 0 -9.3584528632185752e-06 -3.2703957511712375e-06 0 -1.1062789548402076e-05 -2.4859667761245157e-06 0 -7.3829691606815907e-06 -3.1501301081022327e-06 0 -9.182281312128595e-06 -1.7416545484158549e-06 0 -7.3829691606815907e-06 -3.1501301081022327e-06 0 -1.1062789548402076e-05 -2.4859667761245157e-06 0 -9.182281312128595e-06 -1.7416545484158549e-06 0 -5.1453142028101423e-06 -2.3606651348596779e-06 0 -7.3829691606815907e-06 -3.1501301081022327e-06 0 -3.4450610681637661e-05 1.0193341834292152e-05 0 -2.4170416967015234e-05 4.8158361167982013e-06 0 -3.0373712410341909e-05 1.0030434493510842e-05 0 -4.372120561356112e-05 1.870399933862673e-05 0 -3.4450610681637661e-05 1.0193341834292152e-05 0 -3.0373712410341909e-05 1.0030434493510842e-05 0 -2.1003112464487544e-05 7.4100512557059464e-06 0 -3.0373712410341909e-05 1.0030434493510842e-05 0 -2.4170416967015234e-05 4.8158361167982013e-06 0 -2.1003112464487544e-05 7.4100512557059464e-06 0 -3.0469145967920154e-05 1.5163926376367056e-05 0 -3.0373712410341909e-05 1.0030434493510842e-05 0 -3.4450610681637661e-05 1.0193341834292152e-05 0 -2.6501288037755098e-05 4.2701545600135539e-06 0 -2.4170416967015234e-05 4.8158361167982013e-06 0 -2.6501288037755098e-05 4.2701545600135539e-06 0 -1.9784300099634981e-05 6.9688816095665625e-07 0 -1.8332927200490939e-05 3.4220490487922209e-07 0 -1.9784300099634981e-05 6.9688816095665625e-07 0 -1.4427682761202524e-05 -1.7433901702098296e-06 0 -1.8332927200490939e-05 3.4220490487922209e-07 0 -2.6501288037755098e-05 4.2701545600135539e-06 0 -1.8332927200490939e-05 3.4220490487922214e-07 0 -2.4170416967015234e-05 4.8158361167982013e-06 0 -1.8332927200490939e-05 3.4220490487922209e-07 0 -1.3919607044757469e-05 1.3242683945855629e-06 0 -2.4170416967015234e-05 4.8158361167982013e-06 0 -8.9141917492151537e-06 -1.3458281545451851e-06 0 -1.391960704475747e-05 1.3242683945855635e-06 0 -1.1064698402290294e-05 -2.3451653154108653e-06 0 -1.8332927200490939e-05 3.4220490487922209e-07 0 -1.1064698402290294e-05 -2.3451653154108653e-06 0 -1.391960704475747e-05 1.3242683945855635e-06 0 -8.9141917492151537e-06 -1.3458281545451851e-06 0 -1.1064698402290294e-05 -2.3451653154108653e-06 0 -5.3598082646037204e-06 -2.8953352437089387e-06 0 -2.1003112464487544e-05 7.4100512557059464e-06 0 -1.391960704475747e-05 1.3242683945855635e-06 0 -1.3087766068460014e-05 6.4790169485199624e-06 0 -2.1003112464487544e-05 7.4100512557059464e-06 0 -2.4170416967015234e-05 4.8158361167982013e-06 0 -1.391960704475747e-05 1.3242683945855635e-06 0 -2.1003112464487544e-05 7.4100512557059464e-06 0 -1.3087766068460014e-05 6.4790169485199624e-06 0 -1.9163185126248989e-05 1.3460335392239053e-05 0 -1.3087766068460014e-05 6.4790169485199624e-06 0 -5.4083253453932091e-06 2.8301470027527623e-06 0 -5.7526425156475388e-06 1.0737636813280658e-05 0 -5.4083253453932091e-06 2.8301470027527627e-06 0 9.1908636580942479e-07 4.8880706418160167e-06 0 -5.7526425156475388e-06 1.0737636813280658e-05 0 -5.4083253453932091e-06 2.8301470027527627e-06 0 1.0742871942692233e-07 5.4074609419038568e-07 0 9.1908636580942479e-07 4.8880706418160167e-06 0 -5.4083253453932091e-06 2.8301470027527627e-06 0 -1.3087766068460014e-05 6.4790169485199624e-06 0 -1.391960704475747e-05 1.3242683945855635e-06 0 -5.4083253453932091e-06 2.8301470027527627e-06 0 -1.391960704475747e-05 1.3242683945855635e-06 0 -5.0673598975814209e-06 -4.9961660660056112e-07 0 -8.9141917492151537e-06 -1.3458281545451851e-06 0 -5.0673598975814209e-06 -4.9961660660056112e-07 0 -1.391960704475747e-05 1.3242683945855635e-06 0 -8.9141917492151537e-06 -1.3458281545451851e-06 0 -5.3598082646037204e-06 -2.8953352437089387e-06 0 -5.0673598975814209e-06 -4.9961660660056112e-07 0 -6.967349535544505e-07 -2.063581955867794e-06 0 -5.0673598975814209e-06 -4.9961660660056102e-07 0 -5.3598082646037204e-06 -2.8953352437089387e-06 0 -6.967349535544505e-07 -2.063581955867794e-06 0 1.0742871942692138e-07 5.4074609419038536e-07 0 -5.0673598975814209e-06 -4.9961660660056112e-07 0 -5.4083253453932091e-06 2.8301470027527627e-06 0 -5.06735989758142e-06 -4.9961660660056133e-07 0 1.0742871942692233e-07 5.4074609419038568e-07 0 -6.967349535544505e-07 -2.063581955867794e-06 0 3.8581500886705561e-06 -8.712631289942676e-07 0 1.0742871942692233e-07 5.4074609419038568e-07 0 5.7525021574189489e-06 2.4694988332817932e-06 0 1.0742871942692233e-07 5.4074609419038568e-07 0 3.8581500886705553e-06 -8.712631289942675e-07 0 -6.967349535544505e-07 -2.063581955867794e-06 0 2.301670100923666e-06 -2.9360836034872824e-06 0 3.8581500886705553e-06 -8.712631289942675e-07 0 6.141132031203715e-06 -1.2363534088215223e-06 0 8.4197310416562399e-06 7.482065641618505e-07 0 3.8581500886705553e-06 -8.712631289942675e-07 0 6.141132031203715e-06 -1.2363534088215223e-06 0 3.8581500886705553e-06 -8.712631289942676e-07 0 2.301670100923666e-06 -2.9360836034872824e-06 0 5.7525021574189489e-06 2.4694988332817932e-06 0 3.8581500886705544e-06 -8.7126312899426792e-07 0 8.4197310416562399e-06 7.482065641618505e-07 0 5.7525021574189489e-06 2.4694988332817932e-06 0 8.4197310416562399e-06 7.482065641618505e-07 0 1.2239055226902837e-05 4.6765170684334942e-06 0 5.7525021574189489e-06 2.4694988332817932e-06 0 9.1908636580942479e-07 4.8880706418160167e-06 0 1.0742871942692233e-07 5.4074609419038568e-07 0 5.7525021574189489e-06 2.4694988332817932e-06 0 7.1765132343865166e-06 8.0214493989031868e-06 0 9.1908636580942479e-07 4.8880706418160167e-06 0 5.7525021574189489e-06 2.4694988332817932e-06 0 1.2239055226902837e-05 4.6765170684334942e-06 0 7.1765132343865182e-06 8.0214493989031868e-06 0 1.646016109817129e-05 9.6547853565774877e-06 0 1.2012741046364124e-05 1.3719174652798631e-05 0 7.1765132343865182e-06 8.0214493989031868e-06 0 1.646016109817129e-05 9.6547853565774877e-06 0 7.1765132343865182e-06 8.0214493989031868e-06 0 1.2239055226902837e-05 4.6765170684334942e-06 0 -5.7526425156475388e-06 1.0737636813280658e-05 0 7.1765132343865182e-06 8.0214493989031868e-06 0 3.1247115774723347e-06 1.5391225867835637e-05 0 -5.7526425156475388e-06 1.0737636813280658e-05 0 9.1908636580942479e-07 4.8880706418160167e-06 0 7.1765132343865182e-06 8.0214493989031868e-06 0 7.1765132343865182e-06 8.0214493989031868e-06 0 1.2012741046364124e-05 1.3719174652798631e-05 0 3.1247115774723347e-06 1.5391225867835637e-05 0 8.6247744851591622e-06 2.3802502322887357e-05 0 1.2012741046364125e-05 1.3719174652798629e-05 0 2.0634285118176958e-05 1.6935710229548143e-05 0 8.6247744851591622e-06 2.3802502322887357e-05 0 2.0634285118176958e-05 1.6935710229548143e-05 0 1.8659862688277079e-05 3.5278169801651699e-05 0 8.6247744851591622e-06 2.3802502322887357e-05 0 1.8659862688277079e-05 3.5278169801651699e-05 0 7.7787215441998997e-06 3.8701525238251683e-05 0 8.6247744851591622e-06 2.3802502322887357e-05 0 7.778721544199898e-06 3.8701525238251683e-05 0 -4.3120615820029379e-06 4.0964911349277344e-05 0 8.6247744851591622e-06 2.3802502322887357e-05 0 -8.0041421846972842e-06 2.4946156828337525e-05 0 3.1247115774723347e-06 1.5391225867835637e-05 0 8.6247744851591622e-06 2.3802502322887357e-05 0 3.1247115774723359e-06 1.5391225867835634e-05 0 1.2012741046364124e-05 1.3719174652798631e-05 0 8.6247744851591622e-06 2.3802502322887357e-05 0 -4.3120615820029379e-06 4.0964911349277344e-05 0 -8.0041421846972842e-06 2.4946156828337525e-05 0 -2.1303573038859334e-05 4.2098420106556519e-05 0 -8.0041421846972842e-06 2.4946156828337525e-05 0 -4.3120615820029379e-06 4.0964911349277344e-05 0 -2.1303573038859334e-05 4.2098420106556519e-05 0 -1.8046464035215421e-05 2.2207789085817151e-05 0 -8.0041421846972842e-06 2.4946156828337525e-05 0 -5.7526425156475388e-06 1.0737636813280658e-05 0 -8.0041421846972808e-06 2.4946156828337525e-05 0 -1.8046464035215424e-05 2.2207789085817151e-05 0 -5.7526425156475388e-06 1.0737636813280658e-05 0 -1.8046464035215424e-05 2.2207789085817151e-05 0 -1.9163185126248989e-05 1.3460335392239053e-05 0 -5.7526425156475388e-06 1.0737636813280658e-05 0 3.1247115774723342e-06 1.539122586783564e-05 0 -8.0041421846972842e-06 2.4946156828337525e-05 0 -5.7526425156475388e-06 1.0737636813280658e-05 0 -1.9163185126248989e-05 1.3460335392239053e-05 0 -1.3087766068460014e-05 6.4790169485199624e-06 0 -2.1003112464487544e-05 7.4100512557059464e-06 0 -1.9163185126248989e-05 1.3460335392239053e-05 0 -3.0469145967920154e-05 1.5163926376367056e-05 0 -2.8935863919345431e-05 2.3263661334309537e-05 0 -3.0469145967920154e-05 1.5163926376367056e-05 0 -1.9163185126248989e-05 1.3460335392239053e-05 0 -2.8935863919345431e-05 2.3263661334309537e-05 0 -1.9163185126248989e-05 1.3460335392239053e-05 0 -1.8046464035215424e-05 2.2207789085817151e-05 0 -2.8935863919345431e-05 2.3263661334309537e-05 0 -1.8046464035215424e-05 2.2207789085817151e-05 0 -3.0977096145883706e-05 3.4268933643361331e-05 0 -2.1303573038859334e-05 4.2098420106556519e-05 0 -3.0977096145883706e-05 3.4268933643361331e-05 0 -1.8046464035215424e-05 2.2207789085817151e-05 0 -4.4650080963359539e-05 5.2892845351922721e-05 0 -4.3427464866826676e-05 3.5231793416441442e-05 0 -3.0977096145883706e-05 3.4268933643361331e-05 0 -2.1303573038859334e-05 4.2098420106556519e-05 0 -4.4650080963359539e-05 5.2892845351922721e-05 0 -3.0977096145883706e-05 3.4268933643361331e-05 0 -2.8935863919345431e-05 2.3263661334309537e-05 0 -3.0977096145883706e-05 3.4268933643361331e-05 0 -4.3427464866826676e-05 3.5231793416441442e-05 0 -2.8935863919345431e-05 2.3263661334309537e-05 0 -4.3427464866826676e-05 3.5231793416441442e-05 0 -4.0151457382187811e-05 2.3942514085467171e-05 0 -6.3758688487648737e-05 4.7999603501322937e-05 0 -4.3427464866826676e-05 3.5231793416441442e-05 0 -4.4650080963359539e-05 5.2892845351922721e-05 0 -6.3758688487648737e-05 4.7999603501322937e-05 0 -5.3791217449420612e-05 3.1311430394243105e-05 0 -4.3427464866826676e-05 3.5231793416441442e-05 0 -5.3791217449420612e-05 3.1311430394243105e-05 0 -4.0151457382187811e-05 2.3942514085467171e-05 0 -4.3427464866826676e-05 3.5231793416441442e-05 0 -5.3791217449420612e-05 3.1311430394243105e-05 0 -4.372120561356112e-05 1.870399933862673e-05 0 -4.0151457382187811e-05 2.3942514085467171e-05 0 -4.372120561356112e-05 1.870399933862673e-05 0 -3.0469145967920154e-05 1.5163926376367057e-05 0 -4.0151457382187811e-05 2.3942514085467171e-05 0 -2.8935863919345431e-05 2.3263661334309537e-05 0 -4.0151457382187811e-05 2.3942514085467171e-05 0 -3.0469145967920154e-05 1.5163926376367056e-05 0 -4.372120561356112e-05 1.870399933862673e-05 0 -3.0373712410341909e-05 1.0030434493510842e-05 0 -3.0469145967920154e-05 1.5163926376367056e-05 0 1.4502023244898852e-05 3.7819634786223878e-06 0 1.6406028857302708e-05 4.9526797384352047e-06 0 1.4519530232956018e-05 3.4924456989650612e-06 0 1.7397873212063387e-05 5.5050948816534584e-06 0 1.4519530232956018e-05 3.4924456989650612e-06 0 1.6406028857302708e-05 4.9526797384352047e-06 0 1.7397873212063387e-05 5.5050948816534584e-06 0 1.6406028857302708e-05 4.9526797384352047e-06 0 1.9186579249288647e-05 7.0170975617702376e-06 0 1.4502023244898852e-05 3.7819634786223878e-06 0 1.548944951060036e-05 4.2276927618320664e-06 0 1.6406028857302708e-05 4.9526797384352047e-06 0 1.3517464533921103e-05 2.5131538187132444e-06 0 1.548944951060036e-05 4.2276927618320664e-06 0 1.2923158856707899e-05 3.0532187039037084e-06 0 1.4502023244898852e-05 3.7819634786223878e-06 0 1.2923158856707899e-05 3.0532187039037084e-06 0 1.548944951060036e-05 4.2276927618320664e-06 0 1.3517464533921103e-05 2.5131538187132444e-06 0 1.2923158856707899e-05 3.0532187039037084e-06 0 1.1702151698896333e-05 1.9545954316661642e-06 0 1.4502023244898852e-05 3.7819634786223878e-06 0 1.2534169802906716e-05 2.8327828228760188e-06 0 1.2923158856707899e-05 3.0532187039037084e-06 0 1.0713948147288202e-05 2.4835471854284809e-06 0 1.2923158856707899e-05 3.0532187039037088e-06 0 1.2534169802906716e-05 2.8327828228760188e-06 0 1.0452895933855147e-05 2.1624329242088807e-06 0 1.2923158856707899e-05 3.0532187039037084e-06 0 1.0713948147288202e-05 2.4835471854284809e-06 0 1.0713948147288202e-05 2.4835471854284809e-06 0 1.0396284214334733e-05 2.0908854334386857e-06 0 8.8000922240509723e-06 2.2335303754675694e-06 0 1.0713948147288202e-05 2.4835471854284809e-06 0 1.2534169802906716e-05 2.8327828228760188e-06 0 1.0396284214334733e-05 2.0908854334386857e-06 0 1.1699990095550857e-05 1.9339540821763177e-06 0 1.0396284214334733e-05 2.0908854334386857e-06 0 1.2534169802906716e-05 2.8327828228760188e-06 0 1.4502023244898852e-05 3.7819634786223878e-06 0 1.4519530232956018e-05 3.4924456989650612e-06 0 1.2534169802906716e-05 2.8327828228760188e-06 0 1.1699990095550857e-05 1.9339540821763177e-06 0 1.2534169802906716e-05 2.8327828228760188e-06 0 1.4519530232956018e-05 3.4924456989650612e-06 0 1.1699990095550857e-05 1.9339540821763177e-06 0 1.4519530232956018e-05 3.4924456989650612e-06 0 1.2048077559418762e-05 1.5026719544858409e-06 0 1.1699990095550857e-05 1.9339540821763177e-06 0 1.2048077559418762e-05 1.5026719544858405e-06 0 1.0472605317733911e-05 8.9696996105241528e-07 0 8.3370499094137905e-06 -7.1335805123934515e-07 0 1.2048077559418762e-05 1.5026719544858409e-06 0 9.2437818776346087e-06 -1.1835670525188226e-07 0 1.2486399656749141e-05 2.329745444045132e-06 0 1.2048077559418762e-05 1.5026719544858411e-06 0 1.474131434085142e-05 3.5002602652939335e-06 0 1.2486399656749141e-05 2.329745444045132e-06 0 9.2437818776346087e-06 -1.1835670525188218e-07 0 1.2048077559418762e-05 1.5026719544858409e-06 0 1.2048077559418762e-05 1.5026719544858409e-06 0 1.4519530232956018e-05 3.4924456989650612e-06 0 1.474131434085142e-05 3.5002602652939335e-06 0 6.141132031203715e-06 -1.2363534088215223e-06 0 9.2437818776346087e-06 -1.1835670525188226e-07 0 8.4197310416562399e-06 7.482065641618505e-07 0 1.2486399656749141e-05 2.329745444045132e-06 0 8.4197310416562399e-06 7.482065641618504e-07 0 9.2437818776346087e-06 -1.1835670525188226e-07 0 1.2486399656749141e-05 2.329745444045132e-06 0 1.2239055226902837e-05 4.6765170684334942e-06 0 8.4197310416562399e-06 7.482065641618505e-07 0 1.2486399656749141e-05 2.329745444045132e-06 0 1.7119227182266651e-05 5.9505736100376227e-06 0 1.2239055226902837e-05 4.6765170684334942e-06 0 1.646016109817129e-05 9.6547853565774877e-06 0 1.2239055226902837e-05 4.6765170684334942e-06 0 1.7119227182266651e-05 5.9505736100376227e-06 0 1.7397873212063387e-05 5.5050948816534584e-06 0 1.474131434085142e-05 3.5002602652939335e-06 0 1.4519530232956018e-05 3.4924456989650612e-06 0 1.2486399656749141e-05 2.329745444045132e-06 0 1.474131434085142e-05 3.5002602652939331e-06 0 1.7119227182266651e-05 5.9505736100376227e-06 0 1.7397873212063387e-05 5.5050948816534584e-06 0 1.7119227182266651e-05 5.9505736100376227e-06 0 1.474131434085142e-05 3.5002602652939335e-06 0 1.7397873212063387e-05 5.5050948816534584e-06 0 2.0324249390757639e-05 8.2536143644584279e-06 0 1.7119227182266651e-05 5.9505736100376227e-06 0 1.7397873212063387e-05 5.5050948816534584e-06 0 1.9186579249288647e-05 7.0170975617702376e-06 0 2.0324249390757642e-05 8.2536143644584262e-06 0 1.7119227182266651e-05 5.9505736100376227e-06 0 2.0324249390757642e-05 8.2536143644584262e-06 0 2.3748989842088723e-05 1.2059959411325444e-05 0 2.2670377673066101e-05 9.8024674300697959e-06 0 2.3748989842088723e-05 1.2059959411325444e-05 0 2.0324249390757642e-05 8.2536143644584262e-06 0 2.2670377673066101e-05 9.8024674300697959e-06 0 1.9186579249288647e-05 7.0170975617702376e-06 0 1.9795746297458527e-05 6.9823760881821544e-06 0 2.2670377673066101e-05 9.8024674300697959e-06 0 2.0324249390757639e-05 8.2536143644584262e-06 0 1.9186579249288647e-05 7.0170975617702376e-06 0 1.646016109817129e-05 9.6547853565774877e-06 0 1.7119227182266651e-05 5.9505736100376227e-06 0 2.3748989842088723e-05 1.2059959411325444e-05 0 1.646016109817129e-05 9.6547853565774877e-06 0 2.3748989842088723e-05 1.2059959411325444e-05 0 2.0634285118176958e-05 1.6935710229548143e-05 0 1.646016109817129e-05 9.6547853565774877e-06 0 2.0634285118176958e-05 1.6935710229548143e-05 0 1.2012741046364124e-05 1.3719174652798631e-05 0 3.41213635925997e-05 2.0440046520990491e-05 0 2.0634285118176955e-05 1.6935710229548143e-05 0 2.3748989842088723e-05 1.2059959411325444e-05 0 3.41213635925997e-05 2.0440046520990491e-05 0 1.8659862688277079e-05 3.5278169801651699e-05 0 2.0634285118176958e-05 1.6935710229548143e-05 0 3.41213635925997e-05 2.0440046520990491e-05 0 2.3748989842088723e-05 1.2059959411325444e-05 0 2.571938911542995e-05 1.3145478131935159e-05 0 2.2670377673066101e-05 9.8024674300697959e-06 0 2.1061537681055384e-05 7.3231140896099874e-06 0 2.571938911542995e-05 1.3145478131935159e-05 0 2.2670377673066101e-05 9.8024674300697959e-06 0 1.9795746297458527e-05 6.9823760881821544e-06 0 2.1061537681055384e-05 7.3231140896099874e-06 0 2.2670377673066101e-05 9.8024674300697959e-06 0 2.571938911542995e-05 1.3145478131935159e-05 0 2.3748989842088723e-05 1.2059959411325444e-05 0 2.231457859130452e-05 3.992094870614312e-06 0 2.571938911542995e-05 1.3145478131935159e-05 0 2.1061537681055384e-05 7.3231140896099874e-06 0 2.231457859130452e-05 3.992094870614312e-06 0 2.1061537681055384e-05 7.3231140896099874e-06 0 1.950538532875615e-05 -4.4101982056531656e-07 0 1.7693989379543406e-05 3.5932574054899644e-06 0 1.950538532875615e-05 -4.4101982056531656e-07 0 2.1061537681055384e-05 7.3231140896099874e-06 0 1.7693989379543406e-05 3.5932574054899644e-06 0 2.1061537681055384e-05 7.3231140896099874e-06 0 1.9795746297458527e-05 6.9823760881821544e-06 0 1.7657301316924771e-05 5.6410598081633892e-06 0 1.9795746297458527e-05 6.9823760881821544e-06 0 1.9186579249288647e-05 7.0170975617702376e-06 0 1.9795746297458527e-05 6.9823760881821544e-06 0 1.7657301316924771e-05 5.6410598081633892e-06 0 1.7693989379543406e-05 3.5932574054899644e-06 0 1.7657301316924771e-05 5.6410598081633892e-06 0 1.5577164868658554e-05 3.0681086517281053e-06 0 1.7693989379543406e-05 3.5932574054899644e-06 0 1.7657301316924771e-05 5.6410598081633892e-06 0 1.548944951060036e-05 4.2276927618320664e-06 0 1.5577164868658554e-05 3.0681086517281053e-06 0 1.7657301316924771e-05 5.6410598081633892e-06 0 1.6406028857302708e-05 4.9526797384352047e-06 0 1.548944951060036e-05 4.2276927618320664e-06 0 1.7657301316924771e-05 5.6410598081633892e-06 0 1.9186579249288647e-05 7.0170975617702376e-06 0 1.6406028857302708e-05 4.9526797384352047e-06 0 1.3517464533921103e-05 2.5131538187132444e-06 0 1.5577164868658554e-05 3.0681086517281053e-06 0 1.548944951060036e-05 4.2276927618320664e-06 0 1.3517464533921103e-05 2.5131538187132444e-06 0 1.2907483302613571e-05 1.7807920879816841e-07 0 1.5577164868658554e-05 3.0681086517281053e-06 0 1.7693989379543406e-05 3.5932574054899644e-06 0 1.4771931754953361e-05 -4.166296739553913e-07 0 1.6720062150624205e-05 -4.9748592254796682e-06 0 1.2701102063369008e-05 -3.3651293465102879e-06 0 1.4771931754953361e-05 -4.166296739553913e-07 0 1.2907483302613571e-05 1.7807920879816841e-07 0 1.2907483302613571e-05 1.7807920879816841e-07 0 1.4771931754953361e-05 -4.166296739553913e-07 0 1.5577164868658554e-05 3.0681086517281053e-06 0 1.7693989379543406e-05 3.5932574054899644e-06 0 1.5577164868658554e-05 3.0681086517281053e-06 0 1.4771931754953361e-05 -4.166296739553913e-07 0 1.2701102063369008e-05 -3.3651293465102879e-06 0 1.4123302413209531e-05 -6.580784761119805e-06 0 1.4771931754953361e-05 -4.166296739553913e-07 0 1.6720062150624205e-05 -4.9748592254796682e-06 0 1.4771931754953361e-05 -4.166296739553913e-07 0 1.4123302413209531e-05 -6.580784761119805e-06 0 1.6720062150624205e-05 -4.9748592254796682e-06 0 1.4123302413209531e-05 -6.580784761119805e-06 0 1.7420817178149163e-05 -1.0861684631172556e-05 0 2.0270706964835303e-05 -1.035801183506044e-05 0 1.6720062150624202e-05 -4.974859225479669e-06 0 1.7420817178149163e-05 -1.0861684631172556e-05 0 1.4606955729032699e-05 -1.1518633396329564e-05 0 1.7420817178149163e-05 -1.0861684631172556e-05 0 1.4123302413209531e-05 -6.580784761119805e-06 0 1.4606955729032699e-05 -1.1518633396329564e-05 0 1.9206428210368333e-05 -1.7070177220188863e-05 0 1.7420817178149163e-05 -1.0861684631172556e-05 0 2.0270706964835303e-05 -1.035801183506044e-05 0 1.742081717814916e-05 -1.0861684631172555e-05 0 1.9206428210368333e-05 -1.7070177220188863e-05 0 1.4606955729032699e-05 -1.1518633396329564e-05 0 1.4767370659351183e-05 -1.6236750692531204e-05 0 1.9206428210368333e-05 -1.7070177220188863e-05 0 2.9797161981305498e-05 -2.0947359638835549e-05 0 2.6657391760593308e-05 -1.492115353807592e-05 0 2.5007870766681101e-05 -1.9223160114461754e-05 0 2.0270706964835303e-05 -1.035801183506044e-05 0 2.5007870766681101e-05 -1.9223160114461754e-05 0 2.6657391760593308e-05 -1.492115353807592e-05 0 2.0270706964835303e-05 -1.035801183506044e-05 0 1.9206428210368333e-05 -1.7070177220188863e-05 0 2.5007870766681101e-05 -1.9223160114461754e-05 0 2.0270706964835303e-05 -1.035801183506044e-05 0 2.6657391760593308e-05 -1.4921153538075921e-05 0 2.3123561014585365e-05 -4.9128116705349851e-06 0 1.7693989379543406e-05 3.5932574054899644e-06 0 1.6720062150624209e-05 -4.9748592254796674e-06 0 1.950538532875615e-05 -4.4101982056531656e-07 0 2.0270706964835303e-05 -1.035801183506044e-05 0 2.3123561014585362e-05 -4.9128116705349834e-06 0 1.950538532875615e-05 -4.4101982056531656e-07 0 2.0270706964835303e-05 -1.035801183506044e-05 0 1.950538532875615e-05 -4.4101982056531656e-07 0 1.6720062150624205e-05 -4.9748592254796682e-06 0 2.231457859130452e-05 3.992094870614312e-06 0 1.950538532875615e-05 -4.4101982056531656e-07 0 2.3123561014585365e-05 -4.9128116705349851e-06 0 2.231457859130452e-05 3.992094870614312e-06 0 2.6248472855398107e-05 3.5738404148289152e-06 0 2.571938911542995e-05 1.3145478131935159e-05 0 2.231457859130452e-05 3.992094870614312e-06 0 2.3123561014585365e-05 -4.9128116705349851e-06 0 2.6248472855398107e-05 3.5738404148289148e-06 0 3.41213635925997e-05 2.0440046520990491e-05 0 2.571938911542995e-05 1.3145478131935161e-05 0 2.6248472855398107e-05 3.5738404148289148e-06 0 3.7063307267177462e-05 -4.9575599119385597e-06 0 2.6248472855398107e-05 3.5738404148289148e-06 0 3.0356924018082401e-05 -1.0953551986658428e-05 0 3.0356924018082401e-05 -1.0953551986658428e-05 0 2.6248472855398107e-05 3.5738404148289148e-06 0 2.3123561014585365e-05 -4.9128116705349851e-06 0 1.8659862688277079e-05 3.5278169801651699e-05 0 3.41213635925997e-05 2.0440046520990491e-05 0 2.711087394108914e-05 6.1844531069947973e-05 0 3.41213635925997e-05 2.0440046520990491e-05 0 2.6248472855398107e-05 3.5738404148289148e-06 0 3.7063307267177462e-05 -4.9575599119385597e-06 0 1.9155762053457039e-05 1.7475407864073981e-05 0 4.8181816063744769e-05 3.0373776524870225e-05 0 3.41213635925997e-05 2.0440046520990491e-05 0 4.8959057277959661e-05 6.0779734069407563e-05 0 2.711087394108914e-05 6.1844531069947973e-05 0 5.6858796734170429e-05 9.0205561021542341e-05 0 2.5534094807265103e-05 8.6836379560807718e-05 0 2.711087394108914e-05 6.1844531069947973e-05 0 4.8181816063744769e-05 3.0373776524870225e-05 0 4.6438790361928965e-05 3.6691990706579116e-05 0 3.7063307267177462e-05 -4.9575599119385597e-06 0 3.0356924018082401e-05 -1.0953551986658428e-05 0 3.7753201022802716e-05 -1.4619751754256603e-05 0 4.8959057277959661e-05 6.0779734069407563e-05 0 5.6858796734170429e-05 9.0205561021542341e-05 0 2.711087394108914e-05 6.1844531069947973e-05 0 4.6438790361928965e-05 3.6691990706579116e-05 0 5.1618670445495432e-05 4.9244302847289223e-05 0 3.7753201022802716e-05 -1.4619751754256603e-05 0 3.3716172573542086e-05 -1.8844085226594216e-05 0 3.8903316096294406e-05 -2.0655841573382035e-05 0 5.6858796734170429e-05 9.0205561021542341e-05 0 4.2865162548871448e-05 0.00010838677435054731 0 2.5534094807265103e-05 8.6836379560807718e-05 0 3.0356924018082401e-05 -1.0953551986658428e-05 0 2.3123561014585365e-05 -4.9128116705349851e-06 0 2.6657391760593308e-05 -1.492115353807592e-05 0 3.7753201022802716e-05 -1.4619751754256603e-05 0 3.0356924018082401e-05 -1.0953551986658428e-05 0 3.3716172573542086e-05 -1.8844085226594216e-05 0 3.0356924018082401e-05 -1.0953551986658428e-05 0 2.6657391760593308e-05 -1.492115353807592e-05 0 3.3716172573542086e-05 -1.8844085226594216e-05 0 2.9797161981305498e-05 -2.0947359638835549e-05 0 3.3716172573542086e-05 -1.8844085226594216e-05 0 2.6657391760593308e-05 -1.492115353807592e-05 0 2.9797161981305498e-05 -2.0947359638835549e-05 0 3.5092519792307987e-05 -2.481849486886284e-05 0 3.3716172573542086e-05 -1.8844085226594216e-05 0 3.8903316096294406e-05 -2.0655841573382035e-05 0 3.3716172573542086e-05 -1.8844085226594216e-05 0 3.5092519792307987e-05 -2.481849486886284e-05 0 3.8903316096294406e-05 -2.0655841573382035e-05 0 3.5092519792307987e-05 -2.481849486886284e-05 0 4.0908096128897142e-05 -2.5401369510615017e-05 0 2.9797161981305498e-05 -2.0947359638835549e-05 0 2.9803514984244219e-05 -2.50245689003161e-05 0 3.5092519792307987e-05 -2.481849486886284e-05 0 2.4194604177245345e-05 0.00011678588713860136 0 4.2865162548871441e-05 0.00010838677435054731 0 4.7485056902025806e-05 0.00012700488735619368 0 6.3492129991375501e-05 0.00011816149249194006 0 4.7485056902025806e-05 0.00012700488735619368 0 4.2865162548871448e-05 0.00010838677435054731 0 5.6858796734170429e-05 9.0205561021542341e-05 0 6.3492129991375501e-05 0.00011816149249194006 0 4.2865162548871448e-05 0.00010838677435054731 0 5.1618670445495432e-05 4.9244302847289223e-05 0 5.4965760924614333e-05 6.0644861752414555e-05 0 6.3492129991375501e-05 0.00011816149249194006 0 6.9291942914161028e-05 0.00014713364604823948 0 4.7485056902025806e-05 0.00012700488735619368 0 6.9291942914161028e-05 0.00014713364604823948 0 3.843513609308087e-05 0.00014336398297309919 0 4.7485056902025806e-05 0.00012700488735619368 0 6.9291942914161028e-05 0.00014713364604823948 0 4.8740570704170592e-05 0.00016357856985801001 0 3.843513609308087e-05 0.00014336398297309919 0 6.9291942914161028e-05 0.00014713364604823948 0 7.4666201366767871e-05 0.00017718012375922312 0 4.8740570704170592e-05 0.00016357856985801001 0 4.0908096128897142e-05 -2.5401369510615017e-05 0 3.8768025083088695e-05 -2.9371068907549233e-05 0 4.3395624093009416e-05 -2.9805635872071472e-05 0 5.4965760924614333e-05 6.0644861752414555e-05 0 5.8751553199374872e-05 7.3655408937405272e-05 0 7.4666201366767871e-05 0.00017718012375922312 0 4.3818843114458551e-05 0.000184607031150613 0 4.8740570704170592e-05 0.00016357856985801001 0 3.3863679886780336e-05 -2.9198330977494219e-05 0 3.8768025083088695e-05 -2.9371068907549233e-05 0 3.5092519792307987e-05 -2.481849486886284e-05 0 3.3863679886780336e-05 -2.9198330977494219e-05 0 3.5092519792307987e-05 -2.481849486886284e-05 0 2.9803514984244219e-05 -2.5024568900316104e-05 0 4.0908096128897142e-05 -2.5401369510615017e-05 0 3.5092519792307987e-05 -2.481849486886284e-05 0 3.8768025083088695e-05 -2.9371068907549233e-05 0 3.3863679886780336e-05 -2.9198330977494219e-05 0 3.5129971517724486e-05 -3.3017219693653771e-05 0 3.8768025083088695e-05 -2.9371068907549233e-05 0 4.1095244770273269e-05 -3.4375733709023857e-05 0 3.8768025083088695e-05 -2.9371068907549233e-05 0 3.5129971517724486e-05 -3.3017219693653771e-05 0 3.3863679886780336e-05 -2.9198330977494219e-05 0 2.8116957140808915e-05 -2.9608336555090592e-05 0 3.5129971517724486e-05 -3.3017219693653771e-05 0 3.2218868517300995e-05 -3.5723171556990107e-05 0 3.5129971517724486e-05 -3.3017219693653771e-05 0 2.8116957140808915e-05 -2.9608336555090592e-05 0 3.3863679886780336e-05 -2.9198330977494219e-05 0 2.9803514984244219e-05 -2.5024568900316104e-05 0 2.8116957140808915e-05 -2.9608336555090592e-05 0 2.5163167810324396e-05 -2.4329271887989669e-05 0 2.1199353060062748e-05 -2.4023693413482202e-05 0 2.8116957140808915e-05 -2.9608336555090592e-05 0 2.5163167810324396e-05 -2.4329271887989669e-05 0 2.8116957140808915e-05 -2.9608336555090592e-05 0 2.9803514984244219e-05 -2.5024568900316104e-05 0 2.1829043773176826e-05 -2.8602077414372799e-05 0 2.6276807421023349e-05 -3.5313409126925683e-05 0 2.8116957140808915e-05 -2.9608336555090592e-05 0 2.1829043773176826e-05 -2.8602077414372799e-05 0 1.9538216735797107e-05 -3.1033704624244619e-05 0 2.6276807421023352e-05 -3.5313409126925683e-05 0 2.1829043773176826e-05 -2.8602077414372799e-05 0 2.1199353060062748e-05 -2.4023693413482202e-05 0 1.7353797987020935e-05 -2.5549599051859437e-05 0 2.1829043773176826e-05 -2.8602077414372799e-05 0 2.8116957140808915e-05 -2.9608336555090592e-05 0 2.1199353060062748e-05 -2.4023693413482202e-05 0 2.5163167810324396e-05 -2.4329271887989669e-05 0 1.9206428210368333e-05 -1.7070177220188863e-05 0 2.1199353060062748e-05 -2.4023693413482202e-05 0 1.7240983879332218e-05 -2.0895616215979487e-05 0 1.7353797987020935e-05 -2.5549599051859437e-05 0 2.1199353060062748e-05 -2.4023693413482202e-05 0 1.7240983879332218e-05 -2.0895616215979487e-05 0 2.1199353060062748e-05 -2.4023693413482202e-05 0 1.9206428210368333e-05 -1.7070177220188863e-05 0 1.7240983879332218e-05 -2.0895616215979487e-05 0 1.9206428210368333e-05 -1.7070177220188863e-05 0 1.4767370659351183e-05 -1.6236750692531204e-05 0 2.5163167810324396e-05 -2.4329271887989669e-05 0 2.5007870766681101e-05 -1.9223160114461754e-05 0 1.9206428210368333e-05 -1.7070177220188863e-05 0 2.9797161981305498e-05 -2.0947359638835549e-05 0 2.5007870766681101e-05 -1.9223160114461754e-05 0 2.9803514984244219e-05 -2.5024568900316104e-05 0 2.5163167810324396e-05 -2.4329271887989669e-05 0 2.9803514984244219e-05 -2.5024568900316104e-05 0 2.5007870766681101e-05 -1.9223160114461754e-05 0 -8.1382926872522406e-05 9.3206305174336771e-05 0 -5.999596766527454e-05 7.8108724483166674e-05 0 -5.9916344818415771e-05 0.00010217313741439306 0 -8.8164416146648138e-05 0.00012045022497791173 0 -8.1382926872522406e-05 9.3206305174336771e-05 0 -5.9916344818415771e-05 0.00010217313741439306 0 -4.2386692959952668e-05 7.8111578534339506e-05 0 -5.9916344818415771e-05 0.00010217313741439306 0 -5.999596766527454e-05 7.8108724483166674e-05 0 -8.1382926872522406e-05 9.3206305174336771e-05 0 -7.268128979919719e-05 6.8675666241473017e-05 0 -5.999596766527454e-05 7.8108724483166674e-05 0 -7.268128979919719e-05 6.8675666241473017e-05 0 -6.3758688487648737e-05 4.7999603501322937e-05 0 -4.4650080963359539e-05 5.2892845351922721e-05 0 -4.2386692959952668e-05 7.8111578534339506e-05 0 -5.999596766527454e-05 7.8108724483166674e-05 0 -4.4650080963359539e-05 5.2892845351922721e-05 0 -7.268128979919719e-05 6.8675666241473017e-05 0 -4.4650080963359539e-05 5.2892845351922721e-05 0 -5.999596766527454e-05 7.8108724483166674e-05 0 -4.2386692959952668e-05 7.8111578534339506e-05 0 -4.4650080963359539e-05 5.2892845351922721e-05 0 -2.8959707411259919e-05 6.3086191587065018e-05 0 -2.1303573038859334e-05 4.2098420106556519e-05 0 -2.8959707411259919e-05 6.3086191587065018e-05 0 -4.4650080963359539e-05 5.2892845351922721e-05 0 -1.3293967211864527e-05 6.6582243258152927e-05 0 -2.7492240701287698e-05 8.0263880318736581e-05 0 -2.8959707411259919e-05 6.3086191587065018e-05 0 -4.2386692959952668e-05 7.8111578534339506e-05 0 -2.8959707411259919e-05 6.3086191587065018e-05 0 -2.7492240701287698e-05 8.0263880318736581e-05 0 -4.2386692959952668e-05 7.8111578534339506e-05 0 -2.7492240701287698e-05 8.0263880318736595e-05 0 -3.661843093677906e-05 9.9962846557450377e-05 0 -4.2386692959952668e-05 7.8111578534339506e-05 0 -3.661843093677906e-05 9.9962846557450377e-05 0 -5.9916344818415771e-05 0.00010217313741439306 0 -1.595213786698717e-05 9.6358641136327556e-05 0 -3.661843093677906e-05 9.9962846557450377e-05 0 -2.7492240701287698e-05 8.0263880318736581e-05 0 -1.595213786698717e-05 9.6358641136327556e-05 0 4.3943482296843196e-06 9.0178288507891584e-05 0 -1.3889127922411647e-06 0.00011763388130313793 0 -1.595213786698717e-05 9.6358641136327556e-05 0 -1.3293967211864527e-05 6.6582243258152927e-05 0 4.3943482296843196e-06 9.0178288507891584e-05 0 7.6396678699718603e-06 5.9188808425111518e-05 0 4.3943482296843179e-06 9.0178288507891584e-05 0 -1.3293967211864527e-05 6.6582243258152927e-05 0 -1.595213786698717e-05 9.6358641136327556e-05 0 -2.7492240701287698e-05 8.0263880318736581e-05 0 -1.3293967211864527e-05 6.6582243258152927e-05 0 -2.1303573038859334e-05 4.2098420106556519e-05 0 -1.3293967211864527e-05 6.6582243258152927e-05 0 -2.8959707411259919e-05 6.3086191587065018e-05 0 -2.1303573038859334e-05 4.2098420106556519e-05 0 -4.3120615820029387e-06 4.0964911349277337e-05 0 -1.3293967211864527e-05 6.6582243258152927e-05 0 7.6396678699718603e-06 5.9188808425111518e-05 0 -1.3293967211864527e-05 6.6582243258152927e-05 0 -4.3120615820029379e-06 4.0964911349277344e-05 0 7.6396678699718603e-06 5.9188808425111518e-05 0 -4.3120615820029404e-06 4.0964911349277344e-05 0 7.7787215441998997e-06 3.8701525238251683e-05 0 7.6396678699718603e-06 5.9188808425111518e-05 0 7.778721544199898e-06 3.8701525238251683e-05 0 1.8659862688277079e-05 3.5278169801651699e-05 0 7.6396678699718603e-06 5.9188808425111518e-05 0 1.8659862688277079e-05 3.5278169801651699e-05 0 2.711087394108914e-05 6.1844531069947973e-05 0 7.6396678699718603e-06 5.9188808425111518e-05 0 2.711087394108914e-05 6.1844531069947973e-05 0 2.5534094807265103e-05 8.6836379560807718e-05 0 7.6396678699718603e-06 5.9188808425111518e-05 0 2.5534094807265103e-05 8.6836379560807718e-05 0 4.3943482296843196e-06 9.0178288507891584e-05 0 2.4194604177245345e-05 0.00011678588713860136 0 4.3943482296843196e-06 9.0178288507891584e-05 0 2.5534094807265103e-05 8.6836379560807718e-05 0 2.4194604177245345e-05 0.00011678588713860136 0 2.5534094807265103e-05 8.6836379560807718e-05 0 4.2865162548871448e-05 0.00010838677435054731 0 2.4194604177245345e-05 0.00011678588713860136 0 -1.3889127922411668e-06 0.00011763388130313793 0 4.3943482296843196e-06 9.0178288507891584e-05 0 2.4194604177245345e-05 0.00011678588713860136 0 1.3959649875848949e-05 0.00013612421157352942 0 -1.3889127922411647e-06 0.00011763388130313793 0 2.4194604177245345e-05 0.00011678588713860136 0 3.843513609308087e-05 0.00014336398297309919 0 1.3959649875848949e-05 0.00013612421157352942 0 2.4194604177245345e-05 0.00011678588713860136 0 4.7485056902025806e-05 0.00012700488735619368 0 3.843513609308087e-05 0.00014336398297309919 0 3.843513609308087e-05 0.00014336398297309919 0 4.8740570704170592e-05 0.00016357856985801001 0 1.8461454304657172e-05 0.00016374889075829792 0 4.8740570704170592e-05 0.00016357856985801001 0 4.3818843114458551e-05 0.000184607031150613 0 1.8461454304657172e-05 0.00016374889075829792 0 1.8461454304657172e-05 0.00016374889075829792 0 1.3959649875848949e-05 0.00013612421157352942 0 3.843513609308087e-05 0.00014336398297309919 0 1.8461454304657172e-05 0.00016374889075829792 0 -9.1550252574699924e-06 0.00013976100507903278 0 1.3959649875848949e-05 0.00013612421157352942 0 1.8461454304657172e-05 0.00016374889075829792 0 -1.3222160983753888e-05 0.00016598765571440333 0 -9.1550252574699924e-06 0.00013976100507903278 0 1.8461454304657172e-05 0.00016374889075829792 0 -6.1105199750957735e-06 0.00019180692451812147 0 -1.3222160983753888e-05 0.00016598765571440333 0 -3.4692646328312552e-05 0.00016361352159058147 0 -9.1550252574699924e-06 0.00013976100507903275 0 -1.3222160983753888e-05 0.00016598765571440333 0 -3.4692646328312552e-05 0.00016361352159058147 0 -2.7010640420956877e-05 0.00012592029045977053 0 -9.1550252574699924e-06 0.00013976100507903278 0 -9.1550252574699924e-06 0.00013976100507903278 0 -2.7010640420956877e-05 0.00012592029045977053 0 -1.3889127922411647e-06 0.00011763388130313793 0 -9.1550252574699924e-06 0.00013976100507903278 0 -1.3889127922411647e-06 0.00011763388130313793 0 1.3959649875848949e-05 0.00013612421157352942 0 -1.595213786698717e-05 9.6358641136327556e-05 0 -1.3889127922411647e-06 0.00011763388130313793 0 -2.7010640420956877e-05 0.00012592029045977053 0 -1.595213786698717e-05 9.6358641136327556e-05 0 -2.7010640420956877e-05 0.00012592029045977053 0 -3.661843093677906e-05 9.9962846557450377e-05 0 -4.7667213759939372e-05 0.00012116692084204698 0 -3.661843093677906e-05 9.9962846557450377e-05 0 -2.7010640420956877e-05 0.00012592029045977053 0 -4.7667213759939372e-05 0.00012116692084204698 0 -5.9916344818415771e-05 0.00010217313741439306 0 -3.661843093677906e-05 9.9962846557450377e-05 0 -4.7667213759939372e-05 0.00012116692084204698 0 -4.8568877856998939e-05 0.00014199619621234414 0 -6.8525169427342163e-05 0.00013679384323868365 0 -4.7667213759939372e-05 0.00012116692084204698 0 -2.7010640420956877e-05 0.00012592029045977053 0 -4.8568877856998939e-05 0.00014199619621234414 0 -3.4692646328312552e-05 0.00016361352159058147 0 -4.8568877856998939e-05 0.00014199619621234417 0 -2.7010640420956877e-05 0.00012592029045977053 0 -3.4692646328312552e-05 0.00016361352159058147 0 -1.3222160983753888e-05 0.00016598765571440333 0 -3.1987210174975992e-05 0.00019178573449142803 0 -3.4692646328312552e-05 0.00016361352159058147 0 -5.2162450945184825e-05 0.00018448771722083301 0 -6.5964436557479342e-05 0.00016427432019037468 0 -3.4692646328312552e-05 0.00016361352159058147 0 -6.5964436557479342e-05 0.00016427432019037468 0 -4.8568877856998939e-05 0.00014199619621234414 0 -6.5964436557479342e-05 0.00016427432019037468 0 -6.8525169427342163e-05 0.00013679384323868365 0 -4.8568877856998939e-05 0.00014199619621234414 0 -9.7708663895611548e-05 0.00018120455919232268 0 -9.3726645958948173e-05 0.00015010586848506738 0 -6.5964436557479342e-05 0.00016427432019037468 0 -9.7708663895611548e-05 0.00018120455919232268 0 -6.5964436557479342e-05 0.00016427432019037468 0 -7.3788381246094189e-05 0.00019370344346741786 0 -9.3726645958948186e-05 0.00015010586848506738 0 -6.8525169427342163e-05 0.00013679384323868365 0 -6.5964436557479342e-05 0.00016427432019037468 0 -9.3726645958948186e-05 0.00015010586848506738 0 -8.8164416146648138e-05 0.00012045022497791173 0 -6.8525169427342163e-05 0.00013679384323868365 0 -4.7667213759939372e-05 0.00012116692084204698 0 -6.8525169427342163e-05 0.00013679384323868365 0 -5.9916344818415771e-05 0.00010217313741439306 0 -8.8164416146648138e-05 0.00012045022497791173 0 -5.9916344818415771e-05 0.00010217313741439306 0 -6.8525169427342163e-05 0.00013679384323868365 0 -0.00010271451900276342 0.00024658084666676945 0 -6.1174267528518064e-05 0.00024713498511952901 0 -7.34530191463066e-05 0.00027934910913967237 0 -0.00010271451900276342 0.00024658084666676945 0 -7.7907763337505074e-05 0.00022268824977557001 0 -6.1174267528518064e-05 0.00024713498511952901 0 -5.482036440914579e-05 0.00021034333208534128 0 -6.1174267528518064e-05 0.00024713498511952901 0 -7.7907763337505074e-05 0.00022268824977557001 0 -0.00010271451900276342 0.00024658084666676945 0 -0.00010074697348888534 0.00021345148914443053 0 -7.7907763337505074e-05 0.00022268824977557001 0 -0.00010074697348888534 0.00021345148914443053 0 -7.3788381246094189e-05 0.00019370344346741786 0 -7.7907763337505074e-05 0.00022268824977557001 0 -0.00010074697348888534 0.00021345148914443053 0 -9.7708663895611548e-05 0.00018120455919232268 0 -7.3788381246094189e-05 0.00019370344346741786 0 -6.5964436557479342e-05 0.00016427432019037468 0 -5.2162450945184825e-05 0.00018448771722083301 0 -7.3788381246094189e-05 0.00019370344346741786 0 -5.482036440914579e-05 0.00021034333208534128 0 -7.7907763337505074e-05 0.00022268824977557001 0 -7.3788381246094189e-05 0.00019370344346741786 0 -5.482036440914579e-05 0.00021034333208534128 0 -5.2162450945184825e-05 0.00018448771722083301 0 -3.1987210174975992e-05 0.00019178573449142803 0 -5.482036440914579e-05 0.00021034333208534128 0 -7.3788381246094189e-05 0.00019370344346741786 0 -5.2162450945184825e-05 0.00018448771722083301 0 -3.4692646328312552e-05 0.00016361352159058147 0 -3.1987210174975992e-05 0.00019178573449142803 0 -5.2162450945184825e-05 0.00018448771722083301 0 -5.482036440914579e-05 0.00021034333208534128 0 -3.1987210174975992e-05 0.00019178573449142803 0 -3.1682956800365485e-05 0.00021992021014345846 0 -6.1174267528518064e-05 0.00024713498511952901 0 -3.1682956800365485e-05 0.00021992021014345846 0 -2.9647924230474961e-05 0.00024983226828435135 0 -5.482036440914579e-05 0.00021034333208534128 0 -3.1682956800365485e-05 0.00021992021014345846 0 -6.1174267528518064e-05 0.00024713498511952901 0 -4.1471264493631759e-05 0.00028259821816461366 0 -6.1174267528518064e-05 0.00024713498511952901 0 -2.9647924230474961e-05 0.00024983226828435135 0 -8.5263166994009698e-06 0.00023019899012446268 0 -5.4704022789835986e-06 0.00026659381516888121 0 -2.9647924230474961e-05 0.00024983226828435135 0 -8.5263166994009698e-06 0.00023019899012446268 0 1.7478924535151522e-05 0.0002435375973814935 0 -5.4704022789836036e-06 0.00026659381516888121 0 -8.5263166994009698e-06 0.00023019899012446268 0 1.0763475580024933e-05 0.0002123807457278195 0 1.7478924535151522e-05 0.0002435375973814935 0 -8.5263166994009698e-06 0.00023019899012446268 0 -2.9647924230474961e-05 0.00024983226828435135 0 -3.1682956800365485e-05 0.00021992021014345846 0 -6.1105199750957735e-06 0.00019180692451812147 0 -3.1682956800365485e-05 0.00021992021014345846 0 -3.1987210174975992e-05 0.00019178573449142803 0 -8.5263166994009698e-06 0.00023019899012446268 0 -3.1682956800365485e-05 0.00021992021014345846 0 -6.1105199750957735e-06 0.00019180692451812147 0 -6.1105199750957735e-06 0.00019180692451812147 0 -3.1987210174975992e-05 0.00019178573449142803 0 -1.3222160983753888e-05 0.00016598765571440333 0 -6.1105199750957735e-06 0.00019180692451812147 0 2.0291270852703106e-05 0.00019315302414380669 0 1.0763475580024934e-05 0.0002123807457278195 0 -8.5263166994009698e-06 0.00023019899012446268 0 -6.1105199750957777e-06 0.00019180692451812147 0 1.0763475580024934e-05 0.0002123807457278195 0 3.5003858271487101e-05 0.00021290008737307495 0 1.0763475580024934e-05 0.0002123807457278195 0 2.0291270852703106e-05 0.00019315302414380669 0 1.8461454304657172e-05 0.00016374889075829792 0 4.3818843114458551e-05 0.000184607031150613 0 2.0291270852703106e-05 0.00019315302414380669 0 1.8461454304657172e-05 0.00016374889075829792 0 2.0291270852703106e-05 0.00019315302414380669 0 -6.1105199750957735e-06 0.00019180692451812147 0 3.5003858271487101e-05 0.00021290008737307495 0 2.0291270852703106e-05 0.00019315302414380669 0 4.3818843114458551e-05 0.000184607031150613 0 3.5003858271487101e-05 0.00021290008737307495 0 4.3818843114458551e-05 0.000184607031150613 0 5.8653793155080198e-05 0.00020131709933587732 0 3.5003858271487101e-05 0.00021290008737307495 0 4.7456699429408265e-05 0.00024775959130276664 0 1.7478924535151522e-05 0.0002435375973814935 0 3.5003858271487101e-05 0.00021290008737307495 0 5.963219720475282e-05 0.00022266807547821827 0 4.7456699429408265e-05 0.00024775959130276664 0 3.5003858271487101e-05 0.00021290008737307495 0 1.7478924535151522e-05 0.0002435375973814935 0 1.0763475580024934e-05 0.0002123807457278195 0 2.8048152834534636e-05 0.0002812426801348534 0 1.7478924535151522e-05 0.0002435375973814935 0 4.7456699429408265e-05 0.00024775959130276664 0 2.8048152834534636e-05 0.0002812426801348534 0 4.7456699429408265e-05 0.00024775959130276664 0 6.0661126987060082e-05 0.00027762541776867576 0 2.8048152834534636e-05 0.0002812426801348534 0 5.7610741056804089e-05 0.00030858688943483721 0 2.520634480305027e-05 0.00031669874782971815 0 2.8048152834534636e-05 0.0002812426801348534 0 6.0661126987060089e-05 0.00027762541776867576 0 5.7610741056804096e-05 0.00030858688943483721 0 5.7610741056804096e-05 0.00030858688943483721 0 4.6854279363495772e-05 0.000330616715460047 0 2.520634480305027e-05 0.00031669874782971815 0 5.7610741056804096e-05 0.00030858688943483721 0 7.6424899804968042e-05 0.00032686891779619746 0 4.6854279363495772e-05 0.000330616715460047 0 6.753401022866711e-05 0.00034864848622097815 0 4.6854279363495772e-05 0.000330616715460047 0 7.6424899804968042e-05 0.00032686891779619746 0 6.753401022866711e-05 0.00034864848622097815 0 3.0543920047612093e-05 0.00034923308911701282 0 4.6854279363495772e-05 0.000330616715460047 0 3.0543920047612093e-05 0.00034923308911701282 0 2.520634480305027e-05 0.00031669874782971815 0 4.6854279363495772e-05 0.000330616715460047 0 -4.2651724687749758e-06 0.00034861123840270163 0 -3.5602593859624171e-05 0.00031669130837492089 0 -6.0138602463744988e-06 0.00030501906160532513 0 -4.2651724687749758e-06 0.00034861123840270163 0 -6.0138602463744988e-06 0.00030501906160532513 0 2.520634480305027e-05 0.00031669874782971815 0 3.0543920047612093e-05 0.00034923308911701282 0 -4.2651724687749758e-06 0.00034861123840270163 0 2.520634480305027e-05 0.00031669874782971815 0 -4.1471264493631759e-05 0.00028259821816461366 0 -5.4704022789836036e-06 0.00026659381516888121 0 -6.0138602463744988e-06 0.00030501906160532513 0 2.8048152834534636e-05 0.0002812426801348534 0 2.520634480305027e-05 0.00031669874782971815 0 -6.0138602463744988e-06 0.00030501906160532513 0 2.8048152834534636e-05 0.0002812426801348534 0 -6.0138602463744988e-06 0.00030501906160532513 0 -5.4704022789836036e-06 0.00026659381516888121 0 2.8048152834534636e-05 0.0002812426801348534 0 -5.4704022789836036e-06 0.00026659381516888121 0 1.7478924535151522e-05 0.0002435375973814935 0 -4.1471264493631759e-05 0.00028259821816461366 0 -2.9647924230474961e-05 0.00024983226828435135 0 -5.4704022789836036e-06 0.00026659381516888121 0 -4.1471264493631759e-05 0.00028259821816461366 0 -7.34530191463066e-05 0.00027934910913967237 0 -6.1174267528518064e-05 0.00024713498511952901 0 -4.1471264493631759e-05 0.00028259821816461366 0 -3.5602593859624164e-05 0.00031669130837492089 0 -6.7112244102801669e-05 0.00030986434891618503 0 -4.1471264493631759e-05 0.00028259821816461366 0 -6.7112244102801669e-05 0.00030986434891618503 0 -7.34530191463066e-05 0.00027934910913967237 0 -4.1471264493631759e-05 0.00028259821816461366 0 -6.0138602463744937e-06 0.00030501906160532508 0 -3.5602593859624164e-05 0.00031669130837492089 0 -4.2651724687749758e-06 0.00034861123840270163 0 -3.7596138253083329e-05 0.00034799871422354069 0 -3.5602593859624164e-05 0.00031669130837492089 0 -3.7596138253083329e-05 0.00034799871422354069 0 -7.0906982861715587e-05 0.00034762073765618953 0 -5.4498381616668013e-05 0.00033045037617108238 0 -3.7596138253083329e-05 0.00034799871422354069 0 -5.4498381616668013e-05 0.00033045037617108238 0 -3.5602593859624164e-05 0.00031669130837492089 0 -6.7112244102801669e-05 0.00030986434891618503 0 -3.5602593859624164e-05 0.00031669130837492089 0 -5.4498381616668013e-05 0.00033045037617108238 0 -6.7112244102801669e-05 0.00030986434891618503 0 -5.4498381616668013e-05 0.00033045037617108238 0 -8.2066188896291685e-05 0.00032862781122443399 0 -7.0906982861715587e-05 0.00034762073765618953 0 -8.2066188896291685e-05 0.00032862781122443399 0 -5.4498381616668013e-05 0.00033045037617108238 0 -0.00010419404834819461 0.00034767249704620399 0 -8.2066188896291685e-05 0.00032862781122443399 0 -7.0906982861715587e-05 0.00034762073765618953 0 -0.00010419404834819461 0.00034767249704620399 0 -0.00010422665430270319 0.00031415262911781811 0 -8.2066188896291685e-05 0.00032862781122443399 0 -0.00010422665430270319 0.00031415262911781811 0 -6.7112244102801669e-05 0.00030986434891618503 0 -8.2066188896291685e-05 0.00032862781122443399 0 -0.00010422665430270319 0.00031415262911781811 0 -0.00010379424441380025 0.00028041493846548321 0 -7.34530191463066e-05 0.00027934910913967237 0 -0.00010422665430270319 0.00031415262911781811 0 -7.34530191463066e-05 0.00027934910913967237 0 -6.7112244102801669e-05 0.00030986434891618503 0 -0.00010379424441380025 0.00028041493846548321 0 -0.00010271451900276342 0.00024658084666676945 0 -7.34530191463066e-05 0.00027934910913967237 0 3.3546864902897085e-05 -4.6909030075044432e-05 0 3.427113460413449e-05 -4.0604593724332705e-05 0 2.9171084106795194e-05 -4.191454520564292e-05 0 4.055753887713396e-05 -4.2354806530987763e-05 0 3.427113460413449e-05 -4.0604593724332705e-05 0 3.9749335089156389e-05 -4.6913719767801821e-05 0 4.055753887713396e-05 -4.2354806530987763e-05 0 3.784911256605596e-05 -3.8126702466833753e-05 0 3.427113460413449e-05 -4.0604593724332705e-05 0 3.3546864902897085e-05 -4.6909030075044432e-05 0 3.9749335089156389e-05 -4.6913719767801821e-05 0 3.427113460413449e-05 -4.0604593724332705e-05 0 3.3546864902897085e-05 -4.6909030075044432e-05 0 2.9171084106795194e-05 -4.191454520564292e-05 0 2.6730843342810882e-05 -4.6476333667926351e-05 0 2.9171084106795194e-05 -4.191454520564292e-05 0 2.4152062181216141e-05 -3.9987256412033318e-05 0 2.6730843342810882e-05 -4.6476333667926351e-05 0 2.2441855742685874e-05 -4.3564452226266293e-05 0 2.6730843342810882e-05 -4.6476333667926351e-05 0 2.4152062181216141e-05 -3.9987256412033318e-05 0 2.9171084106795194e-05 -4.191454520564292e-05 0 2.6276807421023352e-05 -3.5313409126925683e-05 0 2.4152062181216141e-05 -3.9987256412033318e-05 0 2.1632760057739866e-05 -3.5743552071187376e-05 0 2.4152062181216141e-05 -3.9987256412033318e-05 0 2.6276807421023352e-05 -3.5313409126925683e-05 0 2.1632760057739866e-05 -3.5743552071187376e-05 0 2.6276807421023352e-05 -3.5313409126925683e-05 0 1.9538216735797107e-05 -3.1033704624244619e-05 0 3.2218868517300995e-05 -3.5723171556990107e-05 0 2.8116957140808915e-05 -2.9608336555090592e-05 0 2.6276807421023352e-05 -3.5313409126925683e-05 0 3.427113460413449e-05 -4.0604593724332705e-05 0 3.2218868517300995e-05 -3.5723171556990107e-05 0 2.6276807421023352e-05 -3.5313409126925683e-05 0 2.9171084106795194e-05 -4.191454520564292e-05 0 3.427113460413449e-05 -4.0604593724332705e-05 0 2.6276807421023352e-05 -3.5313409126925683e-05 0 3.2218868517300995e-05 -3.5723171556990107e-05 0 3.427113460413449e-05 -4.0604593724332705e-05 0 3.784911256605596e-05 -3.8126702466833753e-05 0 3.2218868517300995e-05 -3.5723171556990107e-05 0 3.784911256605596e-05 -3.8126702466833753e-05 0 3.5129971517724486e-05 -3.3017219693653771e-05 0 4.1095244770273269e-05 -3.4375733709023857e-05 0 3.5129971517724486e-05 -3.3017219693653771e-05 0 3.784911256605596e-05 -3.8126702466833753e-05 0 4.3395624093009416e-05 -2.9805635872071472e-05 0 3.8768025083088695e-05 -2.9371068907549233e-05 0 4.1095244770273269e-05 -3.4375733709023857e-05 0 4.6691714216264971e-05 -3.4353344064574596e-05 0 4.1095244770273269e-05 -3.4375733709023857e-05 0 4.4645420850327363e-05 -3.9316247927909432e-05 0 4.1095244770273269e-05 -3.4375733709023857e-05 0 3.784911256605596e-05 -3.8126702466833753e-05 0 4.4645420850327363e-05 -3.9316247927909432e-05 0 7.4666201366767871e-05 0.00017718012375922312 0 5.8653793155080198e-05 0.00020131709933587732 0 4.3818843114458551e-05 0.000184607031150613 0 7.4666201366767871e-05 0.00017718012375922312 0 7.9849221022757334e-05 0.0002081704495301512 0 5.8653793155080198e-05 0.00020131709933587732 0 4.3395624093009416e-05 -2.9805635872071472e-05 0 4.1095244770273269e-05 -3.4375733709023857e-05 0 4.6691714216264971e-05 -3.4353344064574596e-05 0 5.8751553199374872e-05 7.3655408937405272e-05 0 6.3008330952307325e-05 8.7207143618939421e-05 0 3.5003858271487101e-05 0.00021290008737307495 0 5.8653793155080198e-05 0.00020131709933587732 0 5.963219720475282e-05 0.00022266807547821827 0 7.9849221022757334e-05 0.0002081704495301512 0 5.963219720475282e-05 0.00022266807547821827 0 5.8653793155080198e-05 0.00020131709933587732 0 8.5049915707084708e-05 0.00024059561407812659 0 4.7456699429408265e-05 0.00024775959130276664 0 5.963219720475282e-05 0.00022266807547821827 0 6.3008330952307325e-05 8.7207143618939421e-05 0 6.6595030763857413e-05 9.9885229687990588e-05 0 4.6691714216264971e-05 -3.4353344064574596e-05 0 4.4645420850327356e-05 -3.9316247927909432e-05 0 5.0894181091640901e-05 -3.9521294732186848e-05 0 7.9849221022757334e-05 0.0002081704495301512 0 8.5049915707084708e-05 0.00024059561407812659 0 5.963219720475282e-05 0.00022266807547821827 0 6.6595030763857413e-05 9.9885229687990588e-05 0 7.5176904722981075e-05 0.0001151965528055752 0 8.5049915707084708e-05 0.00024059561407812659 0 6.0661126987060082e-05 0.00027762541776867576 0 4.7456699429408265e-05 0.00024775959130276664 0 4.055753887713396e-05 -4.2354806530987763e-05 0 4.4645420850327363e-05 -3.9316247927909432e-05 0 3.784911256605596e-05 -3.8126702466833753e-05 0 5.0894181091640901e-05 -3.9521294732186848e-05 0 4.4645420850327363e-05 -3.9316247927909432e-05 0 4.7151615668011889e-05 -4.622862292801709e-05 0 4.055753887713396e-05 -4.2354806530987763e-05 0 3.9749335089156389e-05 -4.6913719767801821e-05 0 4.7151615668011889e-05 -4.622862292801709e-05 0 4.055753887713396e-05 -4.2354806530987763e-05 0 4.7151615668011889e-05 -4.622862292801709e-05 0 4.4645420850327363e-05 -3.9316247927909432e-05 0 4.5753222449581007e-05 -5.2983653424261995e-05 0 5.3055945169993012e-05 -5.1830102223699635e-05 0 4.7151615668011889e-05 -4.622862292801709e-05 0 4.5753222449581007e-05 -5.2983653424261995e-05 0 4.7151615668011889e-05 -4.622862292801709e-05 0 3.9749335089156389e-05 -4.6913719767801821e-05 0 5.0894181091640901e-05 -3.9521294732186848e-05 0 4.7151615668011889e-05 -4.622862292801709e-05 0 5.6303423142295209e-05 -4.568639380555921e-05 0 5.6303423142295209e-05 -4.568639380555921e-05 0 4.7151615668011889e-05 -4.622862292801709e-05 0 5.3055945169993012e-05 -5.1830102223699635e-05 0 4.5753222449581007e-05 -5.2983653424261995e-05 0 5.505648394389621e-05 -5.9159260175161269e-05 0 5.3055945169993012e-05 -5.1830102223699635e-05 0 8.5049915707084708e-05 0.00024059561407812659 0 9.0481543391196287e-05 0.00027369172595562049 0 6.0661126987060082e-05 0.00027762541776867576 0 7.5176904722981075e-05 0.0001151965528055752 0 6.869907301443395e-05 0.00012567564680737476 0 5.6303423142295209e-05 -4.568639380555921e-05 0 5.3055945169993012e-05 -5.1830102223699635e-05 0 6.331159658238815e-05 -5.382577063688965e-05 0 9.0481543391196287e-05 0.00027369172595562049 0 9.6769506338097448e-05 0.00030826614889272705 0 6.0661126987060082e-05 0.00027762541776867576 0 9.6769506338097448e-05 0.00030826614889272705 0 5.7610741056804096e-05 0.00030858688943483716 0 6.0661126987060082e-05 0.00027762541776867576 0 9.6769506338097448e-05 0.00030826614889272705 0 7.6424899804968042e-05 0.00032686891779619746 0 5.7610741056804096e-05 0.00030858688943483721 0 6.869907301443395e-05 0.00012567564680737476 0 0.00012522741936129485 0.00014105036462891914 0 0.00010516311933151788 0.00034427476856951678 0 7.6424899804968042e-05 0.00032686891779619746 0 9.6769506338097448e-05 0.00030826614889272705 0 0.00010516311933151788 0.00034427476856951678 0 6.753401022866711e-05 0.00034864848622097815 0 7.6424899804968042e-05 0.00032686891779619746 0 4.5753222449581007e-05 -5.2983653424261995e-05 0 4.2843084761855788e-05 -6.0177306667470664e-05 0 5.505648394389621e-05 -5.9159260175161269e-05 0 6.331159658238815e-05 -5.382577063688965e-05 0 5.3055945169993012e-05 -5.1830102223699635e-05 0 5.505648394389621e-05 -5.9159260175161269e-05 0 7.1448989083432125e-05 -6.4968173587320725e-05 0 6.331159658238815e-05 -5.382577063688965e-05 0 5.505648394389621e-05 -5.9159260175161269e-05 0 7.1448989083432125e-05 -6.4968173587320725e-05 0 5.505648394389621e-05 -5.9159260175161269e-05 0 5.7955278880893046e-05 -6.8732856232764112e-05 0 5.7955278880893046e-05 -6.8732856232764112e-05 0 5.505648394389621e-05 -5.9159260175161269e-05 0 4.2843084761855788e-05 -6.0177306667470664e-05 0 3.582012525703034e-05 -6.5563696867070799e-05 0 4.2843084761855788e-05 -6.0177306667470664e-05 0 3.4610087604702791e-05 -5.5928660862207071e-05 0 4.5968300452633196e-05 -6.8337669414379566e-05 0 5.7955278880893046e-05 -6.8732856232764112e-05 0 4.2843084761855788e-05 -6.0177306667470664e-05 0 3.582012525703034e-05 -6.5563696867070799e-05 0 4.5968300452633196e-05 -6.8337669414379566e-05 0 4.2843084761855788e-05 -6.0177306667470664e-05 0 4.5753222449581007e-05 -5.2983653424261995e-05 0 3.7839910187968562e-05 -5.2488370585321852e-05 0 4.2843084761855788e-05 -6.0177306667470664e-05 0 3.4610087604702791e-05 -5.5928660862207071e-05 0 4.2843084761855788e-05 -6.0177306667470664e-05 0 3.7839910187968562e-05 -5.2488370585321852e-05 0 3.3546864902897085e-05 -4.6909030075044432e-05 0 3.0110042612286663e-05 -5.1629519165030082e-05 0 3.7839910187968562e-05 -5.2488370585321852e-05 0 3.3546864902897085e-05 -4.6909030075044432e-05 0 3.7839910187968562e-05 -5.2488370585321852e-05 0 3.9749335089156389e-05 -4.6913719767801821e-05 0 4.5753222449581007e-05 -5.2983653424261995e-05 0 3.9749335089156389e-05 -4.6913719767801821e-05 0 3.7839910187968562e-05 -5.2488370585321852e-05 0 2.5471986893027352e-05 -5.1833092540528466e-05 0 3.0110042612286663e-05 -5.1629519165030082e-05 0 2.6730843342810882e-05 -4.6476333667926351e-05 0 3.3546864902897085e-05 -4.6909030075044432e-05 0 2.6730843342810882e-05 -4.6476333667926351e-05 0 3.0110042612286663e-05 -5.1629519165030082e-05 0 3.4610087604702791e-05 -5.5928660862207071e-05 0 3.0110042612286663e-05 -5.1629519165030082e-05 0 2.921308088007316e-05 -5.7349243671268035e-05 0 3.4610087604702791e-05 -5.5928660862207071e-05 0 3.7839910187968562e-05 -5.2488370585321852e-05 0 3.0110042612286663e-05 -5.1629519165030082e-05 0 2.5471986893027352e-05 -5.1833092540528466e-05 0 2.921308088007316e-05 -5.7349243671268035e-05 0 3.0110042612286663e-05 -5.1629519165030082e-05 0 3.582012525703034e-05 -6.5563696867070799e-05 0 3.4610087604702791e-05 -5.5928660862207071e-05 0 2.921308088007316e-05 -5.7349243671268035e-05 0 2.8628399395536274e-05 -6.2031455307249642e-05 0 3.582012525703034e-05 -6.5563696867070799e-05 0 2.921308088007316e-05 -5.7349243671268035e-05 0 2.8628399395536274e-05 -6.2031455307249642e-05 0 2.921308088007316e-05 -5.7349243671268035e-05 0 2.5143784264626904e-05 -5.6506363502165391e-05 0 2.3532521555871168e-05 -5.8319713523462864e-05 0 2.8628399395536278e-05 -6.2031455307249642e-05 0 2.5143784264626904e-05 -5.6506363502165391e-05 0 2.3532521555871168e-05 -5.8319713523462864e-05 0 2.5143784264626904e-05 -5.6506363502165391e-05 0 2.0888496593136252e-05 -5.2745645940220254e-05 0 2.5471986893027352e-05 -5.1833092540528466e-05 0 2.0888496593136252e-05 -5.2745645940220261e-05 0 2.5143784264626904e-05 -5.6506363502165391e-05 0 2.5471986893027352e-05 -5.1833092540528466e-05 0 2.5143784264626904e-05 -5.6506363502165391e-05 0 2.921308088007316e-05 -5.7349243671268035e-05 0 2.0238882450775662e-05 -5.3848284932649811e-05 0 2.1141662508950389e-05 -5.5274993599931599e-05 0 1.8736136716936662e-05 -5.3161229246900842e-05 0 2.1141662508950389e-05 -5.5274993599931599e-05 0 2.3532521555871168e-05 -5.8319713523462864e-05 0 1.8736136716936662e-05 -5.3161229246900842e-05 0 2.3532521555871168e-05 -5.8319713523462864e-05 0 2.0888496593136252e-05 -5.2745645940220254e-05 0 1.8736136716936662e-05 -5.3161229246900842e-05 0 1.5328670570179607e-05 -4.9992547278515785e-05 0 1.8736136716936662e-05 -5.3161229246900842e-05 0 1.752505345315886e-05 -4.9159975391616246e-05 0 2.0888496593136252e-05 -5.2745645940220254e-05 0 1.752505345315886e-05 -4.9159975391616246e-05 0 1.8736136716936662e-05 -5.3161229246900842e-05 0 1.752505345315886e-05 -4.9159975391616246e-05 0 2.0905641679707603e-05 -4.7693835660203611e-05 0 1.7036993112699418e-05 -4.499129870584696e-05 0 1.7036993112699418e-05 -4.499129870584696e-05 0 1.4186108743592423e-05 -4.5494081022546882e-05 0 1.752505345315886e-05 -4.9159975391616246e-05 0 1.5328670570179607e-05 -4.9992547278515785e-05 0 1.752505345315886e-05 -4.9159975391616246e-05 0 1.4186108743592423e-05 -4.5494081022546882e-05 0 2.5471986893027352e-05 -5.1833092540528466e-05 0 2.0905641679707603e-05 -4.7693835660203611e-05 0 2.0888496593136252e-05 -5.2745645940220254e-05 0 2.0888496593136252e-05 -5.2745645940220254e-05 0 2.0905641679707603e-05 -4.7693835660203611e-05 0 1.752505345315886e-05 -4.9159975391616246e-05 0 2.5471986893027352e-05 -5.1833092540528466e-05 0 2.6730843342810882e-05 -4.6476333667926351e-05 0 2.0905641679707603e-05 -4.7693835660203611e-05 0 2.2441855742685874e-05 -4.3564452226266293e-05 0 2.0905641679707603e-05 -4.7693835660203611e-05 0 2.6730843342810882e-05 -4.6476333667926351e-05 0 2.2441855742685874e-05 -4.3564452226266293e-05 0 2.4152062181216141e-05 -3.9987256412033318e-05 0 2.0219566198565654e-05 -3.9636606576068045e-05 0 2.2441855742685874e-05 -4.3564452226266293e-05 0 2.0219566198565654e-05 -3.9636606576068045e-05 0 1.9247837939854792e-05 -4.3521618383018903e-05 0 1.6782786058529827e-05 -4.0099203113061564e-05 0 1.9247837939854792e-05 -4.3521618383018903e-05 0 2.0219566198565654e-05 -3.9636606576068045e-05 0 2.2441855742685874e-05 -4.3564452226266293e-05 0 1.9247837939854792e-05 -4.3521618383018903e-05 0 2.0905641679707603e-05 -4.7693835660203611e-05 0 1.7036993112699418e-05 -4.499129870584696e-05 0 1.9247837939854792e-05 -4.3521618383018903e-05 0 1.6782786058529827e-05 -4.0099203113061564e-05 0 1.7036993112699418e-05 -4.499129870584696e-05 0 2.0905641679707603e-05 -4.7693835660203611e-05 0 1.9247837939854792e-05 -4.3521618383018903e-05 0 1.7036993112699418e-05 -4.499129870584696e-05 0 1.3413842842891854e-05 -3.9386194765894288e-05 0 1.4186108743592423e-05 -4.5494081022546882e-05 0 1.1615303434713989e-05 -4.2239567793455529e-05 0 1.4186108743592423e-05 -4.5494081022546882e-05 0 1.3413842842891854e-05 -3.9386194765894288e-05 0 1.7036993112699418e-05 -4.499129870584696e-05 0 1.6782786058529827e-05 -4.0099203113061564e-05 0 1.3413842842891854e-05 -3.9386194765894288e-05 0 1.2909659066620319e-05 -3.4730036147690447e-05 0 1.6782786058529827e-05 -4.0099203113061564e-05 0 1.7519087931597499e-05 -3.5533722274091258e-05 0 1.2909659066620319e-05 -3.4730036147690447e-05 0 1.3413842842891854e-05 -3.9386194765894288e-05 0 1.6782786058529827e-05 -4.0099203113061564e-05 0 1.2909659066620319e-05 -3.4730036147690447e-05 0 8.5228236427389752e-06 -3.6337364800231372e-05 0 1.3413842842891854e-05 -3.9386194765894288e-05 0 1.2909659066620319e-05 -3.4730036147690447e-05 0 1.7519087931597499e-05 -3.5533722274091258e-05 0 1.562860883698898e-05 -3.015136097569934e-05 0 1.562860883698898e-05 -3.015136097569934e-05 0 1.7519087931597499e-05 -3.5533722274091258e-05 0 1.9538216735797107e-05 -3.1033704624244619e-05 0 2.1632760057739866e-05 -3.5743552071187376e-05 0 1.9538216735797107e-05 -3.1033704624244619e-05 0 1.7519087931597499e-05 -3.5533722274091258e-05 0 2.1632760057739866e-05 -3.5743552071187376e-05 0 1.7519087931597499e-05 -3.5533722274091258e-05 0 2.0219566198565654e-05 -3.9636606576068045e-05 0 2.1632760057739866e-05 -3.5743552071187376e-05 0 2.0219566198565654e-05 -3.9636606576068045e-05 0 2.4152062181216141e-05 -3.9987256412033318e-05 0 1.6782786058529827e-05 -4.0099203113061564e-05 0 2.0219566198565654e-05 -3.9636606576068045e-05 0 1.7519087931597499e-05 -3.5533722274091258e-05 0 3.0181401393864017e-05 -0.00010413081377984674 0 1.6637936694757495e-05 -9.5662184093870282e-05 0 1.9642817366835601e-05 -0.00011057428658275941 0 1.5278831338672194e-05 -6.0953226247540265e-05 0 1.7403682682702269e-05 -7.2242019239968035e-05 0 2.7522469720822492e-05 -8.7730453723822458e-05 0 1.6637936694757495e-05 -9.5662184093870282e-05 0 3.0181401393864017e-05 -0.00010413081377984674 0 3.2123188696084808e-06 -3.4158037914333857e-05 0 4.8013050665614842e-06 -4.0294054542981755e-05 0 8.5228236427389752e-06 -3.6337364800231372e-05 0 3.2123188696084808e-06 -3.4158037914333857e-05 0 8.5228236427389752e-06 -3.6337364800231372e-05 0 6.3102646566253831e-06 -3.0497119733000624e-05 0 1.2909659066620319e-05 -3.4730036147690447e-05 0 9.6259061275633992e-06 -3.1880633965163053e-05 0 8.5228236427389752e-06 -3.6337364800231372e-05 0 8.5228236427389752e-06 -3.6337364800231372e-05 0 9.6259061275633992e-06 -3.1880633965163053e-05 0 6.3102646566253831e-06 -3.0497119733000624e-05 0 1.1615303434713989e-05 -4.2239567793455529e-05 0 1.3413842842891854e-05 -3.9386194765894288e-05 0 8.5228236427389752e-06 -3.6337364800231372e-05 0 4.8013050665614842e-06 -4.0294054542981755e-05 0 8.3914303572008897e-06 -4.1926099778321989e-05 0 8.5228236427389752e-06 -3.6337364800231372e-05 0 1.1615303434713989e-05 -4.2239567793455529e-05 0 8.5228236427389752e-06 -3.6337364800231372e-05 0 8.3914303572008897e-06 -4.1926099778321989e-05 0 1.1615303434713989e-05 -4.2239567793455529e-05 0 8.3914303572008897e-06 -4.1926099778321989e-05 0 1.144921100950658e-05 -4.6727910830812616e-05 0 1.1615303434713989e-05 -4.2239567793455529e-05 0 1.144921100950658e-05 -4.6727910830812616e-05 0 1.4186108743592423e-05 -4.5494081022546882e-05 0 7.194425769586344e-06 -4.5983013345126162e-05 0 1.144921100950658e-05 -4.672791083081261e-05 0 8.3914303572008897e-06 -4.1926099778321989e-05 0 7.194425769586344e-06 -4.5983013345126162e-05 0 1.0619350972705556e-05 -5.0806377138563225e-05 0 1.144921100950658e-05 -4.6727910830812616e-05 0 3.2906509873744001e-05 -0.00012144977024265845 0 1.9642817366835601e-05 -0.00011057428658275941 0 1.2607321971909042e-05 -0.00012423607971148108 0 3.2906509873744001e-05 -0.00012144977024265845 0 1.2607321971909041e-05 -0.00012423607971148108 0 2.0572487722561552e-05 -0.00014095138871514061 0 1.9744337789857032e-05 -8.3560781898945743e-05 0 2.3559671012575137e-05 -9.5336313701051961e-05 0 4.8013050665614842e-06 -4.0294054542981755e-05 0 7.194425769586344e-06 -4.5983013345126162e-05 0 8.3914303572008897e-06 -4.1926099778321989e-05 0 3.0181401393864017e-05 -0.00010413081377984674 0 1.9642817366835601e-05 -0.00011057428658275941 0 3.2906509873744001e-05 -0.00012144977024265845 0 1.7403682682702269e-05 -7.2242019239968035e-05 0 1.9744337789857032e-05 -8.3560781898945743e-05 0 3.2906509873744001e-05 -0.00012144977024265845 0 2.0572487722561552e-05 -0.00014095138871514061 0 3.5987863376143663e-05 -0.00013917597997897108 0 2.3559671012575137e-05 -9.5336313701051961e-05 0 2.5326061752982232e-05 -0.00010536834653116201 0 1.0619350972705556e-05 -5.0806377138563225e-05 0 1.5295029079944051e-05 -5.4162074707789374e-05 0 1.3719343992321461e-05 -5.0854064650294583e-05 0 3.5987863376143663e-05 -0.00013917597997897108 0 2.0572487722561552e-05 -0.00014095138871514061 0 3.9674411002168727e-05 -0.00015769089856724417 0 3.9674411002168727e-05 -0.00015769089856724417 0 2.0572487722561552e-05 -0.00014095138871514064 0 1.9815860359528882e-05 -0.00015775221113468441 0 1.5328670570179607e-05 -4.9992547278515785e-05 0 1.4186108743592423e-05 -4.5494081022546882e-05 0 1.144921100950658e-05 -4.6727910830812616e-05 0 1.5328670570179607e-05 -4.9992547278515785e-05 0 1.144921100950658e-05 -4.6727910830812616e-05 0 1.3719343992321461e-05 -5.0854064650294583e-05 0 1.0619350972705556e-05 -5.0806377138563225e-05 0 1.3719343992321461e-05 -5.0854064650294583e-05 0 1.144921100950658e-05 -4.6727910830812616e-05 0 1.5328670570179607e-05 -4.9992547278515785e-05 0 1.3719343992321461e-05 -5.0854064650294583e-05 0 1.6802074111589491e-05 -5.2688711288372671e-05 0 1.5328670570179607e-05 -4.9992547278515785e-05 0 1.6802074111589491e-05 -5.2688711288372671e-05 0 1.8736136716936662e-05 -5.3161229246900842e-05 0 1.5295029079944051e-05 -5.4162074707789374e-05 0 1.6802074111589491e-05 -5.2688711288372671e-05 0 1.3719343992321461e-05 -5.0854064650294583e-05 0 2.0817086649992636e-05 -5.5323930887193459e-05 0 1.6802074111589491e-05 -5.2688711288372671e-05 0 1.5295029079944051e-05 -5.4162074707789374e-05 0 2.0817086649992636e-05 -5.5323930887193459e-05 0 2.0238882450775662e-05 -5.3848284932649811e-05 0 1.6802074111589491e-05 -5.2688711288372671e-05 0 2.0238882450775662e-05 -5.3848284932649811e-05 0 1.8736136716936662e-05 -5.3161229246900842e-05 0 1.6802074111589491e-05 -5.2688711288372671e-05 0 3.9674411002168727e-05 -0.00015769089856724417 0 1.9815860359528882e-05 -0.00015775221113468441 0 2.9785747060262366e-05 -0.00016744950497461384 0 2.5326061752982232e-05 -0.00010536834653116201 0 3.941186903141802e-05 -0.00011649404767796641 0 4.5083647713793464e-05 -0.00017651392699557115 0 3.9674411002168727e-05 -0.00015769089856724417 0 2.9785747060262366e-05 -0.00016744950497461384 0 4.5083647713793464e-05 -0.00017651392699557115 0 2.9785747060262366e-05 -0.00016744950497461384 0 2.5756740155047033e-05 -0.00017871025858175735 0 2.5756740155047033e-05 -0.00017871025858175735 0 2.9785747060262366e-05 -0.00016744950497461384 0 1.4720330104293783e-05 -0.00016919400710091432 0 6.5900413807507162e-06 -0.00017871368944329254 0 2.5756740155047033e-05 -0.00017871025858175735 0 1.4720330104293783e-05 -0.00016919400710091432 0 1.9815860359528882e-05 -0.00015775221113468441 0 3.4981315119384342e-06 -0.00016182046334000964 0 1.4720330104293783e-05 -0.00016919400710091432 0 1.9815860359528882e-05 -0.00015775221113468441 0 1.4720330104293783e-05 -0.00016919400710091432 0 2.9785747060262366e-05 -0.00016744950497461384 0 6.5900413807507162e-06 -0.00017871368944329254 0 1.4720330104293787e-05 -0.00016919400710091432 0 3.4981315119384342e-06 -0.00016182046334000964 0 -1.123224295304597e-05 -0.00017809893847729806 0 3.4981315119384342e-06 -0.00016182046334000964 0 -1.2360796349598423e-05 -0.00015552439900445026 0 -1.123224295304597e-05 -0.00017809893847729806 0 -1.2360796349598423e-05 -0.00015552439900445026 0 -2.7302160566271044e-05 -0.00016145305438707488 0 -1.123224295304597e-05 -0.00017809893847729806 0 6.5900413807507162e-06 -0.00017871368944329254 0 3.4981315119384342e-06 -0.00016182046334000964 0 4.5602273686677332e-06 -0.00014355128799523032 0 -1.2360796349598423e-05 -0.00015552439900445026 0 3.4981315119384342e-06 -0.00016182046334000964 0 4.5602273686677332e-06 -0.00014355128799523032 0 -1.4239238425113666e-05 -0.00013533747825988894 0 -1.2360796349598423e-05 -0.00015552439900445026 0 -3.0375867980024724e-05 -0.00014329284891010716 0 -1.2360796349598423e-05 -0.00015552439900445026 0 -1.4239238425113666e-05 -0.00013533747825988894 0 4.5602273686677332e-06 -0.00014355128799523032 0 -2.8057799524072602e-06 -0.00012629162301784473 0 -1.4239238425113666e-05 -0.00013533747825988894 0 4.5602273686677332e-06 -0.00014355128799523032 0 2.0572487722561552e-05 -0.00014095138871514061 0 1.2607321971909042e-05 -0.00012423607971148108 0 4.5602273686677332e-06 -0.00014355128799523032 0 1.9815860359528882e-05 -0.00015775221113468441 0 2.0572487722561552e-05 -0.00014095138871514061 0 4.5602273686677332e-06 -0.00014355128799523032 0 3.4981315119384325e-06 -0.00016182046334000964 0 1.9815860359528882e-05 -0.00015775221113468441 0 -6.2443425408829946e-05 -0.0001601215403005615 0 -5.1046263239530433e-05 -0.00016758054765374567 0 -4.3355815602033523e-05 -0.00015787278408265184 0 -6.2421840681253213e-05 -0.00017739519249612213 0 -5.1046263239530433e-05 -0.00016758054765374567 0 -6.2443425408829946e-05 -0.0001601215403005615 0 -6.2421840681253213e-05 -0.00017739519249612213 0 -4.5302823578057593e-05 -0.00017736128320366162 0 -5.1046263239530433e-05 -0.00016758054765374567 0 -4.53028235780576e-05 -0.00017736128320366165 0 -3.6905703232571242e-05 -0.00016853146591281072 0 -5.1046263239530433e-05 -0.00016758054765374567 0 -4.3355815602033523e-05 -0.00015787278408265184 0 -5.1046263239530433e-05 -0.00016758054765374567 0 -3.6905703232571242e-05 -0.00016853146591281072 0 -4.3355815602033523e-05 -0.00015787278408265184 0 -3.6905703232571242e-05 -0.00016853146591281072 0 -2.7302160566271044e-05 -0.00016145305438707488 0 -2.8220784321714218e-05 -0.00017761609158189928 0 -2.7302160566271044e-05 -0.00016145305438707488 0 -3.6905703232571242e-05 -0.00016853146591281072 0 -4.53028235780576e-05 -0.00017736128320366165 0 -2.8220784321714218e-05 -0.00017761609158189928 0 -3.6905703232571242e-05 -0.00016853146591281072 0 -2.8220784321714218e-05 -0.00017761609158189928 0 -1.123224295304597e-05 -0.00017809893847729806 0 -2.7302160566271044e-05 -0.00016145305438707488 0 -3.0375867980024724e-05 -0.00014329284891010716 0 -2.7302160566271044e-05 -0.00016145305438707488 0 -1.2360796349598423e-05 -0.00015552439900445026 0 -3.0375867980024724e-05 -0.00014329284891010716 0 -1.4239238425113666e-05 -0.00013533747825988894 0 -2.6516564936576074e-05 -0.00012343325939364575 0 -3.0375867980024724e-05 -0.00014329284891010716 0 -4.1503313523328324e-05 -0.000126370091373596 0 -4.6797387477086989e-05 -0.00014239607821853946 0 -3.0375867980024724e-05 -0.00014329284891010716 0 -4.3355815602033523e-05 -0.00015787278408265184 0 -2.7302160566271044e-05 -0.00016145305438707488 0 -3.0375867980024724e-05 -0.00014329284891010716 0 -4.6797387477086989e-05 -0.00014239607821853946 0 -4.3355815602033523e-05 -0.00015787278408265184 0 -6.2443425408829946e-05 -0.0001601215403005615 0 -4.3355815602033523e-05 -0.00015787278408265184 0 -4.6797387477086989e-05 -0.00014239607821853946 0 -6.1417779885323325e-05 -0.00012502626201045078 0 -6.2153849216658446e-05 -0.00014263224739648818 0 -4.6797387477086989e-05 -0.00014239607821853946 0 -6.2153849216658446e-05 -0.00014263224739648818 0 -6.2443425408829946e-05 -0.0001601215403005615 0 -4.6797387477086989e-05 -0.00014239607821853946 0 -6.00370185310339e-05 -0.00010786522493620959 0 -6.1417779885323325e-05 -0.00012502626201045078 0 -4.877351718387521e-05 -0.00011382588775313571 0 -6.1417779885323325e-05 -0.00012502626201045078 0 -4.6797387477086989e-05 -0.00014239607821853946 0 -4.1503313523328324e-05 -0.000126370091373596 0 -3.6298273883574813e-05 -0.0001077018574902283 0 -4.877351718387521e-05 -0.00011382588775313571 0 -4.1503313523328324e-05 -0.000126370091373596 0 -6.1417779885323325e-05 -0.00012502626201045078 0 -4.1503313523328324e-05 -0.000126370091373596 0 -4.877351718387521e-05 -0.00011382588775313571 0 -3.6298273883574813e-05 -0.0001077018574902283 0 -4.1503313523328317e-05 -0.00012637009137359602 0 -2.6516564936576074e-05 -0.00012343325939364575 0 -3.0375867980024724e-05 -0.00014329284891010716 0 -2.6516564936576074e-05 -0.00012343325939364575 0 -4.1503313523328324e-05 -0.000126370091373596 0 -3.6298273883574813e-05 -0.0001077018574902283 0 -2.6516564936576074e-05 -0.00012343325939364575 0 -2.4062562424404308e-05 -0.00010712315874519342 0 -1.3947204437842849e-05 -0.00011615664624943987 0 -2.4062562424404308e-05 -0.00010712315874519342 0 -2.6516564936576074e-05 -0.00012343325939364575 0 -3.6298273883574813e-05 -0.0001077018574902283 0 -2.4062562424404308e-05 -0.00010712315874519342 0 -2.9093787039686933e-05 -9.636226192498212e-05 0 -2.6726676145744013e-05 -8.18363135064759e-05 0 -2.9093787039686933e-05 -9.636226192498212e-05 0 -1.6101095843733805e-05 -9.690039679555469e-05 0 -1.6101095843733805e-05 -9.690039679555469e-05 0 -2.9093787039686933e-05 -9.636226192498212e-05 0 -2.4062562424404308e-05 -0.00010712315874519342 0 -3.6298273883574813e-05 -0.0001077018574902283 0 -2.9093787039686933e-05 -9.636226192498212e-05 0 -4.1564487906374635e-05 -9.1332613309293433e-05 0 -3.6298273883574813e-05 -0.0001077018574902283 0 -4.9073568654898339e-05 -0.00010203596112009572 0 -4.877351718387521e-05 -0.00011382588775313571 0 -3.6298273883574813e-05 -0.0001077018574902283 0 -4.1564487906374628e-05 -9.1332613309293419e-05 0 -4.9073568654898339e-05 -0.00010203596112009572 0 -5.7899477311755254e-05 -9.1157547305119771e-05 0 -4.9073568654898339e-05 -0.00010203596112009574 0 -4.1564487906374635e-05 -9.1332613309293433e-05 0 -5.7899477311755254e-05 -9.1157547305119771e-05 0 -6.00370185310339e-05 -0.00010786522493620959 0 -4.9073568654898339e-05 -0.00010203596112009572 0 -6.00370185310339e-05 -0.00010786522493620959 0 -4.877351718387521e-05 -0.00011382588775313571 0 -4.9073568654898339e-05 -0.00010203596112009572 0 8.09425486342971e-06 -0.00010503021274888999 0 -2.7734389541664628e-06 -0.00011097395407566157 0 1.2607321971909042e-05 -0.00012423607971148108 0 1.2607321971909042e-05 -0.00012423607971148108 0 -2.7734389541664628e-06 -0.00011097395407566157 0 -2.8057799524072602e-06 -0.00012629162301784473 0 8.09425486342971e-06 -0.00010503021274888999 0 1.2607321971909042e-05 -0.00012423607971148108 0 1.9642817366835601e-05 -0.00011057428658275941 0 4.5602273686677332e-06 -0.00014355128799523032 0 1.2607321971909042e-05 -0.00012423607971148108 0 -2.8057799524072602e-06 -0.00012629162301784473 0 -1.3947204437842849e-05 -0.00011615664624943987 0 -1.4239238425113666e-05 -0.00013533747825988894 0 -2.8057799524072602e-06 -0.00012629162301784473 0 -1.3947204437842849e-05 -0.00011615664624943987 0 -2.6516564936576074e-05 -0.00012343325939364575 0 -1.4239238425113666e-05 -0.00013533747825988894 0 -1.3947204437842849e-05 -0.00011615664624943987 0 -2.8057799524072602e-06 -0.00012629162301784473 0 -2.7734389541664628e-06 -0.00011097395407566157 0 -1.6101095843733805e-05 -9.690039679555469e-05 0 -2.7734389541664628e-06 -0.00011097395407566157 0 -3.3591823263167946e-06 -9.4816409184297781e-05 0 -1.3947204437842849e-05 -0.00011615664624943987 0 -2.7734389541664628e-06 -0.00011097395407566157 0 -1.6101095843733805e-05 -9.690039679555469e-05 0 -1.3947204437842849e-05 -0.00011615664624943987 0 -1.6101095843733809e-05 -9.690039679555469e-05 0 -2.4062562424404308e-05 -0.00010712315874519342 0 -1.6101095843733805e-05 -9.690039679555469e-05 0 -3.3591823263167937e-06 -9.4816409184297781e-05 0 -1.129417917042967e-05 -8.1883298621258799e-05 0 8.09425486342971e-06 -0.00010503021274888999 0 6.3303805146273726e-06 -9.1489485568984141e-05 0 -3.3591823263167946e-06 -9.4816409184297781e-05 0 8.09425486342971e-06 -0.00010503021274888999 0 -3.3591823263167946e-06 -9.4816409184297781e-05 0 -2.7734389541664628e-06 -0.00011097395407566157 0 8.09425486342971e-06 -0.00010503021274888999 0 1.9642817366835601e-05 -0.00011057428658275941 0 1.6637936694757495e-05 -9.5662184093870282e-05 0 8.09425486342971e-06 -0.00010503021274888999 0 1.6637936694757495e-05 -9.5662184093870282e-05 0 6.3303805146273726e-06 -9.1489485568984141e-05 0 1.2204214615057383e-05 -8.091002379433019e-05 0 6.3303805146273726e-06 -9.1489485568984141e-05 0 1.6637936694757495e-05 -9.5662184093870282e-05 0 -1.678066118934242e-06 -8.132152112629689e-05 0 6.3303805146273726e-06 -9.1489485568984141e-05 0 1.2204214615057383e-05 -8.091002379433019e-05 0 -1.678066118934242e-06 -8.132152112629689e-05 0 1.2204214615057383e-05 -8.0910023794330177e-05 0 4.4896798401483664e-06 -7.1350513809967812e-05 0 1.2204214615057383e-05 -8.091002379433019e-05 0 1.2878117398555506e-05 -6.6572856257438555e-05 0 4.4896798401483664e-06 -7.1350513809967812e-05 0 -1.678066118934242e-06 -8.132152112629689e-05 0 4.4896798401483664e-06 -7.1350513809967812e-05 0 -4.5497753715153736e-06 -6.9184906401900822e-05 0 -1.678066118934242e-06 -8.132152112629689e-05 0 -3.3591823263167946e-06 -9.4816409184297781e-05 0 6.3303805146273726e-06 -9.1489485568984141e-05 0 -1.678066118934242e-06 -8.132152112629689e-05 0 -1.129417917042967e-05 -8.1883298621258799e-05 0 -3.3591823263167946e-06 -9.4816409184297781e-05 0 -2.6726676145744013e-05 -8.18363135064759e-05 0 -1.6101095843733805e-05 -9.690039679555469e-05 0 -1.129417917042967e-05 -8.1883298621258799e-05 0 -2.6726676145744013e-05 -8.18363135064759e-05 0 -1.129417917042967e-05 -8.1883298621258799e-05 0 -1.5574743744776642e-05 -6.8492264439022824e-05 0 -1.678066118934242e-06 -8.132152112629689e-05 0 -4.5497753715153736e-06 -6.9184906401900822e-05 0 -1.129417917042967e-05 -8.1883298621258799e-05 0 -1.5574743744776642e-05 -6.8492264439022824e-05 0 -1.129417917042967e-05 -8.1883298621258799e-05 0 -4.5497753715153736e-06 -6.9184906401900822e-05 0 -1.5574743744776642e-05 -6.8492264439022824e-05 0 -4.5497753715153736e-06 -6.9184906401900822e-05 0 -5.4760496411928996e-06 -5.522309471150729e-05 0 -1.4320324631108172e-05 -5.0785265133950103e-05 0 -2.2533702553692921e-05 -5.9536958562243619e-05 0 -1.5574743744776642e-05 -6.8492264439022824e-05 0 -1.4320324631108172e-05 -5.0785265133950103e-05 0 -1.5574743744776642e-05 -6.8492264439022824e-05 0 -5.4760496411928996e-06 -5.522309471150729e-05 0 3.7779128896061092e-06 -5.9182868232646833e-05 0 3.4116279437454838e-06 -4.3193827774276172e-05 0 -5.4760496411928996e-06 -5.522309471150729e-05 0 3.7779128896061092e-06 -5.9182868232646833e-05 0 1.1894744361103053e-05 -5.1158675140051362e-05 0 3.4116279437454838e-06 -4.3193827774276172e-05 0 3.7779128896061092e-06 -5.9182868232646833e-05 0 4.4896798401483673e-06 -7.1350513809967812e-05 0 1.2878117398555506e-05 -6.6572856257438555e-05 0 3.7779128896061092e-06 -5.9182868232646833e-05 0 -5.4760496411928996e-06 -5.522309471150729e-05 0 -4.5497753715153736e-06 -6.9184906401900822e-05 0 3.7779128896061092e-06 -5.9182868232646833e-05 0 -4.5497753715153736e-06 -6.9184906401900822e-05 0 4.4896798401483664e-06 -7.1350513809967812e-05 0 -5.4986684817791943e-05 -7.5399651961752164e-05 0 -4.8264139729678576e-05 -8.325477814650944e-05 0 -3.8774104045172677e-05 -7.4706511004058647e-05 0 -5.4986684817791943e-05 -7.5399651961752164e-05 0 -3.8774104045172677e-05 -7.4706511004058647e-05 0 -4.2609813634335882e-05 -6.3835997750396817e-05 0 -5.7899477311755254e-05 -9.1157547305119771e-05 0 -4.1564487906374635e-05 -9.1332613309293433e-05 0 -4.8264139729678576e-05 -8.325477814650944e-05 0 -5.4986684817791943e-05 -7.5399651961752164e-05 0 -5.7899477311755254e-05 -9.1157547305119771e-05 0 -4.8264139729678576e-05 -8.325477814650944e-05 0 -4.1564487906374635e-05 -9.1332613309293433e-05 0 -3.8774104045172677e-05 -7.4706511004058647e-05 0 -4.8264139729678576e-05 -8.325477814650944e-05 0 -2.6726676145744013e-05 -8.18363135064759e-05 0 -2.6637846402431459e-05 -6.8761553489637059e-05 0 -3.8774104045172677e-05 -7.4706511004058647e-05 0 -2.6726676145744013e-05 -8.18363135064759e-05 0 -3.877410404517267e-05 -7.4706511004058647e-05 0 -4.1564487906374635e-05 -9.1332613309293433e-05 0 -2.6726676145744013e-05 -8.18363135064759e-05 0 -4.1564487906374635e-05 -9.1332613309293433e-05 0 -2.9093787039686933e-05 -9.636226192498212e-05 0 -2.6726676145744013e-05 -8.18363135064759e-05 0 -1.5574743744776642e-05 -6.8492264439022811e-05 0 -2.6637846402431459e-05 -6.8761553489637059e-05 0 -3.2441259853009163e-05 -6.0349661118313992e-05 0 -2.6637846402431459e-05 -6.8761553489637059e-05 0 -2.2533702553692921e-05 -5.9536958562243619e-05 0 -1.5574743744776642e-05 -6.8492264439022824e-05 0 -2.2533702553692921e-05 -5.9536958562243619e-05 0 -2.6637846402431459e-05 -6.8761553489637059e-05 0 -1.4320324631108172e-05 -5.0785265133950103e-05 0 -2.4008832674099499e-05 -5.0258064675072161e-05 0 -2.2533702553692921e-05 -5.9536958562243619e-05 0 -3.2441259853009163e-05 -6.0349661118313992e-05 0 -2.2533702553692921e-05 -5.9536958562243619e-05 0 -2.4008832674099499e-05 -5.0258064675072161e-05 0 -3.2441259853009163e-05 -6.0349661118313992e-05 0 -2.4008832674099499e-05 -5.0258064675072161e-05 0 -3.7213822978791049e-05 -5.1189920476966161e-05 0 -3.2441259853009163e-05 -6.0349661118313992e-05 0 -3.8774104045172677e-05 -7.4706511004058647e-05 0 -2.6637846402431459e-05 -6.8761553489637059e-05 0 -3.2441259853009163e-05 -6.0349661118313992e-05 0 -4.2609813634335882e-05 -6.3835997750396817e-05 0 -3.8774104045172677e-05 -7.4706511004058647e-05 0 -3.2441259853009163e-05 -6.0349661118313992e-05 0 -3.7213822978791049e-05 -5.1189920476966161e-05 0 -4.2609813634335882e-05 -6.3835997750396817e-05 0 -5.1502455003944253e-05 -6.071087146759603e-05 0 -4.2609813634335882e-05 -6.3835997750396817e-05 0 -3.7213822978791049e-05 -5.1189920476966161e-05 0 -5.1502455003944253e-05 -6.071087146759603e-05 0 -5.4986684817791943e-05 -7.5399651961752164e-05 0 -4.2609813634335882e-05 -6.3835997750396817e-05 0 -4.2542259012697053e-05 -3.5507882227451111e-05 0 -4.7446792793466725e-05 -4.7363108697115301e-05 0 -3.6660060848849395e-05 -3.9920097100473689e-05 0 -4.7446792793466725e-05 -4.7363108697115301e-05 0 -5.1502455003944253e-05 -6.071087146759603e-05 0 -3.7213822978791049e-05 -5.1189920476966161e-05 0 -4.7446792793466725e-05 -4.7363108697115301e-05 0 -3.7213822978791049e-05 -5.1189920476966161e-05 0 -3.6660060848849395e-05 -3.9920097100473689e-05 0 -2.7953810093564642e-05 -3.9570063884190929e-05 0 -3.6660060848849395e-05 -3.9920097100473689e-05 0 -3.7213822978791049e-05 -5.1189920476966161e-05 0 -2.7953810093564642e-05 -3.9570063884190929e-05 0 -3.7213822978791049e-05 -5.1189920476966161e-05 0 -2.4008832674099499e-05 -5.0258064675072161e-05 0 -1.4320324631108172e-05 -5.0785265133950103e-05 0 -2.043090897131657e-05 -4.1063670599262131e-05 0 -2.4008832674099499e-05 -5.0258064675072161e-05 0 -2.7953810093564642e-05 -3.9570063884190929e-05 0 -2.4008832674099499e-05 -5.0258064675072161e-05 0 -2.043090897131657e-05 -4.1063670599262131e-05 0 -1.3276949607228713e-05 -3.4669065139569773e-05 0 -2.1298505871937467e-05 -3.2860648059038576e-05 0 -2.043090897131657e-05 -4.1063670599262131e-05 0 -2.7953810093564642e-05 -3.9570063884190929e-05 0 -2.043090897131657e-05 -4.1063670599262131e-05 0 -2.1298505871937467e-05 -3.2860648059038576e-05 0 -1.7229146775965751e-05 -2.4195687276588882e-05 0 -2.863123215425796e-05 -2.8187833687158353e-05 0 -2.1298505871937467e-05 -3.2860648059038576e-05 0 -1.7229146775965751e-05 -2.4195687276588882e-05 0 -2.0127442872652639e-05 -1.9096032949044123e-05 0 -2.863123215425796e-05 -2.8187833687158353e-05 0 -2.7953810093564642e-05 -3.9570063884190929e-05 0 -2.1298505871937467e-05 -3.2860648059038576e-05 0 -2.863123215425796e-05 -2.8187833687158353e-05 0 -4.2542259012697053e-05 -3.5507882227451111e-05 0 -3.6660060848849395e-05 -3.9920097100473689e-05 0 -2.863123215425796e-05 -2.8187833687158353e-05 0 -2.7953810093564642e-05 -3.9570063884190929e-05 0 -2.863123215425796e-05 -2.8187833687158353e-05 0 -3.6660060848849395e-05 -3.9920097100473689e-05 0 -3.7676319282002424e-05 -2.5492691580488507e-05 0 -4.2542259012697053e-05 -3.5507882227451111e-05 0 -2.863123215425796e-05 -2.8187833687158353e-05 0 -3.8613856024946097e-06 -3.1601609873102382e-05 0 -6.8009618686668156e-06 -4.2610113870199091e-05 0 3.4116279437454838e-06 -4.3193827774276172e-05 0 -3.8613856024946097e-06 -3.1601609873102382e-05 0 3.4116279437454838e-06 -4.3193827774276172e-05 0 4.2600685704156579e-06 -2.8099771026290621e-05 0 3.4116279437454838e-06 -4.3193827774276172e-05 0 -6.8009618686668156e-06 -4.2610113870199091e-05 0 -5.4760496411928996e-06 -5.522309471150729e-05 0 -1.4320324631108172e-05 -5.0785265133950103e-05 0 -5.4760496411928996e-06 -5.522309471150729e-05 0 -6.8009618686668156e-06 -4.2610113870199091e-05 0 -1.4320324631108172e-05 -5.0785265133950103e-05 0 -1.327694960722871e-05 -3.4669065139569773e-05 0 -2.043090897131657e-05 -4.1063670599262131e-05 0 -1.4320324631108172e-05 -5.0785265133950103e-05 0 -6.8009618686668156e-06 -4.2610113870199091e-05 0 -1.3276949607228713e-05 -3.4669065139569773e-05 0 -3.8613856024946097e-06 -3.1601609873102382e-05 0 -1.3276949607228713e-05 -3.4669065139569773e-05 0 -6.8009618686668156e-06 -4.2610113870199091e-05 0 -3.8613856024946097e-06 -3.1601609873102382e-05 0 -9.4800763340662693e-06 -2.436420312072838e-05 0 -1.3276949607228713e-05 -3.4669065139569773e-05 0 -1.7229146775965751e-05 -2.4195687276588882e-05 0 -2.1298505871937467e-05 -3.2860648059038576e-05 0 -1.3276949607228713e-05 -3.4669065139569773e-05 0 -1.7229146775965751e-05 -2.4195687276588882e-05 0 -9.4800763340662676e-06 -2.436420312072838e-05 0 -1.2900423402096937e-05 -1.9011329047307174e-05 0 -1.7229146775965751e-05 -2.4195687276588882e-05 0 -1.3276949607228713e-05 -3.4669065139569773e-05 0 -9.4800763340662676e-06 -2.436420312072838e-05 0 -3.8613856024946097e-06 -3.1601609873102382e-05 0 -3.4059644891743388e-06 -2.1335346657534636e-05 0 -9.4800763340662676e-06 -2.436420312072838e-05 0 -3.4059644891743388e-06 -2.1335346657534636e-05 0 -3.8613856024946097e-06 -3.1601609873102382e-05 0 4.2600685704156579e-06 -2.8099771026290621e-05 0 2.7408377212277871e-06 -1.7586282329987775e-05 0 -3.4059644891743388e-06 -2.1335346657534636e-05 0 4.2600685704156579e-06 -2.8099771026290621e-05 0 7.9581330762962618e-06 -1.4776325190709756e-05 0 2.7408377212277871e-06 -1.7586282329987775e-05 0 4.2600685704156579e-06 -2.8099771026290621e-05 0 7.9581330762962618e-06 -1.4776325190709756e-05 0 4.8693253609843834e-06 -1.2247933848873609e-05 0 5.6746375719991972e-06 -1.1317947207104388e-05 0 7.9581330762962618e-06 -1.4776325190709756e-05 0 4.2600685704156579e-06 -2.8099771026290621e-05 0 1.4393956255358588e-05 -3.0796961379787493e-05 0 6.8046927450339911e-06 -1.4600875293727585e-05 0 1.0096155369272823e-05 -2.1690853027345707e-05 0 1.4393956255358588e-05 -3.0796961379787493e-05 0 4.2600685704156579e-06 -2.8099771026290621e-05 0 1.0587556684666944e-05 -3.8185306133949782e-05 0 3.4116279437454838e-06 -4.3193827774276172e-05 0 1.0587556684666944e-05 -3.8185306133949782e-05 0 4.2600685704156579e-06 -2.8099771026290621e-05 0 1.0096155369272823e-05 -2.1690853027345707e-05 0 1.0951409039805591e-05 -2.9923722134723832e-05 0 1.4393956255358588e-05 -3.0796961379787493e-05 0 1.0587556684666944e-05 -3.8185306133949782e-05 0 1.8739275234972801e-05 -4.3744964767907294e-05 0 1.0951409039805591e-05 -2.9923722134723832e-05 0 1.2234735940959346e-05 -3.9589430409462435e-05 0 1.8739275234972801e-05 -4.3744964767907294e-05 0 1.0587556684666944e-05 -3.8185306133949782e-05 0 1.1894744361103056e-05 -5.1158675140051362e-05 0 3.4116279437454838e-06 -4.3193827774276172e-05 0 1.1894744361103056e-05 -5.1158675140051362e-05 0 1.0587556684666944e-05 -3.8185306133949782e-05 0 7.8964661181170098e-06 -1.5617650829068847e-05 0 6.211548447178163e-06 -1.2390266900448113e-05 0 5.4665048543928803e-06 -1.7200946465390949e-05 0 3.3393814492134473e-06 -1.6187892371488494e-05 0 2.4283443377030478e-06 -2.1599368108836565e-05 0 5.4665048543928803e-06 -1.7200946465390949e-05 0 3.3393814492134473e-06 -1.6187892371488494e-05 0 5.4665048543928803e-06 -1.7200946465390949e-05 0 6.211548447178163e-06 -1.2390266900448113e-05 0 4.8693253609843834e-06 -1.2247933848873609e-05 0 3.3393814492134473e-06 -1.6187892371488494e-05 0 6.211548447178163e-06 -1.2390266900448113e-05 0 6.211548447178163e-06 -1.2390266900448113e-05 0 7.7045945644509003e-06 -9.1845139657060075e-06 0 5.6746375719991972e-06 -1.1317947207104388e-05 0 4.8693253609843834e-06 -1.2247933848873609e-05 0 6.2115484471781622e-06 -1.2390266900448111e-05 0 5.6746375719991972e-06 -1.1317947207104388e-05 0 7.9581330762962618e-06 -1.4776325190709756e-05 0 5.6746375719991972e-06 -1.1317947207104388e-05 0 6.564533210983337e-06 -9.8982484338812728e-06 0 5.6746375719991972e-06 -1.1317947207104388e-05 0 7.7045945644509003e-06 -9.1845139657060075e-06 0 6.564533210983337e-06 -9.8982484338812728e-06 0 7.7045945644509003e-06 -9.1845139657060075e-06 0 6.211548447178163e-06 -1.2390266900448113e-05 0 9.3565881133515855e-06 -1.2424452810463975e-05 0 7.7045945644509003e-06 -9.1845139657060075e-06 0 9.3565881133515855e-06 -1.2424452810463975e-05 0 1.1234125144399349e-05 -8.4412716914286333e-06 0 7.7045945644509003e-06 -9.1845139657060075e-06 0 1.1234125144399349e-05 -8.4412716914286333e-06 0 1.0027976902789749e-05 -5.40903625107339e-06 0 1.2701102063369008e-05 -3.3651293465102879e-06 0 1.1234125144399349e-05 -8.4412716914286333e-06 0 1.4123302413209531e-05 -6.580784761119805e-06 0 1.2701102063369008e-05 -3.3651293465102879e-06 0 1.0027976902789749e-05 -5.40903625107339e-06 0 1.1234125144399349e-05 -8.4412716914286333e-06 0 1.4606955729032699e-05 -1.1518633396329564e-05 0 1.4123302413209531e-05 -6.580784761119805e-06 0 1.1234125144399349e-05 -8.4412716914286333e-06 0 1.4606955729032699e-05 -1.1518633396329564e-05 0 1.2274681988472195e-05 -1.2311646128604645e-05 0 1.4767370659351183e-05 -1.6236750692531204e-05 0 1.4606955729032699e-05 -1.1518633396329564e-05 0 1.1234125144399349e-05 -8.4412716914286333e-06 0 1.2274681988472195e-05 -1.2311646128604645e-05 0 1.2075001119691131e-05 -1.5847854203527582e-05 0 1.2274681988472195e-05 -1.2311646128604643e-05 0 9.3565881133515855e-06 -1.2424452810463975e-05 0 1.1234125144399349e-05 -8.4412716914286333e-06 0 9.3565881133515838e-06 -1.2424452810463975e-05 0 1.2274681988472195e-05 -1.2311646128604645e-05 0 1.2075001119691131e-05 -1.5847854203527582e-05 0 1.4767370659351183e-05 -1.6236750692531204e-05 0 1.2274681988472195e-05 -1.2311646128604645e-05 0 7.8964661181170098e-06 -1.5617650829068847e-05 0 9.3565881133515855e-06 -1.2424452810463975e-05 0 6.211548447178163e-06 -1.2390266900448113e-05 0 1.2075001119691131e-05 -1.5847854203527582e-05 0 9.3565881133515855e-06 -1.2424452810463975e-05 0 1.035157940224726e-05 -1.8735953490729903e-05 0 7.8964661181170098e-06 -1.5617650829068847e-05 0 1.035157940224726e-05 -1.8735953490729903e-05 0 9.3565881133515855e-06 -1.2424452810463975e-05 0 7.8964661181170098e-06 -1.5617650829068847e-05 0 6.9412207195810333e-06 -2.0857908674628526e-05 0 1.035157940224726e-05 -1.8735953490729903e-05 0 1.291350575690648e-05 -2.4465652429271809e-05 0 1.4048849259757535e-05 -2.0318096628740614e-05 0 1.035157940224726e-05 -1.8735953490729903e-05 0 1.291350575690648e-05 -2.4465652429271809e-05 0 1.035157940224726e-05 -1.8735953490729903e-05 0 9.4745041812045689e-06 -2.3702365839034842e-05 0 6.9412207195810333e-06 -2.0857908674628526e-05 0 9.4745041812045689e-06 -2.3702365839034842e-05 0 1.035157940224726e-05 -1.8735953490729903e-05 0 1.7240983879332218e-05 -2.0895616215979487e-05 0 1.4767370659351183e-05 -1.6236750692531204e-05 0 1.4048849259757535e-05 -2.0318096628740614e-05 0 1.2075001119691131e-05 -1.5847854203527582e-05 0 1.4048849259757535e-05 -2.0318096628740614e-05 0 1.4767370659351183e-05 -1.6236750692531204e-05 0 1.2075001119691131e-05 -1.5847854203527582e-05 0 1.035157940224726e-05 -1.8735953490729903e-05 0 1.4048849259757535e-05 -2.0318096628740614e-05 0 1.291350575690648e-05 -2.4465652429271809e-05 0 1.7353797987020935e-05 -2.5549599051859437e-05 0 1.4048849259757535e-05 -2.0318096628740614e-05 0 1.7240983879332218e-05 -2.0895616215979487e-05 0 1.4048849259757535e-05 -2.0318096628740614e-05 0 1.7353797987020935e-05 -2.5549599051859437e-05 0 2.1829043773176826e-05 -2.8602077414372799e-05 0 1.7353797987020935e-05 -2.5549599051859437e-05 0 1.9538216735797107e-05 -3.1033704624244619e-05 0 1.291350575690648e-05 -2.4465652429271809e-05 0 1.562860883698898e-05 -3.015136097569934e-05 0 1.7353797987020935e-05 -2.5549599051859437e-05 0 1.562860883698898e-05 -3.015136097569934e-05 0 1.9538216735797107e-05 -3.1033704624244619e-05 0 1.7353797987020935e-05 -2.5549599051859437e-05 0 8.4871922872536723e-06 -2.799324696357034e-05 0 1.1664570646368368e-05 -2.9062041915882546e-05 0 9.4745041812045689e-06 -2.3702365839034842e-05 0 1.291350575690648e-05 -2.4465652429271809e-05 0 1.1664570646368368e-05 -2.9062041915882546e-05 0 1.562860883698898e-05 -3.015136097569934e-05 0 1.291350575690648e-05 -2.4465652429271809e-05 0 9.4745041812045689e-06 -2.3702365839034842e-05 0 1.1664570646368368e-05 -2.9062041915882546e-05 0 1.2909659066620319e-05 -3.4730036147690447e-05 0 1.562860883698898e-05 -3.0151360975699337e-05 0 1.1664570646368368e-05 -2.9062041915882546e-05 0 8.4871922872536723e-06 -2.799324696357034e-05 0 9.6259061275633992e-06 -3.1880633965163053e-05 0 1.1664570646368368e-05 -2.9062041915882546e-05 0 1.2909659066620319e-05 -3.4730036147690447e-05 0 1.1664570646368368e-05 -2.9062041915882546e-05 0 9.6259061275633992e-06 -3.1880633965163053e-05 0 8.4871922872536723e-06 -2.799324696357034e-05 0 6.3102646566253831e-06 -3.0497119733000624e-05 0 9.6259061275633992e-06 -3.1880633965163053e-05 0 8.4871922872536723e-06 -2.799324696357034e-05 0 5.6695550505928546e-06 -2.5289240485269581e-05 0 6.3102646566253831e-06 -3.0497119733000624e-05 0 8.4871922872536723e-06 -2.799324696357034e-05 0 9.4745041812045689e-06 -2.3702365839034842e-05 0 5.6695550505928546e-06 -2.5289240485269581e-05 0 2.3992473784748483e-06 -2.786592462189433e-05 0 6.3102646566253831e-06 -3.0497119733000624e-05 0 5.6695550505928546e-06 -2.5289240485269581e-05 0 2.4891344904788797e-05 -7.2163167434573998e-05 0 1.2204214615057383e-05 -8.091002379433019e-05 0 2.7522469720822492e-05 -8.7730453723822458e-05 0 1.3592864881377905e-05 -5.00264487783605e-05 0 1.5278831338672194e-05 -6.0953226247540265e-05 0 2.3992473784748483e-06 -2.786592462189433e-05 0 3.2123188696084808e-06 -3.4158037914333857e-05 0 6.3102646566253831e-06 -3.0497119733000624e-05 0 2.7522469720822492e-05 -8.7730453723822458e-05 0 1.2204214615057383e-05 -8.091002379433019e-05 0 1.6637936694757495e-05 -9.5662184093870282e-05 0 2.4891344904788797e-05 -7.2163167434573998e-05 0 1.2878117398555506e-05 -6.6572856257438555e-05 0 1.2204214615057383e-05 -8.091002379433019e-05 0 2.2015697599593182e-05 -5.751336171456227e-05 0 1.2878117398555506e-05 -6.6572856257438555e-05 0 2.4891344904788797e-05 -7.2163167434573998e-05 0 2.4283443377030483e-06 -2.1599368108836565e-05 0 2.3992473784748483e-06 -2.786592462189433e-05 0 5.6695550505928546e-06 -2.5289240485269581e-05 0 1.2234735940959346e-05 -3.9589430409462435e-05 0 1.3592864881377905e-05 -5.00264487783605e-05 0 2.2015697599593182e-05 -5.751336171456227e-05 0 1.1894744361103056e-05 -5.1158675140051362e-05 0 1.2878117398555506e-05 -6.6572856257438555e-05 0 3.7779128896061092e-06 -5.9182868232646833e-05 0 1.2878117398555506e-05 -6.6572856257438555e-05 0 1.1894744361103056e-05 -5.1158675140051362e-05 0 1.8739275234972801e-05 -4.3744964767907294e-05 0 1.1894744361103056e-05 -5.1158675140051362e-05 0 2.2015697599593182e-05 -5.751336171456227e-05 0 2.4283443377030483e-06 -2.1599368108836565e-05 0 6.9412207195810333e-06 -2.0857908674628526e-05 0 5.4665048543928803e-06 -1.7200946465390949e-05 0 7.8964661181170098e-06 -1.5617650829068847e-05 0 5.4665048543928794e-06 -1.7200946465390949e-05 0 6.9412207195810333e-06 -2.0857908674628526e-05 0 6.9412207195810333e-06 -2.0857908674628526e-05 0 5.6695550505928546e-06 -2.5289240485269581e-05 0 9.4745041812045689e-06 -2.3702365839034842e-05 0 2.4283443377030483e-06 -2.1599368108836565e-05 0 5.6695550505928546e-06 -2.5289240485269581e-05 0 6.9412207195810333e-06 -2.0857908674628526e-05 0 
</DataArray>
</PointData>
<CellData Scalars="region_id,cross_section_updated,displacement_divergence," Vectors="" Tensors="stress,">
<DataArray type="Float64" Name="region_id" format="ascii">
1 1 1 1 1 1 1 1 1 1 1 1 1 1 1 1 1 1 1 1 1 1 1 1 1 1 1 1 1 1 1 1 1 1 1 1 1 1 1 1 1 1 1 1 1 1 1 1 1 1 1 1 1 1 1 1 1 1 1 1 1 1 1 1 1 1 1 1 1 1 1 1 1 1 1 1 1 1 1 1 1 1 1 1 1 1 1 1 1 1 1 1 1 1 1 1 1 1 1 1 1 1 1 1 1 1 1 1 1 1 1 1 1 1 1 1 1 1 1 1 1 1 1 1 1 1 1 1 1 1 1 1 1 1 1 1 1 1 1 1 1 1 1 1 1 1 1 1 1 1 1 1 1 1 1 1 1 1 1 1 1 1 1 1 1 1 1 1 1 1 1 1 1 1 1 1 1 1 1 1 1 1 1 1 1 1 1 1 1 1 1 1 1 1 1 1 1 1 1 1 1 1 1 1 1 1 1 1 1 1 1 1 1 1 1 1 1 1 1 1 1 1 1 1 1 1 1 1 1 1 1 1 1 1 1 1 1 1 1 1 1 1 1 1 1 1 1 1 1 1 1 1 1 1 1 1 1 1 1 1 1 1 1 1 1 1 1 1 1 1 1 1 1 1 1 1 1 1 1 1 1 1 1 1 1 1 1 1 1 1 1 1 1 1 1 1 1 1 1 1 1 1 1 1 1 1 1 1 1 1 1 1 1 1 1 1 1 1 1 1 1 1 1 1 1 1 1 1 1 1 1 1 1 1 1 1 1 1 1 1 1 1 1 1 1 1 1 1 1 1 1 1 1 1 1 1 1 1 1 1 1 1 1 1 1 1 1 1 1 1 1 1 1 1 1 1 1 1 1 1 1 1 1 1 1 1 1 1 1 1 1 1 1 1 1 1 1 1 1 1 1 1 1 1 1 1 1 1 1 1 1 1 1 1 1 1 1 1 1 1 1 1 1 1 1 1 1 1 1 1 1 1 1 1 1 1 1 1 1 1 1 1 1 1 1 1 1 1 1 1 1 1 1 1 1 1 1 1 1 1 1 1 1 1 1 1 1 1 1 1 1 1 1 1 1 1 1 1 1 1 1 1 1 1 1 1 1 1 1 1 1 1 1 1 1 1 1 1 1 1 1 1 1 1 1 1 1 1 1 1 1 1 1 1 1 1 1 1 1 1 1 1 1 1 1 1 1 1 1 1 1 1 1 1 1 1 1 1 3 1 1 3 1 1 3 1 1 1 1 1 1 1 1 1 1 1 1 1 3 1 1 1 1 1 3 1 1 1 1 1 1 1 1 1 1 1 1 1 1 1 1 1 1 1 1 1 1 1 1 1 1 1 1 1 1 1 1 1 1 1 1 1 1 1 1 1 1 1 1 1 1 1 1 1 1 1 1 1 1 1 1 1 1 1 1 1 1 1 1 1 1 1 1 1 1 1 1 1 1 1 1 1 1 1 1 1 1 1 1 1 1 1 1 1 1 1 1 1 1 1 1 1 1 1 1 1 1 1 1 1 1 1 1 1 1 1 1 1 1 1 1 1 1 1 1 1 1 1 1 1 1 1 1 1 1 1 1 1 1 1 1 1 1 1 1 1 1 1 1 1 1 1 1 1 1 1 1 1 1 1 1 1 1 1 1 1 1 1 1 1 1 1 1 3 1 1 1 3 1 1 3 1 1 1 1 1 1 1 1 1 1 1 3 1 1 1 1 3 1 1 1 1 1 1 1 1 1 1 1 1 1 1 1 1 1 1 1 1 1 1 1 1 1 1 1 1 1 1 1 1 1 1 1 1 1 1 1 1 1 1 1 1 1 1 1 1 1 1 1 1 1 1 1 1 1 1 2 1 1 1 1 1 1 1 1 1 1 1 1 1 1 2 1 1 2 1 2 1 1 1 1 1 1 1 1 1 1 1 1 1 2 1 1 1 1 1 1 1 1 1 1 1 1 1 1 1 1 1 1 1 1 1 1 1 1 1 1 1 1 1 1 1 1 1 1 1 1 1 1 1 1 1 1 1 1 1 1 1 1 1 1 1 1 1 1 1 1 1 1 1 1 1 1 1 1 1 1 1 1 1 1 1 1 1 1 1 1 1 1 1 1 1 1 1 1 1 1 1 1 1 1 1 1 1 1 1 1 1 1 1 1 1 1 1 1 1 1 1 1 1 1 1 1 1 1 1 1 1 1 1 1 1 1 1 1 1 1 1 1 1 1 1 1 1 1 1 1 2 1 1 2 1 2 1 1 1 1 1 1 1 1 1 1 1 1 1 1 1 1 1 1 1 1 1 1 1 1 1 1 1 1 1 1 1 1 1 1 1 1 1 1 1 1 1 1 1 1 1 1 1 2 1 1 1 1 1 2 1 1 1 1 1 1 1 
</DataArray>
<DataArray type="Float64" Name="stress" NumberOfComponents="9" format="ascii">
-0.039113632416262298 0.0020468232722002993 0 0.0020468232722002993 -0.0051416951157454791 0 0 0 -0.011063831883001942 -0.037215526743963133 0.003159812852746816 0 0.003159812852746816 -0.012382186462803989 0 0 0 -0.01239942830169178 -0.039883649522365991 0.0037655128558592129 0 0.0037655128558592129 0.0023010774766942218 0 0 0 -0.0093956430114179434 -0.038285805327633697 0.0046122403317257199 0 0.0046122403317257199 -0.0053125092342323627 0 0 0 -0.010899578640466517 -0.031403196542772079 0.0099053818250206521 0 0.0099053818250206521 -0.010471205903914553 0 0 0 -0.010468600611671659 -0.03139801362739706 0.0099105215825216857 0 0.0099105215825216857 -0.01045430013820939 0 0 0 -0.010463078441401614 -0.036207437346853201 0.0095478594395561282 0 0.0095478594395561282 -0.0025481398772101982 0 0 0 -0.009688894306015855 -0.037239490685671235 0.0085939323207897839 0 0.0085939323207897839 -0.0032889216277743362 0 0 0 -0.010132103078361392 -0.034817033242469292 0.011227589875417774 0 0.011227589875417774 -0.0025192804643576466 0 0 0 -0.0093340784267067385 -0.027851957190125426 0.011621178981454334 0 0.011621178981454334 -0.00052755248693115916 0 0 0 -0.0070948774192641471 -0.040127675376223026 0.011928369599998052 0 0.011928369599998052 -0.0012929866181318472 0 0 0 -0.010355165498588711 -0.027508584159997629 0.013012882442828774 0 0.013012882442828774 0.00081925944465140177 0 0 0 -0.0066723311788365533 -0.049604580111777048 0.0093137111319721404 0 0.0093137111319721404 -0.00062402926117616567 0 0 0 -0.012557152343238303 -0.038697489699693589 0.0098855285758927113 0 0.0098855285758927113 0.00061775476677725441 0 0 0 -0.0095199337332290829 -0.058675591301122251 0.0036226340284958836 0 0.0036226340284958836 -0.0019171941888428828 0 0 0 -0.015148196372491284 -0.047222134536820518 0.0046216279840645188 0 0.0046216279840645188 -0.00026416922390629094 0 0 0 -0.011871575940181706 -0.043506274944619332 0.0062738851585203001 0 0.0062738851585203001 0.0026664313079269334 0 0 0 -0.010209960909173105 -0.043960125833635337 0.0095406477238436302 0 0.0095406477238436302 -0.00064912563056898978 0 0 0 -0.011152312866051079 -0.0052687380445306103 0.013843316416458041 0 0.013843316416458041 -0.0017532810467622516 0 0 0 -0.0017555047728232153 -0.010429128184035821 0.016597601981471713 0 0.016597601981471713 -0.0018940379551100409 0 0 0 -0.003080791534786468 -0.012223547797982811 0.01276388841747921 0 0.01276388841747921 -0.0011235911194562576 0 0 0 -0.0033367847293597659 -0.02183047978046283 0.014745826338072037 0 0.014745826338072037 -0.0016005307776851274 0 0 0 -0.0058577526395369901 -0.023007280750586723 0.013441560664932141 0 0.013441560664932141 -0.0043588341919595999 0 0 0 -0.0068415287356365841 -0.014592380680524281 0.014918354177963871 0 0.014918354177963871 -0.0023310616312294252 0 0 0 -0.004230860577938424 -0.014812008661685715 0.013236892320247592 0 0.013236892320247592 -0.0049423987412808056 0 0 0 -0.0049386018507416298 -0.024266928802730483 0.014787473825143229 0 0.014787473825143229 -0.00061339670836423055 0 0 0 -0.0062200813777736723 -0.026122239509401922 0.011741594607784034 0 0.011741594607784034 -0.00087351651301900701 0 0 0 -0.006748939005605234 -0.021804750398100946 0.012842288028092258 0 0.012842288028092258 -0.0022077532037671835 0 0 0 -0.0060031259004670323 -0.0099861821485401833 0.01268275066763771 0 0.01268275066763771 -0.00035839357636417712 0 0 0 -0.0025861439312260884 -0.010568928771797565 0.013862500439412563 0 0.013862500439412563 -0.0015842550646970044 0 0 0 -0.003038295959123645 -0.0048941780359628585 0.016069070372226602 0 0.016069070372226602 -0.0014831494065287894 0 0 0 -0.0015943318606229085 -0.00066616894067142267 0.012204971187348528 0 0.012204971187348528 0.00017410547210234585 0 0 0 -0.00012301586714226834 -0.0015946850548504959 0.014563283185108272 0 0.014563283185108272 -0.0010713766390677715 0 0 0 -0.00066651542347956512 -0.0020101758894971351 0.011302194148303612 0 0.011302194148303612 0.00016690367465053979 0 0 0 -0.00046081805371165144 -0.011720572636042344 0.015287980449953963 0 0.015287980449953963 -0.00076624097516449219 0 0 0 -0.0031217034028017086 -0.026239220332625018 0.015075787685113605 0 0.015075787685113605 -0.00055773715392341827 0 0 0 -0.0066992393716371057 -0.021175411409265609 0.015022874394579333 0 0.015022874394579333 -0.00079066178264884657 0 0 0 -0.0054915182979786148 -0.014263239716298736 0.012315079430448728 0 0.012315079430448728 0.00069476591188079306 0 0 0 -0.0033921184511044832 -0.026383046501510125 0.012331911990306917 0 0.012331911990306917 0.0011745239845503685 0 0 0 -0.0063021306292399409 -0.029399632073685174 0.015138420833189281 0 0.015138420833189281 -0.00014328706069049318 0 0 0 -0.0073857297835939169 -0.021594010511202789 0.012082605043088926 0 0.012082605043088926 0.0002512220016090902 0 0 0 -0.005335697127398429 -0.015553065825837323 0.015553076691858941 0 0.015553076691858941 0.0014227041715830988 0 0 0 -0.003532590413563557 -0.015599081229621755 0.012175381506545218 0 0.012175381506545218 0.0019788528201185734 0 0 0 -0.0034050571023757914 -0.0043064634297451179 0.011598792750402442 0 0.011598792750402442 0.0012961103213406946 0 0 0 -0.00075258827710110747 -0.014315317530993518 0.015583186510793809 0 0.015583186510793809 -0.00012349008044082455 0 0 0 -0.0036097019028585838 -0.011332547084848151 0.01067723908681591 0 0.01067723908681591 0.002737312877502715 0 0 0 -0.0021488085518363599 0.005625723397079594 0.010849518408923498 0 0.010849518408923498 0.0010340951517674724 0 0 0 0.0016649546372117657 -0.0027330758585436335 0.013614131722974286 0 0.013614131722974286 0.0012866106045078818 0 0 0 -0.00036161631350893619 -0.058271070278167941 0.0041976973532050869 0 0.0041976973532050869 -0.002326036218439971 0 0 0 -0.015149276624151975 -0.046385144534887734 0.010663354771925164 0 0.010663354771925164 5.6024311298377705e-05 0 0 0 -0.011582280055897332 -0.068988092079216745 0.0056163666939684481 0 0.0056163666939684481 -0.00027239852793745079 0 0 0 -0.017315122651788552 -0.047274272626583222 0.007660569120416974 0 0.007660569120416974 0.001871186381631505 0 0 0 -0.011350771561237928 -0.036714781002616964 0.011039185113264155 0 0.011039185113264155 0.0013110817742970453 0 0 0 -0.0088509248070799927 -0.03806594686191915 0.012421894152080219 0 0.012421894152080219 -0.0005266885799931828 0 0 0 -0.0096481588604780903 -0.038861873930985197 0.013855462850294178 0 0.013855462850294178 -0.00035839141433577013 0 0 0 -0.0098050663363302305 -0.044723750976550979 0.0094947731457722742 0 0.0094947731457722742 0.0011868076329197078 0 0 0 -0.010884235835907826 -0.032012528514180474 0.011518585206474547 0 0.011518585206474547 0.00015655036873708783 0 0 0 -0.0079639945363608484 -0.046729139200693041 0.012968584294927791 0 0.012968584294927791 -0.00037283166982159111 0 0 0 -0.011775492717628649 -0.037273259382422638 0.01031802867099749 0 0.01031802867099749 -0.00021436043699991914 0 0 0 -0.0093719049548556498 -0.045610700732225812 0.0097876153282406755 0 0.0097876153282406755 0.0011610947838769925 0 0 0 -0.011112401487087203 -0.063335212606776381 0.0076767470268481524 0 0.0076767470268481524 -0.00050801622559849303 0 0 0 -0.015960807208093716 -0.060108773792830493 0.0078014543526517917 0 0.0078014543526517917 -0.00079516228938659485 0 0 0 -0.015225984020554272 -0.0582650533633889 0.0047051254979237848 0 0.0047051254979237848 0.00064292649243994499 0 0 0 -0.014405531717737239 -0.078637529329938297 0.0054507797855261062 0 0.0054507797855261062 -0.00054771757897463177 0 0 0 -0.019796311727228233 -0.083717554756107759 0.0046879505907172284 0 0.0046879505907172284 -0.00043367757941699912 0 0 0 -0.021037808083881192 -0.061436879821428224 0.0060630413296361048 0 0.0060630413296361048 0.0017710821155740341 0 0 0 -0.014916449426463555 -0.07055384338539096 0.0040742231190637537 0 0.0040742231190637537 0.0011019001792657249 0 0 0 -0.017362985801531321 -0.096384761669572799 0.0032050892335281334 0 0.0032050892335281334 0.0016308782866055749 0 0 0 -0.02368847084574181 -0.07356511535459373 0.009199981813683325 0 0.009199981813683325 0.0023852692296348343 0 0 0 -0.017794961531239696 -0.072405167334806952 0.0022553783359865603 0 0.0022553783359865603 -0.00047932499412992047 0 0 0 -0.018221123082234222 -0.077876862277258471 0.0034895230822723708 0 0.0034895230822723708 0.0031049971087857009 0 0 0 -0.018692966292118224 -0.10749037032225689 -1.1095209594328395e-05 0 -1.1095209594328395e-05 -0.00078570715405615332 0 0 0 -0.027069019369078268 -0.045106891218938433 0.0049271605569476268 0 0.0049271605569476268 0.0045229646077464547 0 0 0 -0.010145981652798005 -0.037400696229394181 0.012813999397308411 0 0.012813999397308411 0.0032869059115246888 0 0 0 -0.0085284475794673697 -0.055594218852900376 0.0085533566245999306 0 0.0085533566245999306 1.2731672979215958e-06 0 0 0 -0.01389823642140061 -0.054795709918017237 0.0095913986713008301 0 0.0095913986713008301 0.002297402129457296 0 0 0 -0.013124576947139989 -0.037091376060105263 0.013602358855564564 0 0.013602358855564564 0.0024488276328336264 0 0 0 -0.0086606371068179092 -0.06355048806775622 0.012550014792136781 0 0.012550014792136781 0.0030672950744913968 0 0 0 -0.015120798248316188 -0.053157585771377032 0.0084590336869662663 0 0.0084590336869662663 -0.00030429960418199356 0 0 0 -0.013365471343889769 -0.047557532397411013 0.013106169624513426 0 0.013106169624513426 0.0016167698660039323 0 0 0 -0.011485190632851748 -0.034137032317208646 0.014178105072594756 0 0.014178105072594756 0.0012981388327763521 0 0 0 -0.0082097233711080735 -0.022851745835631848 0.013326533189398271 0 0.013326533189398271 0.0014729076421323567 0 0 0 -0.0053447095483748685 -0.02253335744364842 0.011374604060203981 0 0.011374604060203981 0.0023572450832113033 0 0 0 -0.0050440280901092802 -0.020885269186282421 0.01061100047710528 0 0.01061100047710528 0.0046171416700993778 0 0 0 -0.004067031879045749 -0.01090542997928437 0.013207215118149745 0 0.013207215118149745 0.0020406053603498116 0 0 0 -0.00221620615473364 -0.036622929499762417 0.011222938007351026 0 0.011222938007351026 0.0023934315348688928 0 0 0 -0.0085573744912233757 -0.00071570676685549575 0.010029030238915645 0 0.010029030238915645 0.0046978548582505483 0 0 0 0.00099553702284875881 -0.0034585672261954296 0.013881510300281751 0 0.013881510300281751 0.00096571472151554469 0 0 0 -0.00062321312616996777 -0.0085910271253054338 0.0093091640517019847 0 0.0093091640517019847 0.005824351140857581 0 0 0 -0.00069166899611196146 0.0063045154414663202 0.0055456980603664635 0 0.0055456980603664635 0.0079362761723168994 0 0 0 0.0035601979034458036 0.0027616846851976837 0.011678482786649588 0 0.011678482786649588 0.0038578157051609701 0 0 0 0.0016548750975896621 -0.0067812042152690828 0.0091244626396014411 0 0.0091244626396014411 0.0094536681138947115 0 0 0 0.00066811597465640457 0.0076384747836208064 0.0062141727538001928 0 0.0062141727538001928 0.0091067354877368209 0 0 0 0.0041863025678394034 0.0076463405487834785 0.0050915861336085534 0 0.0050915861336085534 0.015255871625598591 0 0 0 0.0057255530435955243 -0.02208077123211593 0.013482309609673417 0 0.013482309609673417 0.0033365122080213222 0 0 0 -0.0046860647560236501 -0.031012852151953006 0.0079072927740107685 0 0.0079072927740107685 0.0039304755088964763 0 0 0 -0.0067705941607641377 -0.0077627234552457057 0.0097603317550628427 0 0.0097603317550628427 0.0043825048534560061 0 0 0 -0.00084505465044742035 -0.016107652952989451 0.0060416010725080696 0 0.0060416010725080696 0.0073964081379681995 0 0 0 -0.002177811203755306 -0.020798403315425287 0.012683372688013322 0 0.012683372688013322 0.0078498028231078487 0 0 0 -0.0032371501230793673 -0.029822902720246194 0.011380888973132115 0 0.011380888973132115 0.0096978722091381475 0 0 0 -0.0050312576277770221 -0.019203223059404376 0.0064779695229335577 0 0.0064779695229335577 0.019517940869177824 0 0 0 7.8679452443372599e-05 -0.028696588431985845 0.00093685182737122952 0 0.00093685182737122952 0.0099609551548218538 0 0 0 -0.0046839083192909961 0.025000567647771657 0.00014360401666460229 0 0.00014360401666460229 0.017999646251695783 0 0 0 0.010750053474866864 -0.010549140202245179 0.0094129354639146887 0 0.0094129354639146887 0.013897305588359474 0 0 0 0.0008370413465285647 0.002378526737629158 0.003204547677649508 0 0.003204547677649508 0.014714966860292528 0 0 0 0.0042733733994804179 0.0055921532824354525 0.0046922767565093088 0 0.0046922767565093088 0.024621225255619689 0 0 0 0.0075533446345137922 0.019301764598113488 -0.0041848582055714345 0 -0.0041848582055714345 0.026612244055928436 0 0 0 0.011478502163510476 0.0010430801425414006 0.00064334765776320746 0 0.00064334765776320746 0.037310449141421204 0 0 0 0.0095883823209906745 -0.0015934147326251424 -0.0094257643465845559 0 -0.0094257643465845559 0.03557875621979667 0 0 0 0.008496335371792868 0.0074764903751197986 -0.01466389317146731 0 -0.01466389317146731 0.029851473489914349 0 0 0 0.0093319909662585576 0.019996221899977185 -0.0077305062554504228 0 -0.0077305062554504228 0.056692830592258603 0 0 0 0.019172263123058891 -0.026253010547316907 -0.0036774010219982056 0 -0.0036774010219982056 0.022884231095918639 0 0 0 -0.00084219486284957401 -0.0063969262004104632 -0.0023022705786731185 0 -0.0023022705786731185 0.017516346047577624 0 0 0 0.0027798549617917973 -0.0085876279906781788 -0.013310420113477966 0 -0.013310420113477966 0.021375248384364609 0 0 0 0.0031969050984216041 -0.030222342638605695 -0.00043895673368432586 0 -0.00043895673368432586 0.01156867795325639 0 0 0 -0.0046634161713373368 -0.035546237114299606 -0.010286489396595044 0 -0.010286489396595044 0.013045105413664437 0 0 0 -0.0056252829251588199 -0.051430614918361373 -0.0039668235983639326 0 -0.0039668235983639326 0.0090034809652136394 0 0 0 -0.010606783488286933 -0.059001144512798073 0.003640145666358563 0 0.003640145666358563 0.0050160253314647241 0 0 0 -0.013496279795333341 -0.070264649276410879 -0.0086456045952848781 0 -0.0086456045952848781 0.007180141756168601 0 0 0 -0.015771126880060576 -0.079188665404699501 0.0010640604863073611 0 0.0010640604863073611 0.0019571702351971199 0 0 0 -0.019307873792375627 -0.11228477941958823 -0.00065580529351279314 0 -0.00065580529351279314 0.0028664835050191684 0 0 0 -0.027354573978642271 -0.083438605362152321 0.002445416194757466 0 0.002445416194757466 0.0024693101715856092 0 0 0 -0.020242323797641751 -0.081419539196461721 -0.0017848789874526927 0 -0.0017848789874526927 0.0025334460654175689 0 0 0 -0.019721523282761059 -0.086141194810618132 -0.00075847865757630584 0 -0.00075847865757630584 -0.00045537081970881133 0 0 0 -0.021649141407581722 -0.071997047628949262 0.0079804659063939798 0 0.0079804659063939798 0.0025355645169441443 0 0 0 -0.017365370778001321 -0.11260559096933315 0.0034876456034650853 0 0.0034876456034650853 0.00069297581359284433 0 0 0 -0.027978153788935062 -0.082791632401729168 0.0076983972204017898 0 0.0076983972204017898 0.0022639909554332573 0 0 0 -0.020131910361573947 -0.055639481521092833 0.010808762439385257 0 0.010808762439385257 0.0051451677197359158 0 0 0 -0.012623578450339235 -0.042943118596674566 0.007922438201898363 0 0.007922438201898363 0.0086725456402815641 0 0 0 -0.008567643239098274 -0.060170625745178952 0.0010653043965472286 0 0.0010653043965472286 0.0047423972309881268 0 0 0 -0.013857057128547692 0.020125342634604724 -0.0029771901405858843 0 -0.0029771901405858843 0.052218412676269046 0 0 0 0.018085938827718442 0.018983697421001894 -0.0047946462720721769 0 -0.0047946462720721769 0.042891937616610636 0 0 0 0.015468908759403136 0.018689256786451437 -0.0066640050193888176 0 -0.0066640050193888176 0.037616519020826258 0 0 0 0.014076443951819426 0.015795810222784156 -0.00030399322406306478 0 -0.00030399322406306478 0.044490021643620911 0 0 0 0.015071457966601271 0.02162596307562847 0.0060150171111581358 0 0.0060150171111581358 0.048448625324409196 0 0 0 0.017518647100009412 0.023935636226415459 0.0045469930606206986 0 0.0045469930606206986 0.05813919706334976 0 0 0 0.020518708322441286 0.01581947975634828 -0.0030480212293794579 0 -0.0030480212293794579 0.056353450205133021 0 0 0 0.018043232490370313 0.014273607456050851 -0.0021868278582657702 0 -0.0021868278582657702 0.054427643275227394 0 0 0 0.017175312682819563 0.019449974189661091 -0.0033157047520195925 0 -0.0033157047520195925 0.053518930483090379 0 0 0 0.018242226168187884 0.017482585462376597 -0.0022231775616775792 0 -0.0022231775616775792 0.050971729858640194 0 0 0 0.017113578830254196 0.0071416187473692244 -0.0024791038079418556 0 -0.0024791038079418556 0.04999667497064654 0 0 0 0.014284573429503948 0.014254057150605581 -0.0049607210252202716 0 -0.0049607210252202716 0.054263073753179666 0 0 0 0.017129282725946323 0.011569878259903146 -0.006190654401252417 0 -0.006190654401252417 0.051975591988626266 0 0 0 0.015886367562132339 0.01302403335793333 -0.010324161253877653 0 -0.010324161253877653 0.055195932738467235 0 0 0 0.017054991524100133 0.01106743606582658 -0.0055060938824022356 0 -0.0055060938824022356 0.063304149188454423 0 0 0 0.018592896313570223 0.04757903114523427 -0.043411845576589989 0 -0.043411845576589989 0.099500667265277523 0 0 0 0.036769924602627964 0.0038265251189625524 -0.023108123199021419 0 -0.023108123199021419 0.06129726897329757 0 0 0 0.016280948523065011 0.043873125408560254 -0.027773448757921912 0 -0.027773448757921912 0.054720939239485539 0 0 0 0.024648516162011445 0.0055649422154996145 -0.010117836569311634 0 -0.010117836569311634 0.055613058318124048 0 0 0 0.015294500133405907 0.050274538261578308 -0.0084611565145252254 0 -0.0084611565145252254 0.084992191575873177 0 0 0 0.033816682459362854 0.040755488441626991 -0.017264826141087278 0 -0.017264826141087278 0.045560936030314303 0 0 0 0.021579106117985317 0.073390696543770007 -0.023452709498673813 0 -0.023452709498673813 0.059124947407706463 0 0 0 0.033128910987869117 0.032200076071384781 -0.016053190876701956 0 -0.016053190876701956 0.044592800050158199 0 0 0 0.019198219030385752 0.023194469121457381 -0.0021411465175359898 0 -0.0021411465175359898 0.042904395871379175 0 0 0 0.016524716248209143 0.046132870665935237 -0.010463613135014732 0 -0.010463613135014732 0.033946840593128746 0 0 0 0.020019927814765991 0.022095117910693254 -0.0033364299414799375 0 -0.0033364299414799375 0.027659243372388398 0 0 0 0.012438590320770408 0.029847088327849096 -0.0042552027184636285 0 -0.0042552027184636285 0.019978776912612635 0 0 0 0.012456466310115424 0.021352369243765726 -0.015243531071645167 0 -0.015243531071645167 0.048395879214157014 0 0 0 0.017437062114480692 0.018248445322403349 -0.015484166151309306 0 -0.015484166151309306 0.035628748955882306 0 0 0 0.013469298569571408 0.031459718846551625 -0.013276199118227331 0 -0.013276199118227331 0.040212447797988882 0 0 0 0.017918041661135135 0.020339274930360501 -0.0063528698717977734 0 -0.0063528698717977734 0.021240190557767415 0 0 0 0.010394866372031981 0.024758283049559789 -0.0065319604014927295 0 -0.0065319604014927295 0.038326791038102687 0 0 0 0.015771268521915616 0.023913455225250978 -0.004669844715554458 0 -0.004669844715554458 0.024318823734655506 0 0 0 0.012058069739976616 0.023700572948060855 0.0031094724501618287 0 0.0031094724501618287 0.021384453780581382 0 0 0 0.011271256682160554 0.019878898554415887 0.00097154181436523782 0 0.00097154181436523782 0.011849073593432798 0 0 0 0.0079319930369621729 0.01895563487603092 -0.0010002182036139597 0 -0.0010002182036139597 0.019623741195661182 0 0 0 0.0096448440179230203 0.023388619075902766 -0.001604293792575151 0 -0.001604293792575151 0.015164083131800538 0 0 0 0.0096381755519258303 0.019794542354671329 0.0039861666796629329 0 0.0039861666796629329 0.016712031160539993 0 0 0 0.0091266433788028296 0.011427967550588938 0.0079668054738095406 0 0.0079668054738095406 0.010380691575292471 0 0 0 0.0054521647814703509 0.017393356247285972 0.0025431181868864252 0 0.0025431181868864252 0.0095959566021171002 0 0 0 0.0067473282123507667 0.015573413203044577 0.0089480530605231309 0 0.0089480530605231309 0.008105339324811639 0 0 0 0.0059196881319640501 0.011941697981023524 0.006910118673943969 0 0.006910118673943969 0.0047904995590142344 0 0 0 0.0041830493850094318 0.0071702674846729798 0.011774701836873989 0 0.011774701836873989 0.0036928287819569493 0 0 0 0.0027157740666574823 0.023195389370913862 0.0025574565876254262 0 0.0025574565876254262 0.014510469786971661 0 0 0 0.0094264647894713848 0.021724188064288327 0.0013689578704428208 0 0.0013689578704428208 0.012936609337197327 0 0 0 0.0086651993503714109 0.020740555670416945 0.0062043454243494792 0 0.0062043454243494792 0.01154055924042971 0 0 0 0.0080702787277116741 0.01863900825115376 0.0051270586266357367 0 0.0051270586266357367 0.0093400388606547022 0 0 0 0.006994761777952118 0.023233957122950927 0.0038190570916461376 0 0.0038190570916461376 0.016381992776574181 0 0 0 0.0099039874748812762 0.025732550051336754 0.0085999855682249125 0 0.0085999855682249125 0.010261870910044019 0 0 0 0.0089986052403451915 0.03132842263388555 0.0090719666165486115 0 0.0090719666165486115 0.016351055939804522 0 0 0 0.011919869643422527 0.031716131577185086 0.0083741069764313638 0 0.0083741069764313638 0.014026817142346361 0 0 0 0.011435737179882857 0.026457009780361685 0.0038432472015554452 0 0.0038432472015554452 0.018661201975337528 0 0 0 0.011279552938924801 0.026628293497066295 0.003848190862317219 0 0.003848190862317219 0.024651656348707328 0 0 0 0.012819987461443402 0.022728932857753275 0.0016383733075805516 0 0.0016383733075805516 0.021599511761362152 0 0 0 0.011082111154778843 0.027179277242559353 0.0026125523518291571 0 0.0026125523518291571 0.034714128776842282 0 0 0 0.015473351504850385 0.02992122316515659 0.0067046583329143563 0 0.0067046583329143563 0.026329610747521513 0 0 0 0.014062708478169521 0.020285429148095786 0.0006348307005795157 0 0.0006348307005795157 0.031481223065077779 0 0 0 0.0129416630532934 0.023792598270118488 -0.0011888437253018366 0 -0.0011888437253018366 0.042767383714363671 0 0 0 0.016639995496120559 0.020040041838871491 -0.0038789047575284617 0 -0.0038789047575284617 0.029011113185287419 0 0 0 0.012262788756039731 0.031867860409557566 0.010478669550522651 0 0.010478669550522651 0.053743780978137076 0 0 0 0.02140291034692365 0.02353774519628923 0.0059255111289442421 0 0.0059255111289442421 0.036276883284238011 0 0 0 0.014953657120131813 0.026912863917694086 0.0041563729859596405 0 0.0041563729859596405 0.04717174665119625 0 0 0 0.01852115264222258 0.029898235457503249 0.0071756149294218748 0 0.0071756149294218748 0.027193414437931239 0 0 0 0.014272912473858607 0.033368308225889723 0.011168535898781942 0 0.011168535898781942 0.034482108062797147 0 0 0 0.016962604072171709 0.034416521447137985 0.010736114428709118 0 0.010736114428709118 0.037220939749412964 0 0 0 0.017909365299137728 0.036260990428866706 0.011066271205608193 0 0.011066271205608193 0.018732725589242976 0 0 0 0.013748429004527435 0.036817399308154329 0.011539877484367616 0 0.011539877484367616 0.022293115563301307 0 0 0 0.014777628717863915 0.04331071592794019 0.013438419290794805 0 0.013438419290794805 0.015993033615539928 0 0 0 0.014825937385870021 0.041603608589171087 0.011948582544693533 0 0.011948582544693533 0.0091940913776954736 0 0 0 0.01269942499171663 0.036672081876243406 0.0093623015635375742 0 0.0093623015635375742 0.0039077848134062357 0 0 0 0.010144966672412405 0.036222762443227786 0.011342141472984853 0 0.011342141472984853 0.011500539802976897 0 0 0 0.011930825561551167 0.037103139133491322 0.010099009219529016 0 0.010099009219529016 0.010134131654038148 0 0 0 0.011809317696882362 0.027087991859578931 0.0066717706743900894 0 0.0066717706743900894 0.010434784646183172 0 0 0 0.0093806941264405232 0.02797891430828757 0.0095537040998549556 0 0.0095537040998549556 0.0055595152653515612 0 0 0 0.0083846073934097792 0.032213658895002335 0.010006197114772832 0 0.010006197114772832 0.0065779729123999903 0 0 0 0.0096979079518505883 0.033166997435539435 0.010206319141824915 0 0.010206319141824915 0.0095717536888783386 0 0 0 0.010684687781104454 0.033988208570619918 0.0088833781585244201 0 0.0088833781585244201 0.0025630559857693982 0 0 0 0.0091378161390973239 0.033817925926538317 0.010471926302466048 0 0.010471926302466048 0.0021661283379420457 0 0 0 0.0089960135661200837 0.027227709268077657 0.0097100962621901182 0 0.0097100962621901182 0.0020209946988429053 0 0 0 0.0073121759917301431 0.038762616579992706 0.0096237031142054272 0 0.0096237031142054272 0.0012787668769745214 0 0 0 0.0100103458642418 0.03821606796657142 0.0077800917723629074 0 0.0077800917723629074 0.00029789425706434371 0 0 0 0.0096284905559089386 0.043676041007094317 0.0090297068212447582 0 0.0090297068212447582 0.0016375833952507884 0 0 0 0.011328406100586276 0.040444877401225127 0.0083965165837479941 0 0.0083965165837479941 0.00095074006722255244 0 0 0 0.01034890436711192 0.038241083815225056 0.010335154220649821 0 0.010335154220649821 0.0042192245301689302 0 0 0 0.010615077086348504 0.0070252559007450291 0.011116756622163503 0 0.011116756622163503 0.0053713966512546583 0 0 0 0.0030991631379999217 0.01485472832671289 0.0096529946437669805 0 0.0096529946437669805 0.002206802755448118 0 0 0 0.0042653827705402504 0.0075670864555423614 0.011839903509265063 0 0.011839903509265063 0.0021710223825939026 0 0 0 0.0024345272095340625 0.02005269201519911 0.0089809266907223094 0 0.0089809266907223094 0.0010596883790588568 0 0 0 0.0052780950985644969 0.016460546039042279 0.010313146801196061 0 0.010313146801196061 0.0064306796243721737 0 0 0 0.0057228064158536193 0.020705627704017758 0.0095215822563746097 0 0.0095215822563746097 0.0054046869525577051 0 0 0 0.0065275786641438502 0.022676707489984842 0.0068368607179625767 0 0.0068368607179625767 0.0054731361820546508 0 0 0 0.0070374609180098848 0.02355233670199704 0.011005522342222351 0 0.011005522342222351 0.0076076161285029142 0 0 0 0.0077899882076249947 0.026319306316216932 0.0086358850535875192 0 0.0086358850535875192 0.0020331767847776849 0 0 0 0.0070881207752486637 0.02191007468331339 0.0091309881641789548 0 0.0091309881641789548 0.0026137351210176948 0 0 0 0.0061309524510827738 0.026965869963299041 0.011026998524938244 0 0.011026998524938244 0.0011562808070626762 0 0 0 0.0070305376925904293 0.018722629512503832 0.011881934620597848 0 0.011881934620597848 0.0034054579478052446 0 0 0 0.0055320218650772648 0.017059899806344845 0.010739168448608311 0 0.010739168448608311 0.00096107288506014354 0 0 0 0.0045052431728512428 0.0087395304868760626 0.011388159207552298 0 0.011388159207552298 0.0010040144971464396 0 0 0 0.0024358862460056273 0.0074386280315427884 0.013425989522865944 0 0.013425989522865944 0.00027065451631209242 0 0 0 0.0019273206369637176 0.0070711504479064758 0.011672347729660588 0 0.011672347729660588 0.0007632410606177864 0 0 0 0.0019585978771310686 -0.00011653066063960563 0.013956584016761295 0 0.013956584016761295 0.00024587494864028447 0 0 0 3.233607200016711e-05 0.0049926259121311212 0.014984642621918806 0 0.014984642621918806 -0.00023940861515062833 0 0 0 0.0011883043242451215 -0.0009671726865896485 0.013197921949358052 0 0.013197921949358052 0.0011183062866012006 0 0 0 3.7783400002884548e-05 0.0053944928593424556 0.011540283526038007 0 0.011540283526038007 -0.00033033411377197258 0 0 0 0.0012660396863926199 0.01324784259435568 0.013435308339418733 0 0.013435308339418733 0.00060901664136606137 0 0 0 0.0034642148089304384 0.011949126158317794 0.011734920666191518 0 0.011734920666191518 0.00086889489108538109 0 0 0 0.0032045052623507937 0.014585796854949887 0.013861091539183518 0 0.013861091539183518 0.00068360108273793352 0 0 0 0.0038173494844219516 0.018945586175080544 0.010209275761912141 0 0.010209275761912141 0.00070023931837707998 0 0 0 0.0049114563733644069 0.020206319413316805 0.011401808268201504 0 0.011401808268201504 0.0016730037307906842 0 0 0 0.0054698307860268757 0.026349716896759894 0.011613633679275134 0 0.011613633679275134 0.0005922859588541815 0 0 0 0.0067355007139035259 0.020446745168318278 0.010569127904232709 0 0.010569127904232709 0.003724830658531901 0 0 0 0.0060428939567125466 0.017617206798676927 0.014266923404853086 0 0.014266923404853086 0.0020892038291153055 0 0 0 0.004926602656948058 0.015247239851449389 0.012466830317848484 0 0.012466830317848484 0.0050825036819367201 0 0 0 0.0050824358833465267 0.0089655096733655456 0.01610287734383397 0 0.01610287734383397 0.0006374103563352787 0 0 0 0.0024007300074252065 0.0051702691698504418 0.013414307402648311 0 0.013414307402648311 0.0017215098881190991 0 0 0 0.0017229447644923851 -0.00040679539941910342 0.017015052739565426 0 0.017015052739565426 -0.0012489193361052073 0 0 0 -0.00041392868388107941 0.03741030380656004 0.0072906354946852721 0 0.0072906354946852721 0.0024369414359730057 0 0 0 0.0099618113106332614 0.03884547779449013 0.0080757967968388307 0 0.0080757967968388307 0.00034363051013937274 0 0 0 0.0097972770761573826 0.032947581155719538 0.0091365737375597063 0 0.0091365737375597063 0.00091306043349131949 0 0 0 0.0084651603973027179 0.033131327262192187 0.0097388729655172208 0 0.0097388729655172208 0.00074568651023247667 0 0 0 0.0084692534431061693 0.027202069303617717 0.0098406495164427912 0 0.0098406495164427912 0.0024920750036129292 0 0 0 0.0074235360768076641 0.031132126901469361 0.0094031472831448033 0 0.0094031472831448033 0.0032543975752569176 0 0 0 0.008596631119181573 0.02431352639309509 0.010762213461317595 0 0.010762213461317595 0.0080998079102152249 0 0 0 0.0081033335758275808 0.024517217401323958 0.01213871350881 0 0.01213871350881 0.004670299757936168 0 0 0 0.0072968792898150323 0.029800759997001734 0.0093933258347620868 0 0.0093933258347620868 0.0099321149783440661 0 0 0 0.0099332187438364496 0.030131008457966985 0.00927711463163804 0 0.00927711463163804 0.0049240289616642834 0 0 0 0.0087637593549078179 0.036877537809805502 0.0064948082078209084 0 0.0064948082078209084 0.0058447273369569858 0 0 0 0.010680566286690625 0.033803193695286622 0.0082109730668866263 0 0.0082109730668866263 0.0017683949403054086 0 0 0 0.0088928971588980044 0.032545232444452683 0.0077542540838267194 0 0.0077542540838267194 0.005505086248055905 0 0 0 0.0095125796731271497 0.033326613054544908 0.0074194624556780976 0 0.0074194624556780976 0.011107544615285212 0 0 0 0.011108539417457527 0.035472927690292221 0.0046721146004729177 0 0.0046721146004729177 0.0039421868918956566 0 0 0 0.0098537786455469671 0.038533612292127171 0.0023020624798144734 0 0.0023020624798144734 0.012835942681236992 0 0 0 0.012842388743341041 0.034963368768580048 0.0010159674812326243 0 0.0010159674812326243 0.0024955003318345541 0 0 0 0.0093647172751036498 0.041509781896720964 0.00081042792810038611 0 0.00081042792810038611 0.0041148547215176055 0 0 0 0.011406159154559642 0.040976392843864617 0.0033719318267776289 0 0.0033719318267776289 0.0023503719571833109 0 0 0 0.010831691200261985 0.041911226755182635 0.0049307552481601038 0 0.0049307552481601038 0.00089386557821611451 0 0 0 0.010701273083349689 0.039781738870782873 0.0025716758243339265 0 0.0025716758243339265 -0.00097551039153633001 0 0 0 0.0097015571198116341 0.045426480230204729 0.0027546144205463281 0 0.0027546144205463281 0.00076778005631724256 0 0 0 0.01154856507163049 0.041942340419860079 0.0045261631461560453 0 0.0045261631461560453 -0.0027629758834548023 0 0 0 0.0097948411341013154 0.043219315707222941 0.00077405176676091387 0 0.00077405176676091387 -0.0050637392169681633 0 0 0 0.0095388941225636945 0.039883258079789929 -0.0045799616470408814 0 -0.0045799616470408814 -0.0056270154162608253 0 0 0 0.0085640606658822765 0.042368336217683565 -0.0014017119421516093 0 -0.0014017119421516093 -0.00064429446595299332 0 0 0 0.010431010437932641 0.039902120913013484 -0.00087277459820314716 0 -0.00087277459820314716 0.00056758416275102998 0 0 0 0.01011742626894113 0.038113755774203721 -0.0012171460328958758 0 -0.0012171460328958758 0.012706980992530616 0 0 0 0.012705184191683584 0.037546001913640756 -0.0045167269779083754 0 -0.0045167269779083754 0.012504624341325819 0 0 0 0.012512656563741644 0.034476716931625566 -0.0038583091994191707 0 -0.0038583091994191707 0.0029188825390494763 0 0 0 0.0093488998676687588 0.031194051871573692 -0.009391499771986082 0 -0.009391499771986082 0.010395247377917921 0 0 0 0.010397324812372903 0.037999744126662585 -0.0057168233684522576 0 -0.0057168233684522576 0.0023299939065723925 0 0 0 0.010082434508308744 0.029557432156839709 -0.0092899519127121501 0 -0.0092899519127121501 -0.0010197756250219618 0 0 0 0.007134414132954436 0.018896211031539954 -0.013882344499384067 0 -0.013882344499384067 0.006292424791663663 0 0 0 0.0062971589558009043 0.020370555218070782 -0.015556965301035709 0 -0.015556965301035709 -0.0039872125048466545 0 0 0 0.0040958356783060354 0.0089192039857899641 -0.019987321806044931 0 -0.019987321806044931 -0.005033349586232902 0 0 0 0.00097146359988926553 0.020230756021834769 -0.015926073446540602 0 -0.015926073446540602 -0.0090683690648764997 0 0 0 0.0027905967392395682 0.024771098816906881 -0.012551180657946215 0 -0.012551180657946215 -0.0060770058057531412 0 0 0 0.0046735232527884297 0.030514892634716326 -0.010123146680805061 0 -0.010123146680805061 -0.0014709966012093861 0 0 0 0.0072609740083767367 0.016212224522160364 -0.015215659072924912 0 -0.015215659072924912 -0.0059797562513092262 0 0 0 0.0025581170677127923 0.029788317914294312 -0.010286593891855107 0 -0.010286593891855107 -0.00641652267882078 0 0 0 0.0058429488088683808 0.039550375228081538 -0.0060773041523962193 0 -0.0060773041523962193 -0.0081273670638164486 0 0 0 0.0078557520410662725 0.041515283029495795 -0.0032096031596792213 0 -0.0032096031596792213 -0.0037256564532346485 0 0 0 0.0094474066440652857 0.043511066603042034 -0.0046712390006520242 0 -0.0046712390006520242 -0.005767373993363599 0 0 0 0.0094359231524196105 0.04231292108239168 -0.0040154483815377853 0 -0.0040154483815377853 -0.0091676316136813929 0 0 0 0.0082863223671775735 0.052337814822259736 -7.0005262049967383e-05 0 -7.0005262049967383e-05 -0.0073686660379502569 0 0 0 0.011242287196077368 0.034609044818023682 -0.011150221150641893 0 -0.011150221150641893 -0.011458839805581425 0 0 0 0.0057875512531105639 0.026803045992754855 -0.015550092456067088 0 -0.015550092456067088 -0.0099256268483789711 0 0 0 0.0042193547860939692 0.034737841388106851 -0.010684385053031674 0 -0.010684385053031674 -0.0086522658161475585 0 0 0 0.0065213938929898265 0.037626142283541421 -0.0077139610011219828 0 -0.0077139610011219828 -0.0082471871101480326 0 0 0 0.0073447387933483488 0.020687858842697252 -0.015984791071580372 0 -0.015984791071580372 -0.011944853903434097 0 0 0 0.0021857512348157949 0.035173879724910977 -0.016169028318150546 0 -0.016169028318150546 -0.012527944704615553 0 0 0 0.0056614837550738508 0.042844236276246367 -0.012682516612310561 0 -0.012682516612310561 -0.0086186259560414834 0 0 0 0.0085564025800512165 0.039487527890918826 -0.010475885618358247 0 -0.010475885618358247 -0.012175295657108629 0 0 0 0.0068280580584525429 0.057611018356317108 -0.0045527763029529055 0 -0.0045527763029529055 -0.0065118559720890104 0 0 0 0.012774790596057021 0.0426945016185818 -0.016042202113626877 0 -0.016042202113626877 -0.006679105938517893 0 0 0 0.0090038489200159871 0.04096456453809566 -0.015047368755226661 0 -0.015047368755226661 -0.009890436166289835 0 0 0 0.0077685320929514537 0.048729696383063167 -0.00031220229224390109 0 -0.00031220229224390109 -0.0066931811560587313 0 0 0 0.010509128806751098 0.050453159218723696 -0.0073173742637037201 0 -0.0073173742637037201 -0.0090086987326918992 0 0 0 0.010361115121507955 0.056810067853238694 0.0014047317500614021 0 0.0014047317500614021 -0.0081980311955832143 0 0 0 0.012153009164413864 0.065841328426789691 0.0060755214004407478 0 0.0060755214004407478 -0.00033743907965986739 0 0 0 0.016375972336782459 0.055807751124386865 0.0079836011340324708 0 0.0079836011340324708 0.00078947623474850221 0 0 0 0.01414930683978384 0.05865666680470958 0.0076273297966337611 0 0.0076273297966337611 0.0016800386416005834 0 0 0 0.015084176361577523 0.052885515244006906 0.0054343302352488736 0 0.0054343302352488736 -0.0042736606204527537 0 0 0 0.012152963655888546 0.052937489048556802 0.0099672049802415723 0 0.0099672049802415723 0.0023083573812682223 0 0 0 0.013811461607456259 0.055228777334675683 0.012931722345533934 0 0.012931722345533934 0.0088010290195139271 0 0 0 0.016007451588547408 0.050002831114174182 0.0096212034763332645 0 0.0096212034763332645 0.0024619715153220562 0 0 0 0.013116200657374063 0.049127183927299818 0.013349929486954754 0 0.013349929486954754 0.010638462503246772 0 0 0 0.014941411607636642 0.043686885397729747 0.0099515099322411496 0 0.0099515099322411496 0.0038991811644535426 0 0 0 0.01189651664054581 0.042654685851311117 0.009970835427237295 0 0.009970835427237295 0.0035570166743015144 0 0 0 0.011552925631403159 0.046717898684679973 0.0068069989132595937 0 0.0068069989132595937 -0.0022316916997998492 0 0 0 0.011121551746220024 0.048803844883716793 0.0082675372798947759 0 0.0082675372798947759 0.00078382784682639456 0 0 0 0.012396918182635795 0.042282635455658593 0.0062896195883931274 0 0.0062896195883931274 -0.002620489629015673 0 0 0 0.0099155364566607361 0.047829568670344831 0.0050896282015128452 0 0.0050896282015128452 -0.00070212827362854321 0 0 0 0.011781860099179075 0.044459986035523293 0.0030374471633408083 0 0.0030374471633408083 -0.0049502854259715016 0 0 0 0.0098774251523879482 0.047418855254488385 0.0018097736491282568 0 0.0018097736491282568 -0.0031430248124444731 0 0 0 0.011068957610510976 0.046345638974752225 -0.0021745465517449911 0 -0.0021745465517449911 -0.0057442494555754488 0 0 0 0.010150347379794195 0.048419539680322921 0.0041326971039384059 0 0.0041326971039384059 -0.0040604413855649737 0 0 0 0.011089774573689499 0.051839355492155514 0.0050495642348766861 0 0.0050495642348766861 -0.0033735384776828704 0 0 0 0.012116454253618155 -0.084853002927629637 -0.0064038529222735542 0 -0.0064038529222735542 -0.0035617969017634754 0 0 0 -0.022103699957348271 -0.058955125768592097 -0.016723875703383781 0 -0.016723875703383781 -0.0016645169210578441 0 0 0 -0.015154910672412482 -0.064899546963983631 -0.0078447574634016963 0 -0.0078447574634016963 -0.00058379771945911343 0 0 0 -0.016370836170860686 -0.058051002978530483 -0.010827215729145334 0 -0.010827215729145334 0.004578583035024883 0 0 0 -0.0133681049858764 -0.051139455458829627 -0.0073713517278174503 0 -0.0073713517278174503 0.004033733235209995 0 0 0 -0.011776430555904908 -0.049523030959808076 -0.0051637227313356708 0 -0.0051637227313356708 -0.0061236932025110716 0 0 0 -0.013911681040579785 -0.0475169058763227 -0.0067988128336436433 0 -0.0067988128336436433 -0.01580825563652211 0 0 0 -0.0158312903782112 -0.049492311070262189 -0.0086585446294698276 0 -0.0086585446294698276 -0.0061221090588337336 0 0 0 -0.013903605032273982 -0.048332962977755689 -0.014825121137802759 0 -0.014825121137802759 -0.0043760441251323376 0 0 0 -0.013177251775722008 -0.044512645754831798 -0.015721987165190895 0 -0.015721987165190895 -0.0027985852570640846 0 0 0 -0.011827807752973969 -0.038217985400712452 -0.015762718341915422 0 -0.015762718341915422 -0.012744923924532071 0 0 0 -0.012740727331311132 -0.038210245530793205 -0.015768558119598663 0 -0.015768558119598663 -0.01272014737887338 0 0 0 -0.012732598227416647 -0.042762677615238595 -0.018628920134576364 0 -0.018628920134576364 -0.0053620514928168356 0 0 0 -0.012031182277013854 -0.029610470631320593 -0.019228666250083022 0 -0.019228666250083022 -0.0017307032910351544 0 0 0 -0.0078352934805889351 -0.048418222805220845 -0.017275291883083389 0 -0.017275291883083389 0.00070374376926852361 0 0 0 -0.011928619758988082 -0.069945197323858843 -0.017409885019878904 0 -0.017409885019878904 -0.0030240715478600938 0 0 0 -0.018242317217929724 -0.02826293888666332 -0.022945509913638536 0 -0.022945509913638536 -0.0015600291673998554 0 0 0 -0.007455742013515787 -0.051722472164656932 -0.021129848511916963 0 -0.021129848511916963 -0.0051481167552547349 0 0 0 -0.014217647229977915 -0.025222508084537139 -0.019888204211816772 0 -0.019888204211816772 -0.0046812935969846592 0 0 0 -0.0074759504203804408 -0.020047207080271467 -0.020114898414823727 0 -0.020114898414823727 -0.0071528306291188531 0 0 0 -0.0068000094273475784 -0.024842781013845027 -0.023920625761628306 0 -0.023920625761628306 -0.0050969754323758193 0 0 0 -0.0074849391115552125 -0.022592119815621339 -0.021816692006526691 0 -0.021816692006526691 -0.0029539666249574978 0 0 0 -0.0063865216101447065 -0.023891776308530559 -0.020648414455912069 0 -0.020648414455912069 -0.0061735612245741936 0 0 0 -0.0075163343832761881 -0.010262271970279749 -0.018112638272445521 0 -0.018112638272445521 -0.0034298712931310803 0 0 0 -0.0034230358158527071 -0.0093179865560906704 -0.021442233803132978 0 -0.021442233803132978 -0.0057737004948778953 0 0 0 -0.0037729217627421397 -0.0045932275975472392 -0.017294054121163936 0 -0.017294054121163936 -0.0027006464280282666 0 0 0 -0.0018234685063938764 -0.0054146026144950773 -0.02257637862831105 0 -0.02257637862831105 -0.0048100480098203571 0 0 0 -0.0025561626560788586 0.0047841345714181825 -0.01696562592591392 0 -0.01696562592591392 0.0015963215025731766 0 0 0 0.0015951140184978399 0.013800269192471497 -0.014326132109097514 0 -0.014326132109097514 -0.0016930406620920824 0 0 0 0.0030268071325948512 0.0055284208959312173 -0.02152784602780659 0 -0.02152784602780659 -0.0073677386819144958 0 0 0 -0.00045982944649581789 0.0003551517950612787 -0.021524517789288301 0 -0.021524517789288301 -0.007267709479584189 0 0 0 -0.001728139421130731 0.0011108500064163336 -0.017746807308790621 0 -0.017746807308790621 -0.006870910922429363 0 0 0 -0.0014400152290032558 0.013815310483509834 -0.021080170252543766 0 -0.021080170252543766 -0.012464783023834539 0 0 0 0.00033763186491882549 0.022113146354531602 -0.017408331644081062 0 -0.017408331644081062 -0.0085892055844110221 0 0 0 0.0033809851925301407 0.00183450078505327 -0.025021231518710253 0 -0.025021231518710253 -0.012939725814866935 0 0 0 -0.0027763062574534172 0.020929659150549406 -0.021668361122800524 0 -0.021668361122800524 -0.013742252194111397 0 0 0 0.0017968517391094979 0.0028208418006248921 -0.023083981590679224 0 -0.023083981590679224 -0.0056561918769800421 0 0 0 -0.00070883751908878793 -0.0049296437316619576 -0.02873602041596382 0 -0.02873602041596382 -0.010603511991977316 0 0 0 -0.0038832889309098131 0.019370652973917518 -0.019620700030362155 0 -0.019620700030362155 -0.0060036170707849501 0 0 0 0.0033417589757831385 -0.0035208624917983621 -0.025852539510870687 0 -0.025852539510870687 -0.0055229239448499404 0 0 0 -0.0022609466091620747 0.00022794422193193539 -0.031181786421113571 0 -0.031181786421113571 -0.0044981321549032588 0 0 0 -0.0010675469832428265 -0.031329858040880537 -0.027145662619248959 0 -0.027145662619248959 -0.011229435541791233 0 0 0 -0.010639823395667939 -0.027679914757385807 -0.028043749594772065 0 -0.028043749594772065 -0.0075048315295917836 0 0 0 -0.0087961865717443993 -0.029672791630120716 -0.022851740195021807 0 -0.022851740195021807 -0.002913545060875683 0 0 0 -0.0081465841727491051 -0.0025036077045008619 -0.022215045281103477 0 -0.022215045281103477 -0.0045694724164897591 0 0 0 -0.0017682700302476574 -0.018119882776990549 -0.024664819842226404 0 -0.024664819842226404 -0.0088829762692339137 0 0 0 -0.0067507147615561182 -0.047304128292618472 -0.023384331421396558 0 -0.023384331421396558 -0.0052814437535040615 0 0 0 -0.013146393011530637 -0.044033872919200252 -0.021114533972076299 0 -0.021114533972076299 0.0015510103412862825 0 0 0 -0.01062071564447848 -0.062660306664472989 -0.019758306790936209 0 -0.019758306790936209 -0.00060211696012502092 0 0 0 -0.015815605906149513 -0.047564575906160318 -0.02881446654507118 0 -0.02881446654507118 -0.0011658336926634871 0 0 0 -0.012182602399705943 -0.060563080597324653 -0.02270595384205501 0 -0.02270595384205501 -0.0060085387266129459 0 0 0 -0.016642904830984389 -0.033047972924359903 -0.032964668229259891 0 -0.032964668229259891 -0.002421618195005755 0 0 0 -0.0088673977798414162 -0.059901576213017282 -0.025473099839955566 0 -0.025473099839955566 0.0022330619258940157 0 0 0 -0.014417128571780808 -0.094098546874046188 -0.018070990174311449 0 -0.018070990174311449 -0.005709985717604657 0 0 0 -0.024952133147912715 -0.10243815276250545 -0.021611169627962997 0 -0.021611169627962997 -0.0035757484502481202 0 0 0 -0.026503475303188404 -0.12390458095983037 -0.011547339094063705 0 -0.011547339094063705 -0.0010630799517637665 0 0 0 -0.031241915227898515 -0.088786779616325917 -0.0092008149046962414 0 -0.0092008149046962414 0.00015579466569404926 0 0 0 -0.022157746237657969 -0.10292520023455308 -0.010496454276534076 0 -0.010496454276534076 -0.00089706123380164926 0 0 0 -0.025955565367088682 -0.063792312364694265 -0.020759313100827483 0 -0.020759313100827483 -0.00081151270700589515 0 0 0 -0.01615095626792503 -0.087302103023891936 -0.008421177725401463 0 -0.008421177725401463 -0.0050380519320705891 0 0 0 -0.023085038738990621 -0.064526700244246601 -0.013634441006951286 0 -0.013634441006951286 0.0033365614860426107 0 0 0 -0.015297534689550998 -0.13549880476835807 -0.01078759796373957 0 -0.01078759796373957 0.0061187059068815997 0 0 0 -0.03234502471536916 -0.19798806364777616 -0.0024718809194662211 0 -0.0024718809194662211 -0.00064611530269481632 0 0 0 -0.049658544737617716 -0.1256778769972054 -0.024563980994020657 0 -0.024563980994020657 0.0058076261083055934 0 0 0 -0.02996756272222495 -0.12683146964217445 -0.0079211669880630761 0 -0.0079211669880630761 0.0012432536116537829 0 0 0 -0.031397054007630154 -0.16890788050033934 -0.0091138760546447851 0 -0.0091138760546447851 0.0020330077053490325 0 0 0 -0.041718718198747562 -0.14347868670831984 -0.01100712184086401 0 -0.01100712184086401 -0.00054883208706077088 0 0 0 -0.036006879698845168 -0.097337337928318349 -0.011571392926416409 0 -0.011571392926416409 0.0017234257010162951 0 0 0 -0.023903478056825508 -0.1137260573283338 -0.010013132802782293 0 -0.010013132802782293 0.001483233783238648 0 0 0 -0.028060705886273761 -0.10905573388681669 -0.026281840653316908 0 -0.026281840653316908 0.0024492447502066361 0 0 0 -0.026651622284152517 -0.064780857751143187 -0.027567257246880777 0 -0.027567257246880777 0.0023696234816420192 0 0 0 -0.015602808567375278 -0.06543086448397048 -0.026158005465242797 0 -0.026158005465242797 -0.0011601079436478912 0 0 0 -0.016647743106904592 -0.044089359802281 -0.026144061636727969 0 -0.026144061636727969 -0.0078853912215090805 0 0 0 -0.012993687755947531 -0.064863301455276898 -0.036637468223244263 0 -0.036637468223244263 0.0074060531745664959 0 0 0 -0.014364312070177597 -0.086369508368561512 -0.018422036359448106 0 -0.018422036359448106 0.0016143332784147001 0 0 0 -0.021188793772536713 -0.072916086597011445 -0.015405947682722992 0 -0.015405947682722992 0.0063643311442940706 0 0 0 -0.016637938863179314 -0.014905717599194207 -0.029793325391431535 0 -0.029793325391431535 0.0087562875644212335 0 0 0 -0.0015373575086932295 -0.0094482759593515278 -0.026412499200286613 0 -0.026412499200286613 0.023775388596323846 0 0 0 0.0035817781592430778 0.015292907335650655 -0.034516498643457814 0 -0.034516498643457814 0.0043468930040185261 0 0 0 0.0049099500849172986 -0.053695559173648898 -0.026569121204477159 0 -0.026569121204477159 0.0083523068513465908 0 0 0 -0.011335813080575581 -0.020603764215820466 -0.033575399308991047 0 -0.033575399308991047 0.0033662713809100783 0 0 0 -0.0043093732087275882 -0.049245908060560714 -0.036058730035087382 0 -0.036058730035087382 -0.0013160133561116102 0 0 0 -0.012640480354168092 -0.02248798936622156 -0.03705780160249756 0 -0.03705780160249756 -0.0055989474440504769 0 0 0 -0.0070217342025680109 -0.017166658137520552 -0.02828051722375706 0 -0.02828051722375706 -0.0020684210022237498 0 0 0 -0.0048087697849360737 0.0081740886914399846 -0.033978333114360715 0 -0.033978333114360715 -0.0014481135410849971 0 0 0 0.001681493787588746 -0.020300152327741405 -0.028847386224618556 0 -0.028847386224618556 0.0014209637459914153 0 0 0 -0.0047197971454374958 0.0092967896851453066 -0.025121537895335402 0 -0.025121537895335402 -0.0025699491516498821 0 0 0 0.0016817101333738561 0.037148815062973156 -0.030071663241970754 0 -0.030071663241970754 -0.0021621942025436391 0 0 0 0.0087466552151073858 0.025224004258567953 -0.028589011965120287 0 -0.028589011965120287 -0.0058355500403499058 0 0 0 0.0048471135545545083 0.049779219857844823 -0.02253536908148451 0 -0.02253536908148451 -0.0049808680498530378 0 0 0 0.011199587951997946 0.02548067027949269 -0.01965878832303217 0 -0.01965878832303217 -0.0073522712207897134 0 0 0 0.0045320997646757458 0.038888691210032314 -0.017958160180713598 0 -0.017958160180713598 0.002383220996038507 0 0 0 0.010317978051517709 0.065521881772993756 -0.024435192821543418 0 -0.024435192821543418 0.0054643331664497585 0 0 0 0.017746553734860875 0.017718034752532356 -0.025135085412873723 0 -0.025135085412873723 0.0099425358632021874 0 0 0 0.0069151426539336373 0.05243591006790646 -0.030164090996708831 0 -0.030164090996708831 0.012578678115162362 0 0 0 0.016253647045767206 0.050856265197842178 -0.016289372936367424 0 -0.016289372936367424 0.020104456686284286 0 0 0 0.017740180471031618 0.077271446395119708 -0.0095331375413217762 0 -0.0095331375413217762 0.045550254071674068 0 0 0 0.030705425116698465 0.088809697326594148 -0.025127238499172519 0 -0.025127238499172519 0.032531212713239624 0 0 0 0.03033522750995845 0.029604135815785308 -0.02021708186678009 0 -0.02021708186678009 0.02935990377041317 0 0 0 0.014741009896549615 0.014516907796187639 -0.036533058287835596 0 -0.036533058287835596 0.031811500591694991 0 0 0 0.011582102096970651 0.056820617381812211 -0.036085410449509192 0 -0.036085410449509192 0.071759978586777295 0 0 0 0.032145148992147404 0.079179624104304042 -0.021916748748716575 0 -0.021916748748716575 0.13692180878452564 0 0 0 0.05402535822220747 0.083837848203339602 0.019054414710614309 0 0.019054414710614309 0.11446284455509634 0 0 0 0.049575173189608981 0.06552581805871982 0.01334718240259819 0 0.01334718240259819 0.1491395596219669 0 0 0 0.053666344420171708 0.048704808392957377 0.0085819717798877038 0 0.0085819717798877038 0.092411132164567755 0 0 0 0.035278985139381214 0.02622584413099633 -0.019588725663341799 0 -0.019588725663341799 0.069402906684261939 0 0 0 0.023907187703814538 0.047099628555732659 -0.0042928277026245826 0 -0.0042928277026245826 0.070107747215806204 0 0 0 0.029301843942884709 0.0047712420204797656 0.022300200549115662 0 0.022300200549115662 0.080132616853407723 0 0 0 0.021225964718471851 -0.018423338654552424 0.0054292738165420962 0 0.0054292738165420962 0.046195502995850735 0 0 0 0.0069430410853245639 -0.046439934617666434 0.013848557213864233 0 0.013848557213864233 0.058698921611603394 0 0 0 0.0030647467484842816 -0.022468732342934478 -0.017380632909428064 0 -0.017380632909428064 0.023609151126729455 0 0 0 0.00028510469594869581 -0.053967779378288977 -0.0080524166249767715 0 -0.0080524166249767715 0.024812665016818058 0 0 0 -0.0072887785903677366 -0.0086639585332540792 -0.013539732420828232 0 -0.013539732420828232 0.066047518509977199 0 0 0 0.01434588999418078 -0.049740033587284412 -0.031859832385900622 0 -0.031859832385900622 0.028877214992220714 0 0 0 -0.0052157046487658837 -0.091255756686176442 -0.026328984957046345 0 -0.026328984957046345 0.012556114180073408 0 0 0 -0.019674910626525738 -0.10099702381618823 -0.0059914612704801279 0 -0.0059914612704801279 0.010749879654189165 0 0 0 -0.022561786040499784 -0.068631141662823969 -0.02312639951520043 0 -0.02312639951520043 0.025225865838820694 0 0 0 -0.010851318956000805 -0.093622138553915366 0.0082235559031452188 0 0.0082235559031452188 0.024027159068429393 0 0 0 -0.017398744871371431 -0.062175329062812534 0.0030648247381472871 0 0.0030648247381472871 0.01416112910683931 0 0 0 -0.012003549988993223 -0.12199872890971616 0.020549152452189856 0 0.020549152452189856 0.01079348111840539 0 0 0 -0.027801311947827645 -0.098074811482066121 0.0062557301709879054 0 0.0062557301709879054 0.03396400996134552 0 0 0 -0.016027700380180115 -0.10261549069708764 -0.0057178349350964289 0 -0.0057178349350964289 0.012545124435088262 0 0 0 -0.022517591565499928 -0.14435741379740816 0.0051051976025627277 0 0.0051051976025627277 0.010330315437631077 0 0 0 -0.033506774589944277 -0.14065265620411568 -0.0010477402333815555 0 -0.0010477402333815555 0.0060298835916541282 0 0 0 -0.033655693153115479 -0.21035781310714138 0.0018853597020990819 0 0.0018853597020990819 0.0068447071227977219 0 0 0 -0.05087827649608595 -0.1520217131724321 -0.0050611500559566425 0 -0.0050611500559566425 0.0036731927311071111 0 0 0 -0.03708713011033124 -0.21335253611134838 -0.0078193492994296891 0 -0.0078193492994296891 0.0044231491582821247 0 0 0 -0.052232346738266627 -0.15757303722451438 0.00020656798592255665 0 0.00020656798592255665 -0.00094421507702537738 0 0 0 -0.039629313075384885 -0.12327873439214856 -0.01909986324101981 0 -0.01909986324101981 0.0082678564322397202 0 0 0 -0.028752719489977239 -0.14654812894541791 -0.018584139581546685 0 -0.018584139581546685 0.0058817597197406424 0 0 0 -0.035166592306419303 0.064907180494816891 0.023764033959379226 0 0.023764033959379226 0.030338336469584351 0 0 0 0.023811379241100335 0.06751154304440643 0.025020771997590459 0 0.025020771997590459 0.03658572385952788 0 0 0 0.026024316725983591 0.07178863248611754 0.027243931229296303 0 0.027243931229296303 0.037858397143340404 0 0 0 0.027411757407364491 0.054837617614513681 0.023326692823901349 0 0.023326692823901349 0.046883648449419585 0 0 0 0.025430316515983334 0.041101958195703572 0.018095574290737687 0 0.018095574290737687 0.053329435198233105 0 0 0 0.023607848348484176 0.047888301134190403 0.019488912227572628 0 0.019488912227572628 0.032147045828065206 0 0 0 0.020008836740563918 0.033791348935679658 0.01342866621886739 0 0.01342866621886739 0.037462937410818839 0 0 0 0.017813571586624624 0.055084658445311546 0.021129373898734906 0 0.021129373898734906 0.034605497534698174 0 0 0 0.022422538995002416 0.043579423194335762 0.014560976534547219 0 0.014560976534547219 0.019498391684771542 0 0 0 0.015769453719776821 0.043741451004826938 0.016257998675257221 0 0.016257998675257221 0.030402352921543339 0 0 0 0.01853595098159256 0.043194753644838983 0.011746557040962328 0 0.011746557040962328 0.0098588231157388795 0 0 0 0.01326339419014446 0.051298502604392726 0.016993022038635081 0 0.016993022038635081 0.02103486975453437 0 0 0 0.018083343089731783 0.053712055111919003 0.013965853289296955 0 0.013965853289296955 0.0075993896192028502 0 0 0 0.015327861182780452 0.05392483733788745 0.017036358316378668 0 0.017036358316378668 0.020372869128555182 0 0 0 0.01857442661661067 0.061993286552053856 0.019076789248546902 0 0.019076789248546902 0.01810065472242052 0 0 0 0.020023485318618594 0.064968789441480101 0.011814367277600719 0 0.011814367277600719 0.0050919115899323505 0 0 0 0.017515175257853115 0.057685080919814426 0.0092503154426691846 0 0.0092503154426691846 0.0044990271965128312 0 0 0 0.015546027029081821 0.055278563498084021 -0.003591619911270591 0 -0.003591619911270591 -0.0067962196511002632 0 0 0 0.012120585961745938 0.070650199946268116 0.0025793745369719415 0 0.0025793745369719415 0.0041470205633508117 0 0 0 0.018699305127404725 0.068015110209893842 0.0037056253213635024 0 0.0037056253213635024 0.002117276929449588 0 0 0 0.017533096784835854 0.070498287541040511 0.016206815140032374 0 0.016206815140032374 0.015708181685806635 0 0 0 0.02155161730671179 0.052107022810926773 -0.0096638534147365715 0 -0.0096638534147365715 -0.0037064096988915669 0 0 0 0.012100153278008808 0.063739925050744065 -0.012700030304872618 0 -0.012700030304872618 -0.0021491360140513784 0 0 0 0.015397697259173176 0.070774128531578634 -0.0033801467065163095 0 -0.0033801467065163095 0.0089523119384894642 0 0 0 0.01993161011751704 0.080847570519316167 -0.0079242167344987097 0 -0.0079242167344987097 0.016245055149907678 0 0 0 0.024273156417305979 0.094762207370932092 0.0066852051003273398 0 0.0066852051003273398 0.030396711757514544 0 0 0 0.031289729782111683 0.080599244954302804 0.017705430459356925 0 0.017705430459356925 0.018174826104666461 0 0 0 0.02469351776474233 0.091349720753537617 0.011645688679817114 0 0.011645688679817114 0.015427970405929088 0 0 0 0.026694422789866681 0.07827347983526832 0.016415552700269141 0 0.016415552700269141 0.026541885039399773 0 0 0 0.026203841218667021 0.099629938027843784 0.021431708466738586 0 0.021431708466738586 0.031286418299741534 0 0 0 0.032729089081896291 0.084397843478332707 0.033925559514347857 0 0.033925559514347857 0.065560164682853195 0 0 0 0.037489502040296489 0.12580841528491199 0.03538921912226678 0 0.03538921912226678 0.060780441874100088 0 0 0 0.046647214289753033 0.10282495957147818 0.034437661164930883 0 0.034437661164930883 0.097287327025999043 0 0 0 0.050028071649369323 0.078631257048792688 0.038987110320332953 0 0.038987110320332953 0.1043074707435932 0 0 0 0.045734681948096462 0.092929521818796768 0.031603324682437574 0 0.031603324682437574 0.06846397935699633 0 0 0 0.040348375293948288 0.1226051696320665 -0.0044363499410131207 0 -0.0044363499410131207 0.049124613388678989 0 0 0 0.042932445755186371 0.12437596774141246 0.010398732560747775 0 0.010398732560747775 0.082637063374052133 0 0 0 0.051753257778866163 0.13042764940180912 -0.025069726538606046 0 -0.025069726538606046 0.070608476237167039 0 0 0 0.050259031409744054 0.22772334504146741 -0.01144929555733476 0 -0.01144929555733476 0.12461535214380537 0 0 0 0.088084674296318208 0.14787207200731553 -0.0058115224303726398 0 -0.0058115224303726398 0.28742868953551309 0 0 0 0.10882519038570716 0.21515313316858278 0.099197081098515522 0 0.099197081098515522 0.20582184411336313 0 0 0 0.10524374432048647 0.10720294656069129 0.059340073258402765 0 0.059340073258402765 0.1771716598403727 0 0 0 0.071093651600265984 0.052794190383045662 0.027056895096520442 0 0.027056895096520442 0.098393694048266311 0 0 0 0.037796971107828002 0.10278398140195617 0.039191614193318819 0 0.039191614193318819 0.098826817541907946 0 0 0 0.050402699735966019 0.057188233223431292 -0.01758606755784177 0 -0.01758606755784177 0.20357137708930359 0 0 0 0.065189902578183759 0.040547549511894217 -0.018462344479418566 0 -0.018462344479418566 0.11228303757112869 0 0 0 0.038207646770755728 0.042037618786295458 -0.018225663490095856 0 -0.018225663490095856 0.12083431068439086 0 0 0 0.040717982367671574 0.057372676827732047 0.026752293418938908 0 0.026752293418938908 0.11367323680711872 0 0 0 0.042761478408712708 0.057426081791972311 0.02629286103288201 0 0.02629286103288201 0.063650368901750271 0 0 0 0.030269112673430656 0.049437378648527826 0.021446444996931879 0 0.021446444996931879 0.10138966327149257 0 0 0 0.03770676048000509 0.033885728095473799 0.01176653629496514 0 0.01176653629496514 0.066177712894215465 0 0 0 0.025015860247422306 0.047054922353567785 0.021951204417634915 0 0.021951204417634915 0.080591412916841659 0 0 0 0.031911583817602368 0.051247622601573457 0.023001761073519381 0 0.023001761073519381 0.045851438924641968 0 0 0 0.024274765381553869 0.063416889988440209 0.031306118750090629 0 0.031306118750090629 0.069440580546704322 0 0 0 0.033214367633786129 0.032711946512213222 0.01425255668003474 0 0.01425255668003474 0.048652442713072043 0 0 0 0.020341097306321335 0.032942614775516951 0.012798432791416512 0 0.012798432791416512 0.069324668275724435 0 0 0 0.025566820762810361 0.036308860979500888 -0.016913130465629801 0 -0.016913130465629801 0.075801017539080182 0 0 0 0.028027469629645259 0.025385712460765895 -0.00098998547755450904 0 -0.00098998547755450904 0.06986771223376094 0 0 0 0.023813356173631707 0.022416041316271808 0.0012915449328207429 0 0.0012915449328207429 0.060653156782958059 0 0 0 0.020767299524807489 0.035808623654340795 0.0079851063740595148 0 0.0079851063740595148 0.091925357591527757 0 0 0 0.031933495311467129 0.030392801872135247 -0.014551892750245295 0 -0.014551892750245295 0.05808813690460226 0 0 0 0.022120234694184362 0.028360222455230365 -0.014531801615148932 0 -0.014531801615148932 0.047676693470243753 0 0 0 0.019009228981368538 0.048436579922060102 -0.028812486623405062 0 -0.028812486623405062 0.053601000012331347 0 0 0 0.025509394983597857 0.041340252114943979 -0.026764532662705273 0 -0.026764532662705273 0.026344854385951744 0 0 0 0.016921276625223927 0.030922394289741979 -0.017626063722859006 0 -0.017626063722859006 0.022195188202065473 0 0 0 0.013279395622951905 0.050074535417152524 -0.025824229314684838 0 -0.025824229314684838 0.027609678435038698 0 0 0 0.019421053463047816 0.050691574109226943 -0.025388558088508692 0 -0.025388558088508692 0.029482708766495155 0 0 0 0.020043570718930526 0.040034919366771518 -0.018958195533115549 0 -0.018958195533115549 0.0090552815719866508 0 0 0 0.012272550234689525 0.075623119795896365 -0.012254949965342658 0 -0.012254949965342658 0.016600563807628976 0 0 0 0.023055920900881349 0.062844895344486618 -0.018632185814322924 0 -0.018632185814322924 0.0038805478532752957 0 0 0 0.016681360799440548 0.067786025222009966 -0.023003269823204525 0 -0.023003269823204525 0.01113386180665854 0 0 0 0.01972997175716712 0.089882448688646116 -0.041647600468094736 0 -0.041647600468094736 0.041685844314992365 0 0 0 0.032892073250909634 0.035018880718921279 -0.018074809183790994 0 -0.018074809183790994 0.075683389366964116 0 0 0 0.02767556752147134 0.054505024193624213 -0.033672798673182833 0 -0.033672798673182833 0.051735246691435109 0 0 0 0.026560067721264846 0.055232642204348821 -0.036810467833461806 0 -0.036810467833461806 0.063141839756500812 0 0 0 0.02959362049021242 0.061450709019585825 -0.045450810136800177 0 -0.045450810136800177 0.09753360676271533 0 0 0 0.039746078945575282 0.037395311434946073 -0.040185676478184107 0 -0.040185676478184107 0.1295716133173612 0 0 0 0.041741731188076871 0.073294668264527602 -0.03940652764223506 0 -0.03940652764223506 0.12930871989275966 0 0 0 0.050650847039321795 0.10169050263493085 -0.011134825314691142 0 -0.011134825314691142 0.36768993270142164 0 0 0 0.11734510883408815 0.090143620210677219 -0.01487056664928299 0 -0.01487056664928299 -0.013205704330334883 0 0 0 0.019234478970085581 0.11847671859123657 -0.063064414682633449 0 -0.063064414682633449 0.078991323001567026 0 0 0 0.049367010398200906 0.20107253390740118 0.13603410931665882 0 0.13603410931665882 0.23775508781186871 0 0 0 0.10970690542981748 0.11542848747707757 -0.090540325067574187 0 -0.090540325067574187 0.15800106725825525 0 0 0 0.068357388683833176 0.0072703546943815242 0.0012927619503645916 0 0.0012927619503645916 0.019953396626486142 0 0 0 0.0068059378302169158 0.33890276453970258 0.11182684376279053 0 0.11182684376279053 0.067095897756069611 0 0 0 0.10149966557394302 0.17861920885370453 0.029764269708013713 0 0.029764269708013713 0.037665967844192877 0 0 0 0.054071294174474212 0.017014428058870924 0.0031506802856686627 0 0.0031506802856686627 0.051154837821528992 0 0 0 0.017042316470099982 0.030496732844820545 0.0050008102873038834 0 0.0050008102873038834 0.047336998174445755 0 0 0 0.019458432754816596 0.17969559125022211 0.029158947747682774 0 0.029158947747682774 0.033503448553175108 0 0 0 0.053299759950849235 0.024488581806117703 0.0044698594577705607 0 0.0044698594577705607 0.073134233093004847 0 0 0 0.024405703724780636 0.043528431497237535 0.010185143979628247 0 0.010185143979628247 0.056977929788244841 0 0 0 0.025126590321370573 0.13747472334507416 0.02656490601494621 0 0.02656490601494621 0.023565639494844692 0 0 0 0.040260090709979601 0.074723090561138988 -0.021758145499356077 0 -0.021758145499356077 -0.0030235300587611313 0 0 0 0.017924890125594395 0.073333956723117766 0.0057153607303462306 0 0.0057153607303462306 0.034900806029969977 0 0 0 0.027058690688271991 0.072864741003999894 -0.0070829557700496926 0 -0.0070829557700496926 0.027719672017752106 0 0 0 0.025146103255438035 0.073948907318160131 -0.0025525103172344965 0 -0.0025525103172344965 0.018473532358509098 0 0 0 0.023105609919167311 0.062075682930707421 0.0061622867063009651 0 0.0061622867063009651 0.027929278717424399 0 0 0 0.022501240412032941 0.071280418133076728 0.0053425989278865493 0 0.0053425989278865493 0.059042345198036639 0 0 0 0.032580690832778342 0.065752024114216046 0.010235544242458511 0 0.010235544242458511 0.068950150256073539 0 0 0 0.03367554359257241 0.071966920005049617 0.0022402834938936023 0 0.0022402834938936023 0.028899807094411978 0 0 0 0.025216681774865413 0.12683915507926524 0.022696205502226841 0 0.022696205502226841 0.029120706234601723 0 0 0 0.038989965328466547 0.13683008241626593 0.015492082725490297 0 0.015492082725490297 0.063267988107728268 0 0 0 0.050024517630998466 0.16113399153142938 0.011405572380302452 0 0.011405572380302452 0.058868646133164226 0 0 0 0.05500065941614829 0.031215565133916514 0.0053884705392754969 0 0.0053884705392754969 0.09343248161108593 0 0 0 0.031162011686250608 0.14623575562426927 0.013221352536838846 0 0.013221352536838846 0.067519239814535226 0 0 0 0.053438748859700791 0.13676016291809434 0.010291771948175876 0 0.010291771948175876 0.067145068543140618 0 0 0 0.050976307865308601 0.11526901331281447 0.02274485859346842 0 0.02274485859346842 0.065632515341877529 0 0 0 0.045225382163673 0.14288987103846562 0.011818931322911891 0 0.011818931322911891 0.084717072148558614 0 0 0 0.056901735796756281 0.083447922745857578 0.010227691736028471 0 0.010227691736028471 0.091141978534387547 0 0 0 0.043647475320061274 0.038042936533609163 0.0060695267833821565 0 0.0060695267833821565 0.11388651889524282 0 0 0 0.037982363857212993 0.12361844625024571 0.01194278579960617 0 0.01194278579960617 0.085921204991185052 0 0 0 0.052384912810357342 0.069211600178915936 0.0081817102362181648 0 0.0081817102362181648 0.048286431994389395 0 0 0 0.029374508043326378 0.064809170807422822 0.0044095094095294163 0 0.0044095094095294163 0.026518772344625408 0 0 0 0.022831985788012044 0.079679373043475193 0.0050810414387041924 0 0.0050810414387041924 0.077908499478794191 0 0 0 0.039396968130567339 0.072623587368368714 0.005380151520167388 0 0.005380151520167388 0.051410679569065088 0 0 0 0.031008566734358478 0.079451933364190097 0.008560924601132832 0 0.008560924601132832 0.056949855631230673 0 0 0 0.034100447248855192 0.062346636501346475 0.0040610267950469958 0 0.0040610267950469958 0.020383015081399516 0 0 0 0.02068241289568656 0.058039550358145731 0.0030892476858958018 0 0.0030892476858958018 0.023284797177862915 0 0 0 0.020331086884002147 0.064810277015137169 0.0037273401525869526 0 0.0037273401525869526 0.021120202125556098 0 0 0 0.021482619785173324 0.05623386910150923 -0.0059082794336781652 0 -0.0059082794336781652 0.0032205531131181478 0 0 0 0.014863605553656838 0.05572252650776946 -0.0017133831914166384 0 -0.0017133831914166384 0.0065982399699626715 0 0 0 0.015580191619433054 0.043525251293830863 -0.0034656093518671133 0 -0.0034656093518671133 0.0020065298012104105 0 0 0 0.011382945273760325 0.046621153589912812 -0.0061056736680993873 0 -0.0061056736680993873 0.0039285390873802228 0 0 0 0.012637423169323286 0.044601109332463806 -0.011821170380803825 0 -0.011821170380803825 0.0015313725977273984 0 0 0 0.011533120482547787 0.050553278555931266 -0.0051669903110694582 0 -0.0051669903110694582 0.0045559178899703123 0 0 0 0.013777299111475388 0.054555690545768198 -0.010887161227956355 0 -0.010887161227956355 0.0018598346686979905 0 0 0 0.014103881303616506 0.041496645258493003 -0.013517413294386715 0 -0.013517413294386715 -0.00081525201316534623 0 0 0 0.010170348311331873 0.05333474524001873 -0.017573072677441071 0 -0.017573072677441071 0.0061863347330441132 0 0 0 0.014880269993265707 0.041544100075740067 -0.017970557682635779 0 -0.017970557682635779 0.0093212055731931587 0 0 0 0.012716326412233303 0.056306221211876922 -0.011817157547079425 0 -0.011817157547079425 0.0019283668033302503 0 0 0 0.0145586470038018 0.062248478513924274 -0.0029467606130125223 0 -0.0029467606130125223 0.0061103607638248181 0 0 0 0.017089709819437346 0.066153679829448073 -0.0055388747488029633 0 -0.0055388747488029633 0.010571054674309688 0 0 0 0.019181183625939437 -0.11909024085815539 0.0098417768374361447 0 0.0098417768374361447 0.001128712598950754 0 0 0 -0.029490382064801146 -0.14359266617378419 0.014661908530599791 0 0.014661908530599791 0.0032373150257054562 0 0 0 -0.035088837787019767 -0.099438288945643216 0.03607634702302065 0 0.03607634702302065 0.012999041936807565 0 0 0 -0.021609811752208885 -0.18449071414141649 0.014569943999196755 0 0.014569943999196755 0.0034326302724254631 0 0 0 -0.045264520967247646 -0.18786640075313182 0.010447225410370575 0 0.010447225410370575 0.0074472816834190159 0 0 0 -0.045104779767428271 -0.1162572235653019 0.01149934115151463 0 0.01149934115151463 0.0020608035221093141 0 0 0 -0.028549105010798118 -0.1232919840347734 0.017696661404381309 0 0.017696661404381309 0.0039724180736073755 0 0 0 -0.029829891490291471 -0.089050561333467448 0.035854895946938803 0 0.035854895946938803 0.019353191872997 0 0 0 -0.017424342365117584 -0.055199671306964404 0.035406813811187349 0 0.035406813811187349 0.019604623121733944 0 0 0 -0.0088987620463076289 -0.034078328084372667 0.047330258282950677 0 0.047330258282950677 0.039258334836360875 0 0 0 0.0012950016879971771 -0.054465370802794122 0.030170605645189363 0 0.030170605645189363 0.0050201834701422143 0 0 0 -0.012361296833163005 -0.044985833075615017 0.050091657562682412 0 0.050091657562682412 0.016745866988796987 0 0 0 -0.0070599915217046949 -0.076761203162292957 0.027089128719876898 0 0.027089128719876898 0.0012901694765794502 0 0 0 -0.018867758421428515 -0.031500351361702705 0.040239089755339741 0 0.040239089755339741 0.0044291265804932145 0 0 0 -0.0067678061953023727 0.049567102067742924 0.06100976281093673 0 0.06100976281093673 0.018025734054063047 0 0 0 0.016898209030451555 0.0086412123994585865 0.049609658479796662 0 0.049609658479796662 0.012832573920457335 0 0 0 0.0053684465799789249 0.068069618622737749 0.073226611413616138 0 0.073226611413616138 0.04457427335724562 0 0 0 0.028160972994995814 0.0081852393659001543 0.054205588362812307 0 0.054205588362812307 0.016246435647360391 0 0 0 0.0061079187533152335 -0.048052581674989603 0.027374086310072987 0 0.027374086310072987 0.021281005068185976 0 0 0 -0.0066928941517009344 -0.0058708894678519766 0.05366509822994936 0 0.05366509822994936 0.060740582868490503 0 0 0 0.013717423350159623 0.0052463985644594091 0.042876035810855417 0 0.042876035810855417 0.041655778176388936 0 0 0 0.011725544185212156 0.053529712744198155 0.068831482562334845 0 0.068831482562334845 0.098539039908337456 0 0 0 0.03801718816313393 0.073294489855673273 0.074340829429086194 0 0.074340829429086194 0.1617171881881605 0 0 0 0.058752919510958457 0.11820847183918165 0.087661056309401963 0 0.087661056309401963 0.058237848698275085 0 0 0 0.04411158013436417 0.13329343356120071 0.077766107630578563 0 0.077766107630578563 0.059930249251023415 0 0 0 0.048305920703055963 0.080017169742617522 0.05001318361147894 0 0.05001318361147894 0.018687310540565161 0 0 0 0.02467612007079556 0.10928792216496286 0.058183538929348466 0 0.058183538929348466 0.025044699522938974 0 0 0 0.033583155421975319 0.13433990301029453 0.025464791609066117 0 0.025464791609066117 0.027467819601664445 0 0 0 0.040451930652989798 0.06928863086126108 0.041100352211613123 0 0.041100352211613123 0.010361859821347269 0 0 0 0.019912622670652143 0.07025924210641521 0.04654068849753068 0 0.04654068849753068 0.0099936843027514932 0 0 0 0.02006323160229162 0.10709348133654295 0.030239449271966423 0 0.030239449271966423 0.025839482504316891 0 0 0 0.03323324096021496 0.10437579688227283 0.027502229370941489 0 0.027502229370941489 0.030704923026449338 0 0 0 0.033770179977180348 0.10849360601580349 0.021010811014924524 0 0.021010811014924524 0.039641012796698405 0 0 0 0.037033654703125585 0.094497326342775079 0.029438422931381769 0 0.029438422931381769 0.034980736989382422 0 0 0 0.032369515833039264 0.07014696038258017 0.034342502909855174 0 0.034342502909855174 0.018546983536868566 0 0 0 0.022173485979862129 0.069093897939865978 0.041148720543655148 0 0.041148720543655148 0.011098614691567477 0 0 0 0.02004812815785828 0.0291811202593657 0.035153187379122208 0 0.035153187379122208 0.0087888773829605249 0 0 0 0.0094924994105816118 0.034048349648347909 0.038774340954909503 0 0.038774340954909503 0.0097949263261800645 0 0 0 0.010960818993631882 0.027322559738497398 0.037299019920675969 0 0.037299019920675969 0.0068907237267925581 0 0 0 0.0085533208663224336 -0.011985239167241923 0.043427842731789457 0 0.043427842731789457 0.0040398823475076284 0 0 0 -0.0019863392049332962 0.030389672098515508 0.04673624409814825 0 0.04673624409814825 0.0067847441482751236 0 0 0 0.0092936040616976578 0.043269737680249332 0.037478294150527836 0 0.037478294150527836 0.0044382123553807773 0 0 0 0.011926987508907638 0.0020980759219756395 0.042007758557168873 0 0.042007758557168873 0.0025025775155524954 0 0 0 0.001150163359382006 -0.010634289037918854 0.052153328729743265 0 0.052153328729743265 0.0073638776942961393 0 0 0 -0.00081760283590559535 -0.040173861274235279 0.032407922820017698 0 0.032407922820017698 -0.0010120983672106121 0 0 0 -0.010296489910361473 -0.053761736453467823 0.041243934072914712 0 0.041243934072914712 0.0075551253319883216 0 0 0 -0.011551652780369737 -0.047450185217100982 0.026095997515277372 0 0.026095997515277372 0.0015420287340148775 0 0 0 -0.011477039120771471 -0.046129472769035507 0.03984622198233323 0 0.03984622198233323 0.0015774215255750512 0 0 0 -0.011138012810865294 -0.010252471181531497 0.038967609154987759 0 0.038967609154987759 0.00067708502451813146 0 0 0 -0.0023938465392533415 -0.0059904218903987227 0.040864741115956615 0 0.040864741115956615 -0.0030957432028842491 0 0 0 -0.0022715412733206874 -0.027087661444626487 0.031081421417799682 0 0.031081421417799682 0.0035425631526138091 0 0 0 -0.0058862745730030586 -0.041435601555694701 0.026699180876858852 0 0.026699180876858852 -0.0012400835510750774 0 0 0 -0.010668921276692389 -0.05852310839090169 0.032165402379264685 0 0.032165402379264685 0.0027122859042201242 0 0 0 -0.013952705621670392 -0.084561747041913327 0.011635667883410429 0 0.011635667883410429 0.0011639068224833515 0 0 0 -0.02084946005485766 -0.0476896556503279 0.011849966161132208 0 0.011849966161132208 0.0042768165091930932 0 0 0 -0.010853209785284035 -0.069091984681213359 0.012785923481537731 0 0.012785923481537731 0.0042660091277619827 0 0 0 -0.016206493888362705 -0.11838811732395249 0.011581255907500046 0 0.011581255907500046 0.00081835601781410361 0 0 0 -0.029392440326534652 -0.08998348914950105 0.028649640119858044 0 0.028649640119858044 0.0024743298409739545 0 0 0 -0.021877289827131774 -0.086364094623827214 0.014769765175846938 0 0.014769765175846938 0.00013250499940853366 0 0 0 -0.021557897406104698 -0.0089606662690969729 0.012605673938343998 0 0.012605673938343998 0.0070440379817860999 0 0 0 -0.00047915707182755174 -0.03097312336733582 0.0094229299476875639 0 0.0094229299476875639 -0.00050532941040870583 0 0 0 -0.0078696131944364645 -0.011423176756656162 0.017923939354301588 0 0.017923939354301588 0.0040130580303019414 0 0 0 -0.0018525296815887771 -0.0405828976607574 0.010329225772253908 0 0.010329225772253908 0.0041742199067993369 0 0 0 -0.0091021694384898488 -0.037040314425961895 0.0082973968444037816 0 0.0082973968444037816 0.0024965877125531222 0 0 0 -0.0086359316783517492 -0.064195869970815389 0.011131616210544011 0 0.011131616210544011 0.0018642040584229136 0 0 0 -0.015582916478097841 -0.053952367171664628 0.020907300544657614 0 0.020907300544657614 7.1166581404824569e-05 0 0 0 -0.013470300147564673 -0.039720397684859687 0.017808859348079409 0 0.017808859348079409 0.0013868133316514708 0 0 0 -0.0095833960883018321 -0.023880980668328444 0.029107708336585242 0 0.029107708336585242 0.0009946243786114195 0 0 0 -0.0057215890724293672 -0.020945818544331418 0.022015679945782685 0 0.022015679945782685 0.0055099775813722829 0 0 0 -0.0038589602407399504 -0.0092395730516536823 0.026250287192531085 0 0.026250287192531085 0.0017923272300581772 0 0 0 -0.0018618114553983212 0.0036567397836524407 0.024221531148566733 0 0.024221531148566733 0.005877169032245888 0 0 0 0.0023834772039745822 0.0042148893119138275 0.021623459624658281 0 0.021623459624658281 0.0055745570903669162 0 0 0 0.0024473616005695753 -0.014940047551664559 0.025489205107644963 0 0.025489205107644963 0.0035872387015851714 0 0 0 -0.00283820221252018 0.0055801812008944296 0.023629481647829742 0 0.023629481647829742 0.0064741601818854022 0 0 0 0.00301358534569518 0.032780347754132411 0.023718049841350064 0 0.023718049841350064 0.012969032977055761 0 0 0 0.011437345182796488 0.035263240094844051 0.02578104895312805 0 0.02578104895312805 0.019654121010126424 0 0 0 0.013729340276242619 0.054722699048589618 0.024746480948939054 0 0.024746480948939054 0.020275818679298396 0 0 0 0.018749629431972004 0.0061425928827407716 0.030052804731768079 0 0.030052804731768079 0.0066180126527299876 0 0 0 0.0031901513838676898 0.0026602345788255821 0.035792122136287352 0 0.035792122136287352 0.0020306324581014223 0 0 0 0.0011727167592316956 0.028302516100725206 0.028257159071909399 0 0.028257159071909399 0.0086122421397087923 0 0 0 0.0092286895601082497 0.026040634811684185 0.027999229788284064 0 0.027999229788284064 0.0097754718744007957 0 0 0 0.0089540266715211342 0.048612252071114276 0.03478256364605814 0 0.03478256364605814 0.014171343749328658 0 0 0 0.015695898955110782 0.030502440376243278 0.029450254745703064 0 0.029450254745703064 0.01653461138531398 0 0 0 0.011759262940389092 0.071876435549127884 0.022128414800448581 0 0.022128414800448581 0.034665528587436767 0 0 0 0.026635491034141048 0.070981618570344907 0.026622171940051231 0 0.026622171940051231 0.037080180516537276 0 0 0 0.027015449771720768 0.064738220431823867 0.029640255862013097 0 0.029640255862013097 0.018953781130257141 0 0 0 0.020923000390520086 0.084010068717112585 0.027881789958115633 0 0.027881789958115633 0.039347928797671905 0 0 0 0.030839499378696011 0.10496559154388763 0.015104260069170428 0 0.015104260069170428 0.069870541780765905 0 0 0 0.043709033331163383 0.086726155516386516 0.017904940530843794 0 0.017904940530843794 0.047823345744049561 0 0 0 0.033637375315109352 0.09763547593901778 0.023865996795236821 0 0.023865996795236821 0.072164157988334754 0 0 0 0.04244990848183805 0.060790197919670996 0.030471987272556511 0 0.030471987272556511 0.031765781406369875 0 0 0 0.02313899483150994 0.073743927718131541 0.02473928268140041 0 0.02473928268140041 0.046743218723987567 0 0 0 0.030121786610529888 0.1078105185589906 0.0081336658366237824 0 0.0081336658366237824 0.069710888634498147 0 0 0 0.044380351798371631 0.081171117874371035 0.0029864689424861091 0 0.0029864689424861091 0.055317719626653883 0 0 0 0.034122209375256674 0.1197828734936687 0.017239209810178568 0 0.017239209810178568 0.072211743661555916 0 0 0 0.047998654288806369 0.10103244565660496 0.0090583174147269574 0 0.0090583174147269574 0.057818725024175066 0 0 0 0.039712792670195007 0.13069428565378027 -0.0075737758524092591 0 -0.0075737758524092591 0.091503844965822978 0 0 0 0.055549532654900258 0.14536838463397084 0.010709978828814748 0 0.010709978828814748 0.093184531325968933 0 0 0 0.059638228989985276 0.10690885005481168 -0.01009669670404989 0 -0.01009669670404989 0.048107811800370458 0 0 0 0.038754165463795981 0.07044722325167907 0.00039658041186274584 0 0.00039658041186274584 0.044268584333732264 0 0 0 0.028678951896353055 0.031915099753624609 0.013479103682753957 0 0.013479103682753957 0.0072386491133702435 0 0 0 0.0097884372167487133 0.034094908561362658 0.0075552808618960989 0 0.0075552808618960989 0.013778075536716727 0 0 0 0.011968246024519846 0.058733797032266555 0.0031632380719806008 0 0.0031632380719806008 0.0063117837721193837 0 0 0 0.016261395201096374 0.032905438498239237 0.0197831636439596 0 0.0197831636439596 0.010950851319988519 0 0 0 0.010964072454556772 0.067540780613192464 0.014286558659308946 0 0.014286558659308946 0.027611268308252335 0 0 0 0.023788012230361311 0.037533816810771947 0.017258257680474065 0 0.017258257680474065 0.023774664194779138 0 0 0 0.015327120251387383 0.064283171231035774 0.017700859996015117 0 0.017700859996015117 0.028489911383046795 0 0 0 0.023193270653520615 0.010233824907697198 0.01961492523043129 0 0.01961492523043129 0.0070903046687602611 0 0 0 0.0043310323941141426 -0.01159495956271317 0.014125325390750287 0 0.014125325390750287 0.0019466078059021674 0 0 0 -0.0024120879392028893 0.010292648869644871 0.013051340525396082 0 0.013051340525396082 0.0027880607669237278 0 0 0 0.0032701774091421498 0.0011128645278506433 0.014502149703653266 0 0.014502149703653266 0.0061646083957072051 0 0 0 0.0018193682308895731 0.010648999503821699 0.014435226689011316 0 0.014435226689011316 0.0019220019516570375 0 0 0 0.0031427503638696841 0.01535434597814378 0.0055382765631151187 0 0.0055382765631151187 -0.0079490671627180376 0 0 0 0.0018513197038565465 0.0085261400722975982 0.0042892563065981548 0 0.0042892563065981548 -0.0052214534127021164 0 0 0 0.00082617166489831523 0.017618456778829117 0.0081354192300260308 0 0.0081354192300260308 0.00091565120479319972 0 0 0 0.0046335269959056902 0.0073949564495385811 0.0094441615292470971 0 0.0094441615292470971 -7.727623505582315e-05 0 0 0 0.0018294200536204119 0.0014523223386175843 0.0063683903243676454 0 0.0063683903243676454 0.00053777308220759323 0 0 0 0.00049752385520651643 0.0062878934010819343 0.00325947091706702 0 0.00325947091706702 0.0015949898619780356 0 0 0 0.0019707208157644374 0.0041701736831591951 0.0020680066824949606 0 0.0020680066824949606 0.0024942582146945114 0 0 0 0.0016661079744633156 0.0013711781582861349 0.0027040160155815786 0 0.0027040160155815786 0.0020267533863194132 0 0 0 0.00084948288615116496 0.0038528460585270929 0.0047034001587471508 0 0.0047034001587471508 0.0057994752695453844 0 0 0 0.002413080332017814 -0.0070724697433743877 0.0066010162562777129 0 0.0066010162562777129 0.006456823659549471 0 0 0 -0.00015391152095656224 -0.0046369452455823357 0.0066584815742354309 0 0.0066584815742354309 0.0024954829946661761 0 0 0 -0.00053536556272915092 -0.022625033794020144 0.0074863202774030973 0 0.0074863202774030973 0.0012273249243923701 0 0 0 -0.0053494272174070545 0.049613465596690165 0.0024359987690260321 0 0.0024359987690260321 0.014841582756274452 0 0 0 0.016113762088241224 0.072596610780027909 0.0054623854804440874 0 0.0054623854804440874 0.045197887805075276 0 0 0 0.029448624646275762 0.074665647235323374 0.0096137658387457012 0 0.0096137658387457012 0.038756763492639124 0 0 0 0.028355602681990555 0.062748180098541301 0.011499820579849995 0 0.011499820579849995 0.026936113342105369 0 0 0 0.022421073360161668 0.043961826280307481 0.0058000963192420263 0 0.0058000963192420263 0.0068601219401338565 0 0 0 0.012705487055110376 0.031876745063033562 0.00050713795680212836 0 0.00050713795680212836 0.0035951812513668746 0 0 0 0.0088679815786000815 0.032431582156764088 -0.0038418072499283862 0 -0.0038418072499283862 -0.00043005277528196384 0 0 0 0.0080003823453704548 0.04319552901275292 0.00024242680616968354 0 0.00024242680616968354 0.0062239615213464106 0 0 0 0.012354872633524749 0.034463196147811737 -0.0036252336397236823 0 -0.0036252336397236823 0.0028712438874508583 0 0 0 0.0093336100088156626 0.035229237915889861 -0.0051498694514199306 0 -0.0051498694514199306 0.0024893554415266472 0 0 0 0.0094296483393541408 0.05533663579771389 0.002751226372017232 0 0.002751226372017232 0.013070975988543454 0 0 0 0.017101902946564329 0.054486276654815202 0.0028016858391538562 0 0.0028016858391538562 0.012784306608635942 0 0 0 0.016817645815862758 0.044855182599151347 0.0042099192871936086 0 0.0042099192871936086 0.014804955390732621 0 0 0 0.014915034497471016 0.061837079598556444 0.0074146499523061312 0 0.0074146499523061312 0.034600564211054285 0 0 0 0.02410941095240271 0.067290824571935304 0.0078025803185500231 0 0.0078025803185500231 0.032028145137567021 0 0 0 0.024829742427375595 0.077189934137070315 0.0064491387143842394 0 0.0064491387143842394 0.06153772824693915 0 0 0 0.034681915596002422 0.092845935835091709 0.0056493045191980396 0 0.0056493045191980396 0.099976435005592057 0 0 0 0.048205592710170886 0.10991656503071642 0.0049737359538185588 0 0.0049737359538185588 0.11816487059209391 0 0 0 0.057020358905702589 0.092944564550827835 0.011078401082475597 0 0.011078401082475597 0.06929668018515045 0 0 0 0.040560311183994585 0.12146378979774997 0.022870094993018508 0 0.022870094993018508 0.08069148082385702 0 0 0 0.050538817655402024 0.14817254899769861 0.0083388630724675304 0 0.0083388630724675304 0.11280438900977074 0 0 0 0.065244234501867115 0.10602033174704273 0.010025551297661639 0 0.010025551297661639 0.10711122735277201 0 0 0 0.053282889774953657 0.045053117988672411 0.0065512222854773507 0 0.0065512222854773507 0.13488692018982959 0 0 0 0.044985009544625497 0.11212184943107784 0.018419663391245233 0 0.018419663391245233 0.067660187201291855 0 0 0 0.044945509158092145 0.12928305801059592 0.014462759212276133 0 0.014462759212276133 0.11736220519413365 0 0 0 0.061661315801182504 0.12971984719551116 0.0058762489016790376 0 0.0058762489016790376 0.11399267146261371 0 0 0 0.06092812966453115 0.052350151035981132 0.0068327488307460341 0 0.0068327488307460341 0.15682090432000417 0 0 0 0.05229276383899633 0.13145606558512454 0.010567591243965613 0 0.010567591243965613 0.12541031673131453 0 0 0 0.06421659557910972 0.15160154186341046 0.012463111536657672 0 0.012463111536657672 0.12196016579327917 0 0 0 0.068390426914172409 0.060155467832168283 0.0069558760713751677 0 0.0069558760713751677 0.17991716356312093 0 0 0 0.060018157848822307 0.1281618797975228 0.020077490071476412 0 0.020077490071476412 0.11037876667000557 0 0 0 0.059635161616881982 0.086864389026603539 0.0084254089318586134 0 0.0084254089318586134 0.075282755170360538 0 0 0 0.040536786049240936 0.12586175899324306 0.0088920071126626921 0 0.0088920071126626921 0.13219327328619146 0 0 0 0.064513758069858568 0.092147168113823397 0.016841869101404228 0 0.016841869101404228 0.062808586724680593 0 0 0 0.03873893870962597 0.10939743014252074 0.0073136733034986912 0 0.0073136733034986912 0.078957995352647803 0 0 0 0.047088856373792065 0.1250217540701197 0.019211282559993381 0 0.019211282559993381 0.086598892580482728 0 0 0 0.052905161662650441 0.098612405482758236 0.0054344016089947766 0 0.0054344016089947766 0.068692850817189344 0 0 0 0.041826314074986881 0.16117306797847977 0.012918831818274412 0 0.012918831818274412 0.13732771269356525 0 0 0 0.074625195168011332 0.15301198777824151 0.0040648219177202849 0 0.0040648219177202849 0.15079185110822846 0 0 0 0.075950959721617556 0.14183278539965072 0.00056380307648196126 0 0.00056380307648196126 0.096176547246647814 0 0 0 0.059502333161574716 0.16515054860355294 0.0014000331496348828 0 0.0014000331496348828 0.14782747402751895 0 0 0 0.078244505657768304 0.067991535968074515 0.0068474357524754351 0 0.0068474357524754351 0.20438918913357054 0 0 0 0.068095181275411268 0.20280638567603249 0.010824714411120095 0 0.010824714411120095 0.15989605686215091 0 0 0 0.090675610634545767 0.18570477154627918 0.013227782477530425 0 0.013227782477530425 0.15468468603716357 0 0 0 0.085097364395860797 0.14969397603780843 -0.0017210242674083887 0 -0.0017210242674083887 0.13427548441938564 0 0 0 0.070992365114298295 0.17564156027686306 0.017143949488125809 0 0.017143949488125809 0.14807317507180162 0 0 0 0.080928683837165893 0.078490166480970097 0.0068402017429518621 0 0.0068402017429518621 0.23185268527671116 0 0 0 0.07758571293942032 0.23740702783972445 0.00061592400219323551 0 0.00061592400219323551 0.1750298519402671 0 0 0 0.10310921994499767 0.18845572930987031 -0.014107004053385275 0 -0.014107004053385275 0.15612455300125275 0 0 0 0.086145070577780883 0.10765791108391398 0.019622183712212971 0 0.019622183712212971 0.052042674871861427 0 0 0 0.039925146488943852 0.17101494740699119 0.017859196872963667 0 0.017859196872963667 0.1581027303135738 0 0 0 0.082279419430141332 0.22943117858760043 0.0012975953693393771 0 0.0012975953693393771 0.16750041569598739 0 0 0 0.09923289857089701 0.17296431378728461 0.022820026710498542 0 0.022820026710498542 0.13796800103167794 0 0 0 0.077733078704740666 0.13582690024415911 -0.0044508505627242484 0 -0.0044508505627242484 0.060454547082359422 0 0 0 0.049070361831629605 0.045347767133187 0.0081679395677833333 0 0.0081679395677833333 -0.0082552494505432339 0 0 0 0.0092731294206610526 0.088363184852976673 0.016898270589839615 0 0.016898270589839615 0.021023742825477143 0 0 0 0.027346731919613454 0.069214452993440395 0.0021367684422832767 0 0.0021367684422832767 -0.036106596677978296 0 0 0 0.0082769640788655525 0.073816782702812278 0.0038222704470167734 0 0.0038222704470167734 0.037320134352569062 0 0 0 0.027784229263845384 0.062061719849314911 0.0053523342345946912 0 0.0053523342345946912 -0.0028152265660873477 0 0 0 0.014811623320806822 0.051099505231584796 0.0080252531226129298 0 0.0080252531226129298 0.0056425728292137656 0 0 0 0.014185519515199696 0.059061961000434149 0.0044685247466387523 0 0.0044685247466387523 0.026630674998578074 0 0 0 0.021423158999753 0.080921657833795291 0.015793157097263477 0 0.015793157097263477 0.035029439472322954 0 0 0 0.028987774326529547 0.03205148172410853 0.0027768516798498122 0 0.0027768516798498122 -0.010514382089365892 0 0 0 0.0053842749086856351 0.034812887238530404 0.0026609627816671644 0 0.0026609627816671644 0.0038922329861644008 0 0 0 0.0096762800561737989 0.034355206864536303 0.0075368255705090537 0 0.0075368255705090537 -0.016264692045069307 0 0 0 0.0045226287048667491 0.040520398225673937 0.0024289410143107371 0 0.0024289410143107371 0.002848737855245087 0 0 0 0.010842284020229798 0.026036618569556857 -0.00074507672921336754 0 -0.00074507672921336754 -0.014266751478274386 0 0 0 0.0029424667728205622 0.033830216612712238 -0.0032331500671786417 0 -0.0032331500671786417 -0.030726826412120767 0 0 0 0.00077584755014792339 0.027892675625606447 0.0028351421210053296 0 0.0028351421210053296 -0.066056928067452905 0 0 0 -0.009541063110461696 0.025757358488492033 -0.0029028074209340171 0 -0.0029028074209340171 -0.038317281895717148 0 0 0 -0.0031399808518063343 0.023018300352627943 -0.0037110325697137236 0 -0.0037110325697137236 -0.071511057936781683 0 0 0 -0.012123189396038379 0.023380175242228241 0.0018659037665455513 0 0.0018659037665455513 -0.039753974015038107 0 0 0 -0.0040934496932025222 0.020228600240573907 -0.0066867140503913403 0 -0.0066867140503913403 -0.022620214868966926 0 0 0 -0.00059790365709821991 0.023299353323330108 -3.9569581700704681e-06 0 -3.9569581700704681e-06 -0.03779129774820067 0 0 0 -0.003622986106217585 0.058546119360486724 -0.013277250708951693 0 -0.013277250708951693 -0.010921078448608347 0 0 0 0.011906260227969551 0.045658337399280935 -0.0013930270170218195 0 -0.0013930270170218195 -0.049734579235770404 0 0 0 -0.0010190604591223673 0.031498692798193062 -0.0085855669462200704 0 -0.0085855669462200704 -0.022780339220920709 0 0 0 0.0021795883943180883 0.046202659461404894 -0.0065527904952848437 0 -0.0065527904952848437 0.014257837604439771 0 0 0 0.015115124266461222 0.037386561210516756 -0.0063629524140400573 0 -0.0063629524140400573 -0.019066257804029929 0 0 0 0.0045800758516216789 0.032682868447914459 -0.0072993640144572436 0 -0.0072993640144572436 -0.0022141192305268342 0 0 0 0.0076171873043469063 0.036381057875988797 -0.0087916859717719342 0 -0.0087916859717719342 0.014135798948516187 0 0 0 0.012629214206126248 0.048679012748927025 -0.013123135331634506 0 -0.013123135331634506 0.010250177297318863 0 0 0 0.014732297511561437 0.029252722608562154 -0.0025666092047314515 0 -0.0025666092047314515 -0.016350496355362787 0 0 0 0.0032255565632998695 0.028047103535995987 -0.0072296659495164617 0 -0.0072296659495164617 -0.0029015871830913031 0 0 0 0.0062863790882262127 0.02265184004503068 -0.0046164648455774837 0 -0.0046164648455774837 -0.0065709032277643242 0 0 0 0.0040202342043165196 0.030384517318199411 -0.002504834490890645 0 -0.002504834490890645 -0.0029102113623236114 0 0 0 0.006868576488968936 0.029380356200123359 -0.0048201302137891311 0 -0.0048201302137891311 0.0012922228260412449 0 0 0 0.0076681447565410954 0.031012484059377121 -0.0063109054841069268 0 -0.0063109054841069268 0.0013944815831727908 0 0 0 0.0081017414106374641 0.028225575138565773 -0.0079813586643561474 0 -0.0079813586643561474 0.0043136743036178427 0 0 0 0.0081348123605459732 0.024817845109835181 -0.0052247710980614093 0 -0.0052247710980614093 -0.00047095889712739369 0 0 0 0.0060867215531770005 0.030987164407224321 -0.0093818384507232122 0 -0.0093818384507232122 0.0034379054357639438 0 0 0 0.0086062674607469969 0.028464898997310639 -0.0099499826594292573 0 -0.0099499826594292573 0.0023822161382286433 0 0 0 0.0077117787838849594 0.0375298676019033 -0.013115664465517901 0 -0.013115664465517901 0.013204521726031704 0 0 0 0.012683597331983765 0.043121562489232268 -0.011195193790544428 0 -0.011195193790544428 0.028561461781203556 0 0 0 0.017920756067609012 0.032751021325945484 -0.010036774041025195 0 -0.010036774041025195 0.011460734941771689 0 0 0 0.011052939066929335 0.029671988665394111 -0.011432206654464344 0 -0.011432206654464344 0.0079707001851392345 0 0 0 0.0094106722126333642 0.032156168534649865 -0.012922576586133508 0 -0.012922576586133508 0.012657959926027695 0 0 0 0.01120353211516939 0.03614857084520786 -0.012902325019230165 0 -0.012902325019230165 0.025466675110913495 0 0 0 0.015403811489030327 0.033009558989752961 -0.013421545155826775 0 -0.013421545155826775 0.0096799406733168447 0 0 0 0.010672374915767467 0.029925991512488148 -0.012042204511842167 0 -0.012042204511842167 0.001679443425000815 0 0 0 0.0079013587343721992 0.037787396309882759 -0.0091666724853909226 0 -0.0091666724853909226 0.0037110375223897707 0 0 0 0.010374608458068091 0.029818960086153548 -0.0077268337636505757 0 -0.0077268337636505757 0.0011729480270991979 0 0 0 0.0077479770283131032 0.035828343462809054 -0.0048493828200809608 0 -0.0048493828200809608 0.0034417244919699996 0 0 0 0.0098175169886946523 0.03254127555209483 -0.009323453749076005 0 -0.009323453749076005 0.0051308118355864185 0 0 0 0.009418021846920234 0.063508964074840302 -0.015464065635911073 0 -0.015464065635911073 0.060834206566787952 0 0 0 0.031085792660407119 0.023532831441527444 -0.010028359779642736 0 -0.010028359779642736 0.070462503838564394 0 0 0 0.023498833820022956 0.07481622197426141 -0.013685753039815785 0 -0.013685753039815785 0.05427703884812618 0 0 0 0.032273315205596953 0.051910020568788684 -0.013763203891510922 0 -0.013763203891510922 0.054034945101373855 0 0 0 0.026486241417540635 0.039933087885281715 -0.011540198549979175 0 -0.011540198549979175 0.050740036342126982 0 0 0 0.022668281056852146 0.033865409166599941 -0.016282632066138392 0 -0.016282632066138392 0.023441923317472413 0 0 0 0.01432683312101804 0.036280193951139322 -0.014604878034030599 0 -0.014604878034030599 0.031012052569462156 0 0 0 0.016823061630150377 0.042285609408492353 -0.012895702198099962 0 -0.012895702198099962 0.024826717492024197 0 0 0 0.016778081725129235 0.058095798840068824 -0.0088064152245095617 0 -0.0088064152245095617 0.060538520235395077 0 0 0 0.029658579768865961 0.048455421900044149 -0.014586763990293294 0 -0.014586763990293294 0.044239858407113086 0 0 0 0.023173820076789309 0.063739231417955414 -0.010293969909055622 0 -0.010293969909055622 0.044537466172713258 0 0 0 0.02706917439766722 0.052523948153965827 -0.016481909262829553 0 -0.016481909262829553 0.031916816962052952 0 0 0 0.021110191279004709 0.072996512267507141 -0.011805603949238519 0 -0.011805603949238519 0.073196604168725532 0 0 0 0.036548279109058113 0.097970212589809313 -0.013042773599304159 0 -0.013042773599304159 0.074715424769798755 0 0 0 0.043171409339902045 0.068523974765616891 -0.011346692250463253 0 -0.011346692250463253 0.05926847515870648 0 0 0 0.03194811248108087 0.06902308546352251 -0.019846010572478034 0 -0.019846010572478034 0.058831767367421017 0 0 0 0.03196371320773591 0.032858839944933257 -0.010310323555935997 0 -0.010310323555935997 0.098332338508545836 0 0 0 0.032797794613369777 0.073545856058676584 -0.01370571498185752 0 -0.01370571498185752 0.06747784318243899 0 0 0 0.035255924810278949 0.079491125181086641 -0.015150692321198256 0 -0.015150692321198256 0.064066432830940823 0 0 0 0.035889389503006963 0.027916878949451177 -0.010308986187563866 0 -0.010308986187563866 0.083600834921495615 0 0 0 0.027879428467736694 0.092488297892760585 -0.008539767007783805 0 -0.008539767007783805 0.080258269524703163 0 0 0 0.043186641854366048 0.038422078717742308 -0.010029835127773437 0 -0.010029835127773437 0.11515318714584087 0 0 0 0.038393816465895791 0.12890105905972116 -0.011246366542495261 0 -0.011246366542495261 0.087459778315900349 0 0 0 0.054090209343905404 0.1071519734815338 -0.014956108418540337 0 -0.014956108418540337 0.085516872378997077 0 0 0 0.048167211465132774 0.088015074667134874 -0.0065007119789928236 0 -0.0065007119789928236 0.072183243482378145 0 0 0 0.040049579537378088 0.059813610147223695 -0.0078357429248550603 0 -0.0078357429248550603 0.037268849053364139 0 0 0 0.024270614800147028 0.077186725266689626 -0.016400861935065625 0 -0.016400861935065625 0.04327173138648055 0 0 0 0.030114614163292475 0.093960193377327722 -0.0081434967364800714 0 -0.0081434967364800714 0.084587445954740104 0 0 0 0.044636909833016908 0.089510563221725362 -0.0030996188696984506 0 -0.0030996188696984506 0.049738418379892513 0 0 0 0.03481224540040441 0.06780993628434806 -0.015701372362436794 0 -0.015701372362436794 0.015101863660833548 0 0 0 0.020727949986295402 0.10917925588100441 -0.016153778164881727 0 -0.016153778164881727 0.085951214916828833 0 0 0 0.048782617699458242 0.14823071458240322 -0.003178096323401991 0 -0.003178096323401991 0.091280459264100111 0 0 0 0.059877793461625806 0.11213356602100362 -0.017813483596206825 0 -0.017813483596206825 0.068858302370640057 0 0 0 0.045247967097910867 0.087463154322213632 0.0024680220180221535 0 0.0024680220180221535 0.020887129156860418 0 0 0 0.027087570869768485 0.1093814914318284 -0.015522956694977719 0 -0.015522956694977719 0.081675787666486421 0 0 0 0.047764319774579067 0.045281823368248965 -0.0098181942063795442 0 -0.0098181942063795442 0.13494397843892697 0 0 0 0.045056450451793989 0.14903006147086106 -0.00396045970251658 0 -0.00396045970251658 0.10089903486859964 0 0 0 0.062482274084865175 0.11915653552983652 0.0059598570415220209 0 0.0059598570415220209 0.086573919015132006 0 0 0 0.051432613636242408 0.094297332396761968 -0.008364288703323508 0 -0.008364288703323508 0.049412014782439506 0 0 0 0.035927336794800313 0.068023191888306286 0.0048696691266676417 0 0.0048696691266676417 0.022747589008852376 0 0 0 0.022692695224289832 0.064007112869002625 -0.0090472510642736204 0 -0.0090472510642736204 0.029711437687276021 0 0 0 0.023429637639069356 0.080581594574565374 0.00017090628857552304 0 0.00017090628857552304 0.046364443054073057 0 0 0 0.031736509407159774 0.043214683193427916 -0.0025249207187014733 0 -0.0025249207187014733 0.019061256800740001 0 0 0 0.01556898499854209 0.019885604170234772 -0.0071137363844970825 0 -0.0071137363844970825 0.0025371357229362346 0 0 0 0.0056056849732929459 0.019906503251031715 -0.0098134746375180913 0 -0.0098134746375180913 0.0025998329654548513 0 0 0 0.0056265840541216416 0.037006619408361904 -0.0036089141277553249 0 -0.0036089141277553249 -0.00077914747172795021 0 0 0 0.0090568679841585998 0.041246764049037599 -0.0136562700515519 0 -0.0136562700515519 0.013715501279992992 0 0 0 0.013740566332257731 0.019269957583364083 -0.016019533758546034 0 -0.016019533758546034 0.010127210596413416 0 0 0 0.0073492920449444443 0.017588408030144387 -0.015612130191267726 0 -0.015612130191267726 0.0052282011448157029 0 0 0 0.0057041522937398836 0.031925154538030576 -0.016998887341362512 0 -0.016998887341362512 0.013509708060841064 0 0 0 0.011358715649717688 0.057185710299178794 -0.013204384275153691 0 -0.013204384275153691 0.03488541866949274 0 0 0 0.023017782242167939 0.071988548980232547 -0.017055352288628978 0 -0.017055352288628978 0.038602988850777287 0 0 0 0.027647884457752347 0.047592560727227617 -0.007709104025686947 0 -0.007709104025686947 0.025613984051997996 0 0 0 0.018301636194806292 0.0022334423528782565 -0.003058220797742317 0 -0.003058220797742317 0.0037089989099916565 0 0 0 0.0014856103157174783 0.00082649302236248445 -0.0016903415942772781 0 -0.0016903415942772781 0.0010980565021809774 0 0 0 0.00048113738113553239 0.0023907835817232963 -0.0012808754095354757 0 -0.0012808754095354757 0.0015203260997326514 0 0 0 0.00097777742036398688 0.0039583737858233103 -0.0021619614910739493 0 -0.0021619614910739493 0.00073236177878843733 0 0 0 0.0011726838911527704 -0.00015187297151508794 -0.0045121496631046476 0 -0.0045121496631046476 -0.00021674850717090521 0 0 0 -9.2155369671331755e-05 0.0041699407527382437 -0.0067187013926547356 0 -0.0067187013926547356 -0.0015348145309950212 0 0 0 0.00065878155543552808 0.010975759491297588 -0.0055679078030563545 0 -0.0055679078030563545 -0.00026254970098626984 0 0 0 0.0026783024475780515 0.0046952772531094929 -0.0030609422850607082 0 -0.0030609422850607082 -0.0038708196513816437 0 0 0 0.00020611440043174026 0.0089085527004669797 -0.0045778419080877431 0 -0.0045778419080877431 -0.0073312162017137193 0 0 0 0.00039433412468848164 0.0052253736683161023 -0.011395660819727982 0 -0.011395660819727982 -0.0020418052989077395 0 0 0 0.00079589209235209069 0.00021667466722113948 -0.016135272708979298 0 -0.016135272708979298 0.0018759966929204897 0 0 0 0.00052316784003542116 -0.011197567576185286 -0.011036812963147513 0 -0.011036812963147513 -0.00015534138045225632 0 0 0 -0.0028382272391593855 0.00524680103591324 -0.0097348174954319244 0 -0.0097348174954319244 0.00045574997970199149 0 0 0 0.0014256377539036968 -0.00018730952771264797 -0.010501045787148389 0 -0.010501045787148389 0.0033943623076962415 0 0 0 0.00080176319499600246 -0.0046428067401641515 -0.004789931069612674 0 -0.004789931069612674 0.00099041442887087827 0 0 0 -0.00091309807782324892 -0.015605717177756828 -0.0052191819532879562 0 -0.0052191819532879562 0.00029128567205383149 0 0 0 -0.0038286078764258047 -0.0048897100221723111 -0.0042849846899757349 0 -0.0042849846899757349 0.003863746232410481 0 0 0 -0.00025649094744051304 -0.028231536993742257 -0.0060166408330165318 0 -0.0060166408330165318 0.003674115693064639 0 0 0 -0.0061393553251694044 -0.0077522997163964602 -0.0084031428256448049 0 -0.0084031428256448049 0.0043681019846153468 0 0 0 -0.0008460494329453061 -0.011094963213108489 -0.012863318349857655 0 -0.012863318349857655 0.0030595690093522254 0 0 0 -0.0020088485509390241 -0.023446937643891594 -0.0066774355321368439 0 -0.0066774355321368439 -0.0011471124038572866 0 0 0 -0.0061485125119371403 -0.013549577237098376 -0.015471274839269078 0 -0.015471274839269078 0.0011421897462269293 0 0 0 -0.0031018468727179727 0.00087824927763779925 -0.016612545792599825 0 -0.016612545792599825 0.0051265144623728887 0 0 0 0.0015011909350024499 -0.0023425477474272594 -0.020509020239668718 0 -0.020509020239668718 0.0043203671607159322 0 0 0 0.0004944548533221127 -0.0017338404028628407 -0.019678521763145329 0 -0.019678521763145329 0.0050983807342039889 0 0 0 0.00084113508283500948 -0.014291287878899044 -0.016340807469080731 0 -0.016340807469080731 0.00064210563111795349 0 0 0 -0.0034122955619451598 -0.014860920771169739 -0.01967816375620135 0 -0.01967816375620135 0.0030694560352082512 0 0 0 -0.0029478661839903442 -0.0023846797701823214 -0.023261500348213948 0 -0.023261500348213948 0.0077440002447037304 0 0 0 0.0013398301186305778 -0.020130717521759656 -0.01893932156305167 0 -0.01893932156305167 0.0020382418748288167 0 0 0 -0.0045231189117327375 -0.026965051849348831 -0.011658152376665898 0 -0.011658152376665898 0.0021042537278959106 0 0 0 -0.0062151995303633134 -0.032079261369370782 -0.0097283854999761221 0 -0.0097283854999761221 -0.0010482360652890321 0 0 0 -0.0082818743586645649 -0.032942898669629295 -0.0097742739692864289 0 -0.0097742739692864289 0.0042823884777432042 0 0 0 -0.0071651275479712728 -0.045529723163907132 -0.0053580022681003099 0 -0.0053580022681003099 0.00021346854175074981 0 0 0 -0.011329063655539207 -0.028913228815293124 -0.0050485380257376811 0 -0.0050485380257376811 0.0021525343994814872 0 0 0 -0.0066901736039526316 0.04283108136997138 -0.021981013099323876 0 -0.021981013099323876 0.023060113472952892 0 0 0 0.01647279871073104 0.030982751729766389 -0.019616829292476323 0 -0.019616829292476323 0.021525332247253726 0 0 0 0.013127020994255223 0.048130083132130963 -0.0217981888437907 0 -0.0217981888437907 0.040500204256818328 0 0 0 0.022157571847237101 0.04024820613909319 -0.022691363871402914 0 -0.022691363871402914 0.023860254673611525 0 0 0 0.016027115203176123 0.013327698407906041 -0.01996813941450104 0 -0.01996813941450104 0.0095037960603159277 0 0 0 0.0057078736170557143 0.012334404175711522 -0.019793364921815826 0 -0.019793364921815826 0.0064361242436803412 0 0 0 0.004692632104847827 0.027324956711024195 -0.023208053190842293 0 -0.023208053190842293 0.012593026031518573 0 0 0 0.0099794956856357198 0.021477184641466973 -0.025238133440635302 0 -0.025238133440635302 0.011116021097634654 0 0 0 0.0081483014347752958 0.0097024383651270751 -0.022386483499971743 0 -0.022386483499971743 0.0097886968419371723 0 0 0 0.0048727838017661451 0.0078059987120526753 -0.020968633625849886 0 -0.020968633625849886 0.0052249074092625136 0 0 0 0.0032577265303288527 0.0077153304223484542 -0.020567855983348315 0 -0.020567855983348315 0.0082357588161671713 0 0 0 0.0039877723096288231 0.037377023903369277 -0.023352190173492486 0 -0.023352190173492486 0.019138789923396349 0 0 0 0.01412895345669174 0.024648860242448944 -0.021770942228313106 0 -0.021770942228313106 0.020223094691171895 0 0 0 0.011217988733405071 0.055917324032350724 -0.017910851453346144 0 -0.017910851453346144 0.035711945818051483 0 0 0 0.022907317462600441 0.041305528594462015 -0.021429428748504731 0 -0.021429428748504731 0.031841947083801614 0 0 0 0.018286868919565991 0.051839570501686971 -0.017672508840441803 0 -0.017672508840441803 0.02944188916785162 0 0 0 0.020320364917384648 0.037124595353396184 -0.024333458666345176 0 -0.024333458666345176 0.020806979584371055 0 0 0 0.014482893734441782 0.040543369135213711 -0.019162202121079663 0 -0.019162202121079663 0.021946570844979051 0 0 0 0.015622484995048248 0.048196747288149266 -0.021933123252536907 0 -0.021933123252536907 0.022159657566644952 0 0 0 0.017589101213698499 0.023740050211126906 -0.026224416931968086 0 -0.026224416931968086 0.013169035178241639 0 0 0 0.0092272713473421364 0.027021690362629469 -0.020480688164106448 0 -0.020480688164106448 0.018332290088704628 0 0 0 0.011338495112833469 0.021033019372025348 -0.026704891122459329 0 -0.026704891122459329 0.010431009945535336 0 0 0 0.0078660073293901969 0.0016671248039389353 -0.025651742086272022 0 -0.025651742086272022 0.0063372793783058601 0 0 0 0.0020011010455611711 -0.0026135124528996537 -0.02031999481966551 0 -0.02031999481966551 0.0046439074190581589 0 0 0 0.00050759874153970957 0.020251755403928984 -0.021691954232721744 0 -0.021691954232721744 0.010662902525297113 0 0 0 0.0077286644823065798 0.0063843652021544628 -0.02825477935749815 0 -0.02825477935749815 0.0059043666847014009 0 0 0 0.0030721829717139659 0.017189301011088103 -0.02187095571725145 0 -0.02187095571725145 0.0084479802501941231 0 0 0 0.0064093203153205262 -0.0030923435537043575 -0.023100565657144578 0 -0.023100565657144578 0.004232045927062611 0 0 0 0.00028492559333959111 -0.0018628086211817108 -0.026359159883326447 0 -0.026359159883326447 0.0098329317040815045 0 0 0 0.0019925307707249207 0.043426305234460116 -0.024285167145760844 0 -0.024285167145760844 0.014548711330251818 0 0 0 0.014493754141177928 0.047260311267272342 -0.019469639328453747 0 -0.019469639328453747 0.021280958407283945 0 0 0 0.017135317418639023 0.041685551530171838 -0.019333964985193741 0 -0.019333964985193741 0.024195172962800271 0 0 0 0.016470181123243055 0.018576917442965191 -0.026701763350351237 0 -0.026701763350351237 0.011601643374771986 0 0 0 0.0075446402044343497 0.038281891433444959 -0.021994019623444716 0 -0.021994019623444716 0.015060451596116797 0 0 0 0.013335585757390467 -0.048209536828394794 -0.0099272150096489931 0 -0.0099272150096489931 0.0029697851224694816 0 0 0 -0.011309937926481384 -0.057998982671409703 -0.0057379238342560868 0 -0.0057379238342560868 -0.00049306545308885896 0 0 0 -0.014623012031124724 -0.046922091556305168 -0.0057548680584891265 0 -0.0057548680584891265 -0.00090833441840892926 0 0 0 -0.011957606493678441 -0.061235687635855296 -0.0068286603990795822 0 -0.0068286603990795822 0.0027116567055949226 0 0 0 -0.014631007732565093 -0.035051916096678015 -0.0087551934769408285 0 -0.0087551934769408285 -0.0014665621846567944 0 0 0 -0.0091296195703338689 -0.020600357457982943 -0.01688455195138213 0 -0.01688455195138213 0.0031498244316137125 0 0 0 -0.0043626332565923631 -0.035322264345377719 -0.017208605380538589 0 -0.017208605380538589 0.0026573162475156398 0 0 0 -0.0081662370244654503 -0.014478724221052564 -0.01793445224808432 0 -0.01793445224808432 0.0022155814732043311 0 0 0 -0.0030657856869620304 -0.018681672114928993 -0.024295302045184375 0 -0.024295302045184375 0.0049302659991865561 0 0 0 -0.0034378515289357203 -0.022706560741129422 -0.021459989500579146 0 -0.021459989500579146 0.004638235845876526 0 0 0 -0.0045170812238133351 -0.01930235452731055 -0.018863126713979717 0 -0.018863126713979717 0.0045220700682502279 0 0 0 -0.0036950711147651916 -0.020681523120405554 -0.024754014500448673 0 -0.024754014500448673 0.0083924107740297182 0 0 0 -0.0030722780865938826 -0.03018791897583516 -0.014979655007019366 0 -0.014979655007019366 0.002652731885638443 0 0 0 -0.006883796772549234 -0.04177958101990259 -0.01833110612340072 0 -0.01833110612340072 0.0043052032199344392 0 0 0 -0.0093685944499919405 -0.041079114001251082 -0.015266320743466621 0 -0.015266320743466621 0.0013633827071695137 0 0 0 -0.0099289328235203644 -0.041339404508759642 -0.015914828414830495 0 -0.015914828414830495 0.0032837973637765971 0 0 0 -0.0095139017862458097 -0.062219374007518979 -0.010007117285516565 0 -0.010007117285516565 0.0016815805458847422 0 0 0 -0.015134448365408559 -0.059547255985520658 -0.0058492675689714724 0 -0.0058492675689714724 0.0012538991812174882 0 0 0 -0.014573339201075702 -0.073722485309939523 -0.0090833915669619181 0 -0.0090833915669619181 0.0018232521558463333 0 0 0 -0.01797480828852327 -0.10397582237874775 -0.0058612635679858591 0 -0.0058612635679858591 0.001962694832189138 0 0 0 -0.025503281886639584 -0.085884871958131215 -0.0068349622153896141 0 -0.0068349622153896141 0.0019077655954853334 0 0 0 -0.020994276590661387 -0.071468790960209083 -0.0036261257193017093 0 -0.0036261257193017093 0.00070117533830998946 0 0 0 -0.01769190390547476 -0.062462240522442342 -0.015928848565372966 0 -0.015928848565372966 0.0058669315896955065 0 0 0 -0.014148827233186639 -0.050201957117498697 -0.011216593115609436 0 -0.011216593115609436 0.0014453495594923815 0 0 0 -0.012189151889501482 -0.025704981382763614 -0.016747924696773608 0 -0.016747924696773608 0.0047690969681444262 0 0 0 -0.0052339711036547554 -0.03010439603597509 -0.02236794462894226 0 -0.02236794462894226 0.010092668087310575 0 0 0 -0.0050029319871661704 -0.027700007798962589 -0.020163771881421155 0 -0.020163771881421155 0.017614679919381093 0 0 0 -0.0025213319698953462 -0.038420522133041229 -0.012020938908195111 0 -0.012020938908195111 0.0014373542131771999 0 0 0 -0.0092457919799660282 -0.039073291870506399 -0.014459097361005868 0 -0.014459097361005868 0.00799267367739534 0 0 0 -0.0077701545482777856 -0.056057835224680913 -0.0026912147952466992 0 -0.0026912147952466992 0.0098168925869275281 0 0 0 -0.011560235659438339 -0.056240392417656354 -0.014589073938168551 0 -0.014589073938168551 0.0077678957556331363 0 0 0 -0.012118124165505811 -0.07324110452611704 -0.007501687543998159 0 -0.007501687543998159 0.0021820628362251848 0 0 0 -0.017764760422472936 -0.068499101116495653 -0.0037124945289467304 0 -0.0037124945289467304 0.0017454486746670828 0 0 0 -0.016688413110457156 -0.10286549276925905 -0.0035368294093774243 0 -0.0035368294093774243 0.0028236644559269664 0 0 0 -0.02501045707833302 0.021734135548615363 -0.022917627029740678 0 -0.022917627029740678 0.015668547854612802 0 0 0 0.0093506708508070413 0.053591715758285058 -0.03842562332264457 0 -0.03842562332264457 0.032382742690886146 0 0 0 0.02149361461229285 0.020350012457485932 -0.028470091577834644 0 -0.028470091577834644 0.016326720326474253 0 0 0 0.009169183195990048 0.016590828042447325 -0.022549277250060507 0 -0.022549277250060507 0.0084043752525538862 0 0 0 0.006248800823750289 -0.0086616792344504923 -0.02319426245725028 0 -0.02319426245725028 0.0081925585243201038 0 0 0 -0.00011728017753265263 -0.0068419720614719126 -0.024135496169457676 0 -0.024135496169457676 0.013897630322388443 0 0 0 0.0017639145652291743 0.013538052473528975 -0.030352520176741393 0 -0.030352520176741393 0.01976283533527573 0 0 0 0.0083252219522011867 -0.0072505072861084041 -0.016514649644229079 0 -0.016514649644229079 0.019899139381600151 0 0 0 0.0031621580238729019 -0.034612188769225505 -0.010123135740712705 0 -0.010123135740712705 0.0082346399557329253 0 0 0 -0.0065943872033731865 -0.024695574708958931 -0.0063644528816612089 0 -0.0063644528816612089 0.01425557004335852 0 0 0 -0.002610001166400075 -0.013079532013998113 -0.022363025108046802 0 -0.022363025108046802 0.023768717936239359 0 0 0 0.0026722964805603044 0.017986910178189236 -0.025786989007773778 0 -0.025786989007773778 0.029826269021305363 0 0 0 0.011953294799873643 0.018837511023562875 -0.023745235396133581 0 -0.023745235396133581 0.030590734316070178 0 0 0 0.012357061334908243 0.044477033242928073 -0.033179847638597881 0 -0.033179847638597881 0.046403486093615554 0 0 0 0.022720129834135898 0.063189280596512507 -0.052379681647223952 0 -0.052379681647223952 0.096411457433015255 0 0 0 0.039900184507381926 -0.048057750800472407 0.012866941896023582 0 0.012866941896023582 0.053510441378543272 0 0 0 0.0013631726445177128 0.1520384710369076 -0.051721878455374098 0 -0.051721878455374098 0.044222729650733261 0 0 0 0.049065300171910242 0.0037888006091645081 -0.0019616460007437857 0 -0.0019616460007437857 0.011155748219542239 0 0 0 0.0037361372071766869 0.074331326603068432 -0.025829916425066657 0 -0.025829916425066657 0.0091267101218808211 0 0 0 0.020864509181237362 0.066814753782580588 -0.020406819825425415 0 -0.020406819825425415 0.02001397899956664 0 0 0 0.021707183195536855 0.0092417460735593222 -0.005050767888885737 0 -0.005050767888885737 0.027670501985763873 0 0 0 0.0092280620148307985 0.10104473915792245 -0.015045773470797774 0 -0.015045773470797774 0.025033802778456682 0 0 0 0.03151963548409481 0.012725013046056593 -0.0070747750757278061 0 -0.0070747750757278061 0.038092906216495928 0 0 0 0.012704479815638131 0.071500651549173733 -0.013248697914695184 0 -0.013248697914695184 0.027257057524822437 0 0 0 0.024689427268498987 0.065390251468226579 -0.02203603189056802 0 -0.02203603189056802 0.01750605554162088 0 0 0 0.020724076752461851 0.0074051672801956347 -0.012500381745780664 0 -0.012500381745780664 0.017343312679213685 0 0 0 0.0061871199898523299 -0.010306664832770263 -0.017363441408501865 0 -0.017363441408501865 0.027386380638354746 0 0 0 0.0042699289513961625 0.0082139418313404988 -0.013404926558697294 0 -0.013404926558697294 0.022934975037895627 0 0 0 0.0077872292173090663 -0.026738758673075902 -0.01695731820011603 0 -0.01695731820011603 0.017700134334112549 0 0 0 -0.002259656084740852 0.0085618583228116579 -0.0037598594385900158 0 -0.0037598594385900158 0.036463429283526555 0 0 0 0.011256321901584543 0.0034545115842200477 -0.001863742775110977 0 -0.001863742775110977 0.0095734395351368684 0 0 0 0.0032569877798392169 -0.013763371475586143 -0.0076695361160154102 0 -0.0076695361160154102 0.097748005470022187 0 0 0 0.020996158498609016 0.0060938867392720062 0.0049990827028207063 0 0.0049990827028207063 0.037412719949760885 0 0 0 0.010876651672258217 0.016212698473440118 -0.0057988615773988325 0 -0.0057988615773988325 0.014473161410436169 0 0 0 0.0076714649709690719 0.022347374133242198 -0.0076091792442023361 0 -0.0076091792442023361 0.0372190778833493 0 0 0 0.014891613004147888 0.015984760958848421 -0.0075816272979165669 0 -0.0075816272979165669 0.035396741045909036 0 0 0 0.012845375501189363 0.023216135782704039 -0.011353413689744511 0 -0.011353413689744511 0.03848160732283562 0 0 0 0.015424435776384901 0.022649833213043945 -0.01044725462736918 0 -0.01044725462736918 0.053720344573559509 0 0 0 0.019092544446650879 0.035350351804900614 -0.020349446156063225 0 -0.020349446156063225 0.040021362918254672 0 0 0 0.018842928680788823 0.038878447643201718 -0.021984807982384419 0 -0.021984807982384419 0.022853610637668428 0 0 0 0.015433014570217556 0.029393517878784969 -0.013498709483206528 0 -0.013498709483206528 0.021831425654069037 0 0 0 0.012806235883213474 0.030145386203647817 -0.017581619166145659 0 -0.017581619166145659 0.018275753113899063 0 0 0 0.01210528482938672 0.027586743503810462 -0.012732608661741043 0 -0.012732608661741043 0.016782421684331583 0 0 0 0.011092291297035498 0.029969514074790371 -0.016880644381067178 0 -0.016880644381067178 0.0094811782339288553 0 0 0 0.0098626730771797788 0.015155323167507929 -0.016116228087363613 0 -0.016116228087363613 0.018127301785576727 0 0 0 0.0083206562382711624 0.026629690852403076 -0.01540527490257701 0 -0.01540527490257701 0.012721142912743844 0 0 0 0.0098377084412867577 0.025035523421775258 -0.017206782191849859 0 -0.017206782191849859 0.0089847434244644531 0 0 0 0.0085050667115599277 0.018714720112590955 -0.016964824054451433 0 -0.016964824054451433 0.014287015694689209 0 0 0 0.0082504339518200687 0.028219687689693129 -0.01866468894470609 0 -0.01866468894470609 0.0070188239732192348 0 0 0 0.0088096279157280771 0.026956646874857715 -0.017148725100754977 0 -0.017148725100754977 0.0096045577897257983 0 0 0 0.0091403011661458644 0.024902197218709496 -0.018334419010134564 0 -0.018334419010134564 0.014784292438983992 0 0 0 0.0099216224144233339 0.039190030167977064 -0.016536243997896161 0 -0.016536243997896161 0.0051399306726775951 0 0 0 0.011082490210163692 0.034034442433505091 -0.018190423470095966 0 -0.018190423470095966 0.011114385872718846 0 0 0 0.01128720707655595 0.032097492735338198 -0.017116796725194061 0 -0.017116796725194061 0.0069734261433102018 0 0 0 0.0097677297196620966 0.035815347318169134 -0.016234077402197067 0 -0.016234077402197067 0.0043610097597539393 0 0 0 0.010044089269480756 0.037955388847539032 -0.017459123788851921 0 -0.017459123788851921 0.0048734265805943366 0 0 0 0.010707203857033342 0.035362423085171985 -0.0098137622156684312 0 -0.0098137622156684312 -0.0021170454849513964 0 0 0 0.0083113444000551817 0.030718086225756641 -0.01543086678924678 0 -0.01543086678924678 0.0024806483799271195 0 0 0 0.0082996836514209471 0.038566414315376607 -0.012532982385598357 0 -0.012532982385598357 0.0046113615106788131 0 0 0 0.010794443956513852 0.026114329243084142 -0.016316250896102974 0 -0.016316250896102974 0.017250466658685515 0 0 0 0.010841198975442543 0.03214569703675324 -0.015414408494597437 0 -0.015414408494597437 0.0095974391581818974 0 0 0 0.010435784048733798 0.026183843920686144 -0.01794714191729152 0 -0.01794714191729152 0.0096897968484685459 0 0 0 0.0089684101922886603 0.028685741190478148 -0.014701595925495303 0 -0.014701595925495303 0.0081906712568238227 0 0 0 0.0092191031118254718 0.027896014133856839 -0.015938618023922581 0 -0.015938618023922581 0.017373827967093192 0 0 0 0.011317460525237466 0.032427964719956182 -0.014630721649114128 0 -0.014630721649114128 0.019447922208973845 0 0 0 0.012968971732232493 0.031631779935509224 -0.015009796592740876 0 -0.015009796592740876 0.031047759310999901 0 0 0 0.015669884811627316 0.024100572358145778 -0.016878135742461997 0 -0.016878135742461997 0.027721698998749322 0 0 0 0.012955567839223858 0.02656700961739919 -0.015989451848187397 0 -0.015989451848187397 0.023486241272782871 0 0 0 0.012513312722545494 0.029609304754029175 -0.012070235406238472 0 -0.012070235406238472 0.044874935060523979 0 0 0 0.018621059953638275 0.070824475277581733 -0.012927084049125126 0 -0.012927084049125126 0.044081437606589668 0 0 0 0.028726478221042795 0.019614394919408723 -0.0094478638952590361 0 -0.0094478638952590361 0.058735282904959316 0 0 0 0.019587419456092006 0.033114465423850381 -0.013481533221856599 0 -0.013481533221856599 0.047306820838998731 0 0 0 0.02010532156571232 0.056887754387969947 -0.016729985595014596 0 -0.016729985595014596 0.048295098500084288 0 0 0 0.026295713222013573 0.057699495512771204 -0.014570398111233729 0 -0.014570398111233729 0.040482954710287955 0 0 0 0.024545612555764817 0.073562962716043068 -0.011070669022713586 0 -0.011070669022713586 0.036647460615609972 0 0 0 0.027552605832913246 0.012317469922284718 -0.014187754546673426 0 -0.014187754546673426 0.038814615157458987 0 0 0 0.012783021269935912 0.01607484237825112 -0.0084993863045920021 0 -0.0084993863045920021 0.048137606882566575 0 0 0 0.016053112315204423 0.063128397887819043 -0.012794226808165776 0 -0.012794226808165776 0.034970500770654556 0 0 0 0.024524724664618247 0.056114669328475808 -0.019451120553399259 0 -0.019451120553399259 0.019510954517455104 0 0 0 0.018906405961482575 0.079737866744887365 -0.011339054951887917 0 -0.011339054951887917 0.029522568898957768 0 0 0 0.027315108910961339 0.0099464462861420348 -0.014368102620677475 0 -0.014368102620677475 0.027813355651453105 0 0 0 0.009439950484398784 0.015897803989507159 -0.018920141369198035 0 -0.018920141369198035 0.014920801331071765 0 0 0 0.0077046513301447517 0.015611683223038186 -0.01793384994840809 0 -0.01793384994840809 0.019267249872864323 0 0 0 0.0087197332739756273 0.020667630098205408 -0.014969327827811518 0 -0.014969327827811518 0.031454668352875859 0 0 0 0.013030574612770324 
</DataArray>
<DataArray type="Float64" Name="cross_section_updated" format="ascii">
1 1 1 1 1 1 1 1 1 1 1 1 1 1 1 1 1 1 1 1 1 1 1 1 1 1 1 1 1 1 1 1 1 1 1 1 1 1 1 1 1 1 1 1 1 1 1 1 1 1 1 1 1 1 1 1 1 1 1 1 1 1 1 1 1 1 1 1 1 1 1 1 1 1 1 1 1 1 1 1 1 1 1 1 1 1 1 1 1 1 1 1 1 1 1 1 1 1 1 1 1 1 1 1 1 1 1 1 1 1 1 1 1 1 1 1 1 1 1 1 1 1 1 1 1 1 1 1 1 1 1 1 1 1 1 1 1 1 1 1 1 1 1 1 1 1 1 1 1 1 1 1 1 1 1 1 1 1 1 1 1 1 1 1 1 1 1 1 1 1 1 1 1 1 1 1 1 1 1 1 1 1 1 1 1 1 1 1 1 1 1 1 1 1 1 1 1 1 1 1 1 1 1 1 1 1 1 1 1 1 1 1 1 1 1 1 1 1 1 1 1 1 1 1 1 1 1 1 1 1 1 1 1 1 1 1 1 1 1 1 1 1 1 1 1 1 1 1 1 1 1 1 1 1 1 1 1 1 1 1 1 1 1 1 1 1 1 1 1 1 1 1 1 1 1 1 1 1 1 1 1 1 1 1 1 1 1 1 1 1 1 1 1 1 1 1 1 1 1 1 1 1 1 1 1 1 1 1 1 1 1 1 1 1 1 1 1 1 1 1 1 1 1 1 1 1 1 1 1 1 1 1 1 1 1 1 1 1 1 1 1 1 1 1 1 1 1 1 1 1 1 1 1 1 1 1 1 1 1 1 1 1 1 1 1 1 1 1 1 1 1 1 1 1 1 1 1 1 1 1 1 1 1 1 1 1 1 1 1 1 1 1 1 1 1 1 1 1 1 1 1 1 1 1 1 1 1 1 1 1 1 1 1 1 1 1 1 1 1 1 1 1 1 1 1 1 1 1 1 1 1 1 1 1 1 1 1 1 1 1 1 1 1 1 1 1 1 1 1 1 1 1 1 1 1 1 1 1 1 1 1 1 1 1 1 1 1 1 1 1 1 1 1 1 1 1 1 1 1 1 1 1 1 1 1 1 1 1 1 1 1 1 1 1 1 1 1 1 1 1 1 1 1 1 1 1 1 1 1 1 1 1 1 1 1 1 1 1 1 1 1 1 1 1 1 1 1 1 1 1 1 1 1 1 1 1 1 1 0.002032868646990673 1 1 0.0020852813033785727 1 1 0.0021218213234205606 1 1 1 1 1 1 1 1 1 1 1 1 1 0.0021556761748120884 1 1 1 1 1 0.0021897603875950743 1 1 1 1 1 1 1 1 1 1 1 1 1 1 1 1 1 1 1 1 1 1 1 1 1 1 1 1 1 1 1 1 1 1 1 1 1 1 1 1 1 1 1 1 1 1 1 1 1 1 1 1 1 1 1 1 1 1 1 1 1 1 1 1 1 1 1 1 1 1 1 1 1 1 1 1 1 1 1 1 1 1 1 1 1 1 1 1 1 1 1 1 1 1 1 1 1 1 1 1 1 1 1 1 1 1 1 1 1 1 1 1 1 1 1 1 1 1 1 1 1 1 1 1 1 1 1 1 1 1 1 1 1 1 1 1 1 1 1 1 1 1 1 1 1 1 1 1 1 1 1 1 1 1 1 1 1 1 1 1 1 1 1 1 1 1 1 1 0.0022247547766130098 1 1 1 0.00226132035120252 1 1 0.0022997475142857468 1 1 1 1 1 1 1 1 1 1 1 0.0023407350196453982 1 1 1 1 0.0023856674308432267 1 1 1 1 1 1 1 1 1 1 1 1 1 1 1 1 1 1 1 1 1 1 1 1 1 1 1 1 1 1 1 1 1 1 1 1 1 1 1 1 1 1 1 1 1 1 1 1 1 1 1 1 1 1 1 1 1 1 0.0010587045875231767 1 1 1 1 1 1 1 1 1 1 1 1 1 1 0.0010819181798689701 1 1 0.0010696517580671987 1 0.0010959492133499314 1 1 1 1 1 1 1 1 1 1 1 1 1 0.0011123594099839162 1 1 1 1 1 1 1 1 1 1 1 1 1 1 1 1 1 1 1 1 1 1 1 1 1 1 1 1 1 1 1 1 1 1 1 1 1 1 1 1 1 1 1 1 1 1 1 1 1 1 1 1 1 1 1 1 1 1 1 1 1 1 1 1 1 1 1 1 1 1 1 1 1 1 1 1 1 1 1 1 1 1 1 1 1 1 1 1 1 1 1 1 1 1 1 1 1 1 1 1 1 1 1 1 1 1 1 1 1 1 1 1 1 1 1 1 1 1 1 1 1 1 1 1 1 1 1 1 1 1 1 1 1 1 1 1 0.0010092745137654569 1 1 0.0010230530499636666 1 0.0010317355330010723 1 1 1 1 1 1 1 1 1 1 1 1 1 1 1 1 1 1 1 1 1 1 1 1 1 1 1 1 1 1 1 1 1 1 1 1 1 1 1 1 1 1 1 1 1 1 1 0.0010489348293110841 1 1 1 1 1 0.0010401056182092027 1 1 1 1 1 1 1 
</DataArray>
<DataArray type="Float64" Name="displacement_divergence" format="ascii">
-2.7659579707504853e-05 -3.0998570754229446e-05 -2.3489107528544847e-05 -2.7248946601166295e-05 -2.6171501529179142e-05 -2.6157696103504039e-05 -2.4222235765039632e-05 -2.5330257695903482e-05 -2.3335196066766846e-05 -1.7737193548160368e-05 -2.5887913746471775e-05 -1.6680827947091382e-05 -3.1392880858095761e-05 -2.3799834333072696e-05 -3.7870490931228207e-05 -2.967893985045426e-05 -2.5524902272932751e-05 -2.7880782165127691e-05 -4.3887619320580385e-06 -7.7019788369661588e-06 -8.3419618233994057e-06 -1.4644381598842475e-05 -1.7103821839091452e-05 -1.0577151444846054e-05 -1.2346504626854075e-05 -1.555020344443419e-05 -1.6872347514013087e-05 -1.5007814751167595e-05 -6.4653598280652253e-06 -7.5957398978091021e-06 -3.9858296515572716e-06 -3.0753966785566847e-07 -1.6662885586989121e-06 -1.1520451342791454e-06 -7.8042585070042702e-06 -1.6748098429092767e-05 -1.3728795744946539e-05 -8.4802961277612285e-06 -1.5755326573099855e-05 -1.8464324458984797e-05 -1.3339242818496074e-05 -8.8314760339088967e-06 -8.5126427559394855e-06 -1.8814706927527731e-06 -9.0242547571464565e-06 -5.372021379590903e-06 4.162386593029404e-06 -9.0404078377234536e-07 -3.7873191560379912e-05 -2.8955700139743344e-05 -4.3287806629471368e-05 -2.8376928903094835e-05 -2.2127312017699973e-05 -2.4120397151195214e-05 -2.4512665840825593e-05 -2.7210589589769542e-05 -1.9909986340902151e-05 -2.9438731794071648e-05 -2.3429762387139116e-05 -2.7781003717718066e-05 -3.9902018020234236e-05 -3.8064960051385687e-05 -3.6013829294343092e-05 -4.9490779318070602e-05 -5.2594520209702997e-05 -3.7291123566158864e-05 -4.3407464503828291e-05 -5.9221177114354542e-05 -4.4487403828099225e-05 -4.5552807705585615e-05 -4.6732415730295545e-05 -6.7672548422695656e-05 -2.5364954131995054e-05 -2.1321118948668452e-05 -3.4745591053501478e-05 -3.281144236784998e-05 -2.1651592767044779e-05 -3.7801995620790516e-05 -3.3413678359724344e-05 -2.8712976582129348e-05 -2.05243084277702e-05 -1.336177387093718e-05 -1.2610070225273214e-05 -1.0167579697614365e-05 -5.5405153868341075e-06 -2.1393436228058484e-05 2.4888425571218981e-06 -1.5580328154249288e-06 -1.7291724902798955e-06 8.9004947586145059e-06 4.1371877439741583e-06 1.6702899366410301e-06 1.0465756419598509e-05 1.4313882608988808e-05 -1.1715161890059103e-05 -1.6926485401910293e-05 -2.1126366261185528e-06 -5.4445280093882032e-06 -8.0928753076984095e-06 -1.2578144069442588e-05 1.966986311084727e-07 -1.1709770798227514e-05 2.6875133687167147e-05 2.0926033663214234e-06 1.0683433498701053e-05 1.8883361586284516e-05 2.8696255408776198e-05 2.3970955802476712e-05 2.1240838429482261e-05 2.3329977415646296e-05 4.7930657807647393e-05 -2.105487157123961e-06 6.9496374044795029e-06 7.9922627460540677e-06 -1.1658540428343301e-05 -1.4063207312897078e-05 -2.6516958720717264e-05 -3.3740699488333343e-05 -3.942781720015138e-05 -4.8269684480938842e-05 -6.838643494660562e-05 -5.0605809494104324e-05 -4.9303808206902728e-05 -5.4122853518954333e-05 -4.3413426945003398e-05 -6.994538447233767e-05 -5.0329775903935e-05 -3.1558946125848021e-05 -2.1419108097745594e-05 -3.4642642821369307e-05 4.5214847069296072e-05 3.8672271898507871e-05 3.5191109879548571e-05 3.7678644916503197e-05 4.3796617750023599e-05 5.1296770806103222e-05 4.5108081225925843e-05 4.2938281707048938e-05 4.5605565420469737e-05 4.2783947075635554e-05 3.5711433573759859e-05 4.2823206814865777e-05 3.9715918905330843e-05 4.2637478810250324e-05 4.6482240783925601e-05 9.1924811506569851e-05 4.0702371307662586e-05 6.1621290405028609e-05 3.8236250333514746e-05 8.4541706148407207e-05 5.394776529496335e-05 8.2822277469672863e-05 4.7995547575964393e-05 4.1311790620522838e-05 5.004981953691501e-05 3.1096475801926018e-05 3.1141165775288562e-05 4.359265528620173e-05 3.3673246423928491e-05 4.479510415283781e-05 2.5987165930079966e-05 3.9428171304789041e-05 3.0145174349941541e-05 2.8178141705401367e-05 1.9829982592405427e-05 2.4112110044807558e-05 2.4095438879814573e-05 2.2816608447007065e-05 1.3630411953675884e-05 1.6868320530876928e-05 1.4799220329910138e-05 1.045762346252359e-05 6.7894351666436989e-06 2.3566161973678462e-05 2.1662998375928516e-05 2.017569681927916e-05 1.7486904444880299e-05 2.4759968687203203e-05 2.2496513100862948e-05 2.9799674108556285e-05 2.8589342949707133e-05 2.8198882347311978e-05 3.2049968653608521e-05 2.7705277886947082e-05 3.8683378762126002e-05 3.5156771195423799e-05 3.2354157633233529e-05 4.1599988740301377e-05 3.0656971890099337e-05 5.3507275867309161e-05 3.7384142800329572e-05 4.6302881605556432e-05 3.5682281184646552e-05 4.2406510180429329e-05 4.4773413247844337e-05 3.4371072511318564e-05 3.6944071794659753e-05 3.7064843464675013e-05 3.1748562479291573e-05 2.5362416681031034e-05 2.9827063903877975e-05 2.9523294242205865e-05 2.3451735316101326e-05 2.0961518483524464e-05 2.4244769879626464e-05 2.6711719452761102e-05 2.2844540347743309e-05 2.2490033915300201e-05 1.828043997932534e-05 2.5025864660604508e-05 2.407122638977236e-05 2.8321015251465688e-05 2.5872260917779816e-05 2.6537692715871271e-05 7.7479078449998089e-06 1.0663456926350627e-05 6.0863180238351604e-06 1.3195237746411261e-05 1.4307016039634055e-05 1.6318946660359628e-05 1.7593652295024705e-05 1.9474970519062492e-05 1.7720301938121667e-05 1.5327381127706913e-05 1.757634423147607e-05 1.3830054662693163e-05 1.126310793212811e-05 6.0897156150140666e-06 4.8183015924093041e-06 4.8964946928276717e-06 8.0840180000424144e-08 2.9707608106128134e-06 9.4458500007210287e-08 3.1650992159815551e-06 8.6605370223260918e-06 8.0112631558769876e-06 9.5433737110548793e-06 1.2278640933411008e-05 1.3674576965067179e-05 1.6838751784758819e-05 1.5107234891781362e-05 1.2316506642370142e-05 1.2706089708366317e-05 6.0018250185630141e-06 4.3073619112309622e-06 -1.0348217097026923e-06 2.4904528276583141e-05 2.4493192690393451e-05 2.1162900993256794e-05 2.1173133607765417e-05 1.8558840192019156e-05 2.1491577797953927e-05 2.0258333939568948e-05 1.8242198224537576e-05 2.4833046859591126e-05 2.1909398387269547e-05 2.6701415716726553e-05 2.2232242897245011e-05 2.3781449182817872e-05 2.7771348543643822e-05 2.4634446613867418e-05 3.2105971858352609e-05 2.3411793187759119e-05 2.8515397886399112e-05 2.7079228000654953e-05 2.6753182708374224e-05 2.425389279952909e-05 2.8871412679076233e-05 2.4487102835253284e-05 2.3847235306409229e-05 2.141015166470571e-05 2.6077526094831613e-05 2.5293565672352807e-05 3.1762960479208956e-05 3.1281641409354118e-05 2.3372249669171899e-05 2.5993312030932258e-05 2.5206086270771853e-05 1.7836035332386092e-05 1.5742897389502263e-05 1.0239589195765082e-05 2.428658999723163e-06 6.97649184809892e-06 1.1683808131971071e-05 1.8152435020941841e-05 6.3952926692819798e-06 1.4607372022170967e-05 1.9639380102665671e-05 2.3618516610163194e-05 2.3589807881049026e-05 2.0715805917943923e-05 2.8105717990193398e-05 1.44688781327764e-05 1.0548386965234929e-05 1.6303484732474567e-05 1.8361846983370859e-05 5.464378087039467e-06 1.4153709387684653e-05 2.1391006450128028e-05 1.7070145146131328e-05 3.1936976490142585e-05 2.2509622300039953e-05 1.9421330232378649e-05 2.6272822016877769e-05 2.5902787803769855e-05 3.0382522911034644e-05 4.0939930841956163e-05 3.5373267099459597e-05 3.7710440903943844e-05 3.0382409139721344e-05 3.4528654018640642e-05 4.0018628971368534e-05 3.2790501643435121e-05 3.7353529019091608e-05 2.9741291601364534e-05 2.8882314078507904e-05 2.7803879365550061e-05 3.0992295456589503e-05 2.4788841141651852e-05 2.9454650247947666e-05 2.4693562880969864e-05 2.7672394026277449e-05 2.5375868449485489e-05 2.7724436434223685e-05 3.0291135634045389e-05 -5.5259249893370693e-05 -3.7887276681031207e-05 -4.0927090427151745e-05 -3.3420262464690994e-05 -2.9441076389762274e-05 -3.4779202601449466e-05 -3.9578225945528007e-05 -3.4759012580684951e-05 -3.2943129439305011e-05 -2.9569519382434933e-05 -3.1851818328277818e-05 -3.1831495568541621e-05 -3.0077955692534621e-05 -1.9588233701472348e-05 -2.9821549397470207e-05 -4.5605793044824317e-05 -1.8639355033789486e-05 -3.554411807494477e-05 -1.8689876050951098e-05 -1.700002356836895e-05 -1.8712347778888038e-05 -1.5966304025361773e-05 -1.8790835958190472e-05 -8.5575895396317691e-06 -9.4323044068553478e-06 -4.5586712659846914e-06 -6.3904066401971531e-06 3.9877850462445989e-06 7.5670178314871317e-06 -1.1495736162395417e-06 -4.3203485528268184e-06 -3.6000380725081345e-06 8.4407966229705722e-07 8.4524629813253354e-06 -6.9407656436335456e-06 4.4921293477737472e-06 -1.7720937977219759e-06 -9.7082223272745469e-06 8.3543974394578583e-06 -5.6523665229051925e-06 -2.6688674581070636e-06 -2.6599558489169862e-05 -2.1990466429361007e-05 -2.0366460431872738e-05 -4.4206750756191338e-06 -1.687678690389028e-05 -3.2865982528826614e-05 -2.655178911119619e-05 -3.9539014765373767e-05 -3.0456505999264835e-05 -4.1607262077460973e-05 -2.2168494449603516e-05 -3.6042821429452037e-05 -6.2380332869781769e-05 -6.6258688257971043e-05 -7.8104788069746324e-05 -5.5394365594144936e-05 -6.4888913417721674e-05 -4.0377390669812658e-05 -5.7712596847476565e-05 -3.8243836723877474e-05 -8.0862561788422842e-05 -0.00012414636184404428 -7.4918906805562446e-05 -7.8492635019075403e-05 -0.00010429679549686901 -9.0017199247112884e-05 -5.9758695142063757e-05 -7.0151764715684493e-05 -6.6629055710381324e-05 -3.9007021418438191e-05 -4.1619357767261518e-05 -3.2484219389868796e-05 -3.591078017544397e-05 -5.2971984431341733e-05 -4.1594847157948353e-05 -3.8433937717330993e-06 8.9544453981077146e-06 1.2274875212293235e-05 -2.833953270143891e-05 -1.0773433021818984e-05 -3.1601200885420289e-05 -1.7554335506420011e-05 -1.2021924462340188e-05 4.2037344689718646e-06 -1.1799492863593752e-05 4.2042753334346413e-06 2.1866638037768456e-05 1.2117783886386275e-05 2.7998969879994864e-05 1.1330249411689376e-05 2.5794945128794266e-05 4.436638433715218e-05 1.7287856634834084e-05 4.0634117614418019e-05 4.4350451177579042e-05 7.6763562791746078e-05 7.5838068774896098e-05 3.6852524741374043e-05 2.8955255242426637e-05 8.0362872480368443e-05 0.00013506339555551867 0.00012393793297402244 0.00013416586105042942 8.8197462848453069e-05 5.9767969259536333e-05 7.3254609857211742e-05 5.3064911796179648e-05 1.7357602713311514e-05 7.6618668712106174e-06 7.1276173987174386e-07 -1.8221946475919409e-05 3.5864724985451915e-05 -1.3039261621914759e-05 -4.9187276566314462e-05 -5.6404465101249259e-05 -2.7128297390002017e-05 -4.3496862178428781e-05 -3.0008874972483181e-05 -6.9503279869569199e-05 -4.006925095045036e-05 -5.629397891374966e-05 -8.3766936474860857e-05 -8.4139232882788576e-05 -0.00012719569124021478 -9.2717825275828497e-05 -0.00013058086684566647 -9.9073282688462135e-05 -7.1881798724943144e-05 -8.791648076604834e-05 5.9528448102750838e-05 6.5060791814959009e-05 6.8529393518411251e-05 6.3575791289958295e-05 5.9019620871210427e-05 5.0022091851409769e-05 4.4533928966561589e-05 5.6056347487505994e-05 3.9423634299442016e-05 4.6339877453981379e-05 3.3158485475361155e-05 4.5208357724329493e-05 3.8319652956951173e-05 4.6436066541526664e-05 5.0058713296546422e-05 4.3787938144632846e-05 3.8865067572704581e-05 3.0301464904364883e-05 4.6748262818511807e-05 4.3832741962089671e-05 5.3879043266779459e-05 3.0250383195022039e-05 3.8494243147932901e-05 4.982902529379256e-05 6.0682891043264929e-05 7.8224324455279215e-05 6.1733794411855783e-05 6.6736056974666649e-05 6.5509603046667601e-05 8.1822722704740809e-05 9.3723755100741249e-05 0.00011661803572438252 0.00012507017912342325 0.00011433670487024123 0.00010087093823487071 0.00010733111438796596 0.00012938314444716533 0.00012564757852436003 0.00022021168574079542 0.0002720629759642679 0.0002631093608012163 0.00017773412900066497 9.449242776957004e-05 0.00012600674933991511 0.00016297475644545939 9.5519116926889345e-05 0.000101794955919179 0.00010690369602178159 7.5672781683576716e-05 9.4266901200012736e-05 6.2539650618555754e-05 7.9778959544005905e-05 6.068691345388467e-05 8.3035919084465293e-05 5.0852743265803336e-05 6.3917051907025924e-05 7.0068674074113104e-05 5.9533390434079328e-05 5.1918248812018664e-05 7.9833738278667726e-05 5.5300586735460933e-05 4.7523072453421286e-05 6.3773487458994611e-05 4.2303191563059813e-05 3.3198489057379666e-05 4.8552633657619477e-05 5.0108926797326277e-05 3.0681375586723845e-05 5.7639802252203317e-05 4.1703401998601213e-05 4.9324929392917773e-05 8.2230183127274091e-05 6.918891880367842e-05 6.6400169303162094e-05 7.3984051225531021e-05 9.9365197363938257e-05 0.00010435432797019211 0.00012662711759830458 0.00029336277208522022 4.8086197425214062e-05 0.0001234175259955023 0.00027426726357454372 0.00017089347170958294 0.017014844575542289 0.0002537491639348576 0.00013517823543618562 0.04260579117524995 4.8646081887041535e-05 0.00013324939987712338 0.061014259311951598 6.2816475803426867e-05 0.00010065022677494938 4.4812225313986033e-05 6.7646726720679953e-05 6.2865258138595137e-05 5.7764024797918301e-05 5.625310103008239e-05 8.145172708194572e-05 8.4188858981431138e-05 6.3041704437163449e-05 9.747491332116648e-05 0.00012506129407749596 0.00013750164854037109 0.077905029215626517 0.00013359687214925271 0.00012744076966327163 0.00011306345540918264 0.00014225433949189084 0.00010911868830015316 0.094955909643032466 0.00013096228202589383 7.3436270108315996e-05 5.7079964470030126e-05 9.8492420326418465e-05 7.7521416835896195e-05 8.5251118122137886e-05 5.1706032239216541e-05 5.0827717210005557e-05 5.3706549462933313e-05 3.7159013884142291e-05 3.895047904858243e-05 2.8457363184400701e-05 3.1593557923308146e-05 2.8832801206369382e-05 3.4443247778688513e-05 3.5259703259041437e-05 2.5425870778329794e-05 3.7200674983164396e-05 3.1790816030583349e-05 3.6396617509504422e-05 4.272427454859323e-05 4.7952959064848525e-05 -7.3725955162003056e-05 -8.7722094467548948e-05 -5.4024529380521796e-05 -0.00011316130241811927 -0.00011276194941857063 -7.1372762526995627e-05 -7.4574728725728626e-05 -4.3560855912793978e-05 -2.2246905115769081e-05 3.2375042199929167e-06 -3.0903242082907416e-05 -1.7649978804261553e-05 -4.7169396053571132e-05 -1.6919515488255927e-05 4.2245522576128854e-05 1.3421116449946913e-05 7.0402432487489406e-05 1.5269796883288353e-05 -1.6732235379252535e-05 3.4293558375399146e-05 2.9313860463030277e-05 9.5042970407834861e-05 0.00014688229877739614 0.00011027895033591077 0.00012076480175764 6.1690300176989047e-05 8.395788855493835e-05 0.00010112982663247443 4.9781556676630224e-05 5.0158079005729276e-05 8.3083102400537557e-05 8.4425449942951555e-05 9.2584136757813996e-05 8.0923789582598195e-05 5.5433714949655599e-05 5.0120320394645562e-05 2.3731248526453927e-05 2.7402047484080191e-05 2.1383302165804783e-05 -4.9658480123339691e-06 2.3234010154244648e-05 2.9817468772268523e-05 2.8754083984553012e-06 -2.0440070897637629e-06 -2.5741224775904185e-05 -2.887913195092468e-05 -2.8692597801929353e-05 -2.7845032027162472e-05 -5.9846163481336659e-06 -5.6788531833014693e-06 -1.4715686432507837e-05 -2.6672303191731857e-05 -3.4881764054175458e-05 -5.2123650137144047e-05 -2.7133024463209168e-05 -4.0516234720906763e-05 -7.3481100816335989e-05 -5.4693224567828498e-05 -5.3894743515261155e-05 -1.1978926795687557e-06 -1.9674032986090762e-05 -4.631324203971561e-06 -2.2755423596225108e-05 -2.1589829195879737e-05 -3.8957291195245054e-05 -3.3675750368911475e-05 -2.3958490220755621e-05 -1.4303972681073071e-05 -9.6474006018496504e-06 -4.6545286384973295e-06 5.9586930099371146e-06 6.1184040014245974e-06 -7.0955055312999123e-06 7.5339633642378806e-06 2.8593362956992087e-05 3.4323350690606061e-05 4.6874073579930477e-05 7.9753784596688949e-06 2.9317918980786492e-06 2.3071723900271483e-05 2.2385066678803771e-05 3.9239747387776391e-05 2.9398157350973321e-05 6.6588727585353125e-05 6.7538624429301902e-05 5.2307500976300075e-05 7.7098748446740185e-05 0.00010927258332790908 8.4093438287773624e-05 0.00010612477120459452 5.7847487078774643e-05 7.5304466526323645e-05 0.00011095087949592949 8.5305523438140851e-05 0.00011999663572201575 9.9281981675487969e-05 0.00013887383163725068 0.00014909557247496426 9.6885413659490333e-05 7.169737974088361e-05 2.4471093041871818e-05 2.9920615061298887e-05 4.0653488002741385e-05 2.7410181136392625e-05 5.9470030575904491e-05 3.8317800628468422e-05 5.7983176633800201e-05 1.0827580985286502e-05 -6.0302198480069544e-06 8.1754435228547501e-06 4.5484205772241409e-06 7.8568759096743143e-06 4.6282992596418174e-06 2.0654291622467249e-06 1.1583817489765023e-05 4.5735501340514982e-06 1.2438096380143482e-06 4.9268020394111628e-06 4.1652699361589135e-06 2.1237072153779818e-06 6.0327008300450381e-06 -3.8477880239234236e-07 -1.338413906822912e-06 -1.3373568043517289e-05 4.0284405220602972e-05 7.362156161568956e-05 7.0889006704976613e-05 5.605268340040396e-05 3.1763717637775892e-05 2.2169953946500349e-05 2.0000955863426115e-05 3.0887181583812064e-05 2.3334025022039308e-05 2.3574120848385228e-05 4.275475736641068e-05 4.2044114539656926e-05 3.7287586243677542e-05 6.0273527381006498e-05 6.207435606843891e-05 8.6704788990005764e-05 0.00012051398177542744 0.00014255089726425624 0.00010140077795998666 0.00012634704413850509 0.00016311058625466824 0.00013320722443738435 0.11246252386156375 0.0001123637728952325 0.00015415328950295522 0.00015232032416132783 0.13073190959749081 0.00016054148894777424 0.00017097606728543047 0.15004539462205574 0.00014908790404220395 0.00010134196512310228 0.00016128439517464673 9.6847346774065033e-05 0.00011772214093448046 0.0001322629041566264 0.00010456578518746717 0.00018656298792002815 0.00018987739930404369 0.00014875583290393634 0.00019561126414441993 0.17023795318852813 0.00022668902658636459 0.00021274341098965165 0.00017748091278574634 0.00020232170959291491 0.19396428234855079 0.00025777304986249455 0.00021536267644445243 9.9812866222359587e-05 0.00020569854857535336 0.00024808224642724271 0.00019433269676185153 0.00012267590457907401 2.3182823551652718e-05 6.8366829799033782e-05 2.0692410197163665e-05 6.946057315961355e-05 3.702905830201724e-05 3.5463798787999188e-05 5.3557897499382622e-05 7.246943581632392e-05 1.3460687271714254e-05 2.4190700140434456e-05 1.1306571762167116e-05 2.7105710050574143e-05 7.3561669320515444e-06 1.939618875369635e-06 -2.385265777615373e-05 -7.8499521295157318e-06 -3.0307973490096094e-05 -1.0233624233006331e-05 -1.4947591427456235e-06 -9.057465265543789e-06 2.9765650569923749e-05 -2.5476511478061264e-06 5.4489709857951513e-06 3.7787810666152868e-05 1.1450189629054084e-05 1.9042968260867357e-05 3.1573035515315451e-05 3.6830743778903442e-05 8.0638914082498342e-06 1.5715947720565566e-05 1.0050585510791381e-05 1.71714412224226e-05 1.91703618913526e-05 2.0254353526593782e-05 2.0337030901364955e-05 1.5216803882942239e-05 2.1515668651867436e-05 1.9279446959712164e-05 3.1708993329958952e-05 4.4801890169022499e-05 2.7632347667322973e-05 2.3526680531583293e-05 2.800883028792364e-05 3.8509528722575806e-05 2.6680937289418722e-05 1.9753396835930394e-05 2.5936521145170262e-05 1.9369942570783005e-05 2.4543792471736804e-05 2.3545054617300922e-05 7.7714481651017459e-05 0.0587470845500574 8.0683288013992226e-05 6.6215603543851617e-05 5.6670702642130336e-05 3.5817082802545148e-05 4.2057654075376076e-05 4.1945204312822946e-05 7.4146449422165042e-05 5.7934550191973298e-05 6.7672935994167981e-05 5.2775478197511884e-05 9.1370697772645234e-05 0.000107928523349755 7.9870281202701864e-05 7.990928301933984e-05 0.081994486533424407 8.8139812025697e-05 8.972347375751726e-05 0.069698571169341722 0.00010796660463591526 0.095984541164739479 0.00013522552335976383 0.00012041802866283256 0.00010012394884344579 6.0676537000367526e-05 7.5286535408231135e-05 0.00011159227458254245 8.7030613501011276e-05 5.1819874965738466e-05 0.00012195654424864577 0.00014969448365406463 0.00011311991774477728 6.7718927174421364e-05 0.00011941079943644708 0.11264112612948496 0.00015620568521216259 0.00012858153409060595 8.9818341987001407e-05 5.6731738060724749e-05 5.8574094097673703e-05 7.9341273517900303e-05 3.8922462496355711e-05 1.4014212433232157e-05 1.4066460135303636e-05 2.2642169960396256e-05 3.4351415830643529e-05 1.8373230112361371e-05 1.4260380734350394e-05 2.8396789124294098e-05 5.7544455605419795e-05 6.9119711144381094e-05 4.5754090487016164e-05 3.7140257892935916e-06 1.2028434528393167e-06 2.4444435509105918e-06 2.9317097278817872e-06 -2.303884241794743e-07 1.6469538885888896e-06 6.6957561189445042e-06 5.1528600107929859e-07 9.8583531172090914e-07 1.9897302308792206e-06 1.307919600088657e-06 -7.0955680978985157e-06 3.5640943847597278e-06 2.0044079874895258e-06 -2.2827451945587728e-06 -9.5715196910639393e-06 -6.41227368600953e-07 -1.5348388312924014e-05 -2.1151235823635428e-06 -5.0221213773473349e-06 -1.5371281279843085e-05 -7.7546171817943939e-06 3.7529773375065932e-06 1.2361371333055246e-06 2.102837707087862e-06 -8.5307389048632274e-06 -7.3696654599754441e-06 3.3495752965758514e-06 -1.1307797279331644e-05 -1.5537998825908197e-05 -2.0704685896661811e-05 -1.7912818869928815e-05 -2.8322659138847999e-05 -1.6725434009881406e-05 4.1181996776827796e-05 3.2817552485638057e-05 5.5393929618092943e-05 4.0067788007940117e-05 1.4269684042638852e-05 1.1731580262119672e-05 2.4948739214089143e-05 2.0370753586938751e-05 1.2181959504415371e-05 8.1443163258217328e-06 9.9694307740723093e-06 3.5322383641729019e-05 2.8044971833513259e-05 5.7268293656501535e-05 4.5717172298914959e-05 5.0800912293460978e-05 3.6207234336104463e-05 3.9056212487620462e-05 4.3972753034246265e-05 2.3068178368355246e-05 2.8346237782083793e-05 1.966501832347522e-05 5.0027526139031012e-06 1.2689968538492043e-06 1.9321661205766016e-05 7.6804574292849148e-06 1.6023300788301227e-05 7.1231398334923798e-07 4.981326926812267e-06 3.6234385352944872e-05 4.2838293546597632e-05 4.1175452808107482e-05 1.8861600511085636e-05 3.3338964393476262e-05 -2.8274844816203329e-05 -3.6557530077811305e-05 -2.9894016234196342e-05 -3.657751933141282e-05 -2.2824048925834152e-05 -1.0906583141481263e-05 -2.041559256116363e-05 -7.664464217404859e-06 -8.5946288223390406e-06 -1.1292703059533537e-05 -9.2376777869130136e-06 -7.6806952164848658e-06 -1.7209491931373109e-05 -2.3421486124979929e-05 -2.4822332058801111e-05 -2.378475446561455e-05 -3.7836120913521459e-05 -3.643334800268916e-05 -4.4937020721308018e-05 -6.3758204716599055e-05 -5.2485691476653398e-05 -4.4229759763686764e-05 -3.5372068082966578e-05 -3.0472879723753834e-05 -1.3084927759137105e-05 -1.2507329967915547e-05 -6.3033299247385001e-06 -2.3114479949914768e-05 -1.9425386370694497e-05 -2.8900589148595683e-05 -3.0295310413764578e-05 -4.4411901056182418e-05 -4.1721032776142683e-05 -6.2526142695832395e-05 2.3376677127017625e-05 5.373403653073205e-05 2.2922957989975198e-05 1.562200205937564e-05 -2.9320044383140606e-07 4.4097864130731483e-06 2.0813054880503088e-05 7.9053950596822331e-06 -1.648596800843307e-05 -6.5250029160002009e-06 6.6807412014006137e-06 2.9883236999684063e-05 3.0892653337270598e-05 5.6800324585339833e-05 9.9750461268454868e-05 3.4079316112942148e-06 0.00012266325042977562 0.0093403430179417185 5.2161272953093481e-05 5.4267957988842321e-05 0.023070155037077003 7.8799088710236912e-05 0.031761199539095328 6.1723568171247428e-05 5.1810191881154527e-05 1.5467799974630829e-05 1.0674822378490352e-05 1.9468073043272613e-05 -5.6491402118520975e-06 2.8140804753961398e-05 8.1424694495980417e-06 5.2490396246522553e-05 2.7191629180645533e-05 1.9178662427422714e-05 3.72290325103697e-05 3.2113438752973429e-05 3.8561089440962285e-05 4.7731361116627175e-05 4.7107321701972036e-05 3.8582536425543881e-05 3.2015589708033691e-05 3.0263212073466798e-05 2.7730728242588744e-05 2.465668269294949e-05 2.0801640595677882e-05 2.4594271103216877e-05 2.1262666778899727e-05 2.06260848795501e-05 2.2024069789320201e-05 2.2850752915364644e-05 2.4804056036058404e-05 2.7706225525409175e-05 2.8218017691389904e-05 2.4419324299155317e-05 2.5110223173701851e-05 2.6768009642583307e-05 2.0778361000137982e-05 2.0749209128552394e-05 2.6986109891284619e-05 2.7102997438606142e-05 2.6089460121834487e-05 2.2421025480721585e-05 2.3047757779563814e-05 2.8293651313093609e-05 3.2422429330581336e-05 3.917471202906814e-05 3.238891959805965e-05 3.128328180636384e-05 4.6552649884095808e-05 7.1816195552606922e-05 0.048968548640230022 5.0263303914280721e-05 6.5739283055033827e-05 6.1364031389412287e-05 6.8881514582283055e-05 3.1957553174839911e-05 0.040132780788011066 6.1311811661545791e-05 4.7266014903706325e-05 6.8287772277403369e-05 2.3599876210996902e-05 1.926162832536181e-05 2.1799333184939029e-05 3.2576436531925714e-05 
</DataArray>
</CellData>
</Piece>
</UnstructuredGrid>
</VTKFile>
