<?xml version="1.0"?>
<VTKFile type="UnstructuredGrid" version="0.1" byte_order="LittleEndian">
<UnstructuredGrid>
<Piece NumberOfPoints="3142" NumberOfCells="1054">
<Points>
<DataArray type="Float64" NumberOfComponents="3" format="ascii">
0 0 0 0.049999999999899652 0 0 0.02576622439977887 0.024532886826226379 0 0 0 0 0.02576622439977887 0.024532886826226379 0 0 0.050000000000207989 0 0.049999999999899652 0 0 0.053064897599215843 0.048131547304697528 0 0.02576622439977887 0.024532886826226379 0 0 0.050000000000207989 0 0.02576622439977887 0.024532886826226379 0 0.053064897599215843 0.048131547304697528 0 0 0.10000000000041601 0 0 0.050000000000207989 0 0.044310582753132287 0.101412518374475 0 0 0.15000000000062411 0 0 0.10000000000041601 0 0.044310582753132287 0.101412518374475 0 0.083411279318303222 0.089699755330707398 0 0.044310582753132287 0.101412518374475 0 0.053064897599215843 0.048131547304697528 0 0 0.050000000000207989 0 0.053064897599215843 0.048131547304697528 0 0.044310582753132287 0.101412518374475 0 0.083411279318303222 0.089699755330707398 0 0.065374659239632718 0.1448908038746782 0 0.044310582753132287 0.101412518374475 0 0.083411279318303222 0.089699755330707398 0 0.1053400320299198 0.12877248826361379 0 0.065374659239632718 0.1448908038746782 0 0.083411279318303222 0.089699755330707398 0 0.12372429750337779 0.095814237875728972 0 0.1053400320299198 0.12877248826361379 0 0.14332333627550789 0.14578431753966009 0 0.1053400320299198 0.12877248826361379 0 0.12372429750337779 0.095814237875728972 0 0.14618258501891079 0.062070108745602003 0 0.12372429750337779 0.095814237875728972 0 0.10266856499169109 0.044518360900210059 0 0.083411279318303222 0.089699755330707398 0 0.10266856499169109 0.044518360900210059 0 0.12372429750337779 0.095814237875728972 0 0.099999999999814668 0 0 0.14999999999970359 0 0 0.10266856499169109 0.044518360900210059 0 0.049999999999899652 0 0 0.099999999999814668 0 0 0.053064897599215843 0.048131547304697528 0 0.099999999999814668 0 0 0.10266856499169109 0.044518360900210059 0 0.053064897599215843 0.048131547304697528 0 0.083411279318303222 0.089699755330707398 0 0.053064897599215843 0.048131547304697528 0 0.10266856499169109 0.044518360900210059 0 0 0.25000000000104028 0 0 0.20000000000083221 0 0.044081577119474857 0.2271058242433576 0 0 0.20000000000083221 0 0.038512288486115001 0.1844147282893184 0 0.044081577119474857 0.2271058242433576 0 0.083105206071467416 0.20007701332709979 0 0.044081577119474857 0.2271058242433576 0 0.038512288486115001 0.1844147282893184 0 0 0.15000000000062411 0 0.065374659239632718 0.1448908038746782 0 0.038512288486115001 0.1844147282893184 0 0 0.15000000000062411 0 0.044310582753132287 0.101412518374475 0 0.065374659239632718 0.1448908038746782 0 0.083105206071467416 0.20007701332709979 0 0.038512288486115001 0.1844147282893184 0 0.065374659239632718 0.1448908038746782 0 0 0.20000000000083221 0 0 0.15000000000062411 0 0.038512288486115001 0.1844147282893184 0 0.065374659239632718 0.1448908038746782 0 0.1053400320299198 0.12877248826361379 0 0.106902708054812 0.16453234188234539 0 0.14332333627550789 0.14578431753966009 0 0.106902708054812 0.16453234188234539 0 0.1053400320299198 0.12877248826361379 0 0.083105206071467416 0.20007701332709979 0 0.065374659239632718 0.1448908038746782 0 0.106902708054812 0.16453234188234539 0 0.083105206071467416 0.20007701332709979 0 0.13737030665753211 0.20313708640667491 0 0.095326043202144745 0.24554465089224409 0 0.083105206071467416 0.20007701332709979 0 0.106902708054812 0.16453234188234539 0 0.13737030665753211 0.20313708640667491 0 0.083105206071467416 0.20007701332709979 0 0.095326043202144745 0.24554465089224409 0 0.044081577119474857 0.2271058242433576 0 0.049706944316556423 0.27522722923869108 0 0.044081577119474857 0.2271058242433576 0 0.095326043202144745 0.24554465089224409 0 0.13737030665753211 0.20313708640667491 0 0.14377654328998779 0.2442024734791064 0 0.095326043202144745 0.24554465089224409 0 0.17933913398461551 0.2350063570234002 0 0.14377654328998779 0.2442024734791064 0 0.13737030665753211 0.20313708640667491 0 0.17933913398461551 0.2350063570234002 0 0.13737030665753211 0.20313708640667491 0 0.18124454140915969 0.18790916706335251 0 0.14332333627550789 0.14578431753966009 0 0.18652628422869419 0.14162325200928061 0 0.18124454140915969 0.18790916706335251 0 0.14332333627550789 0.14578431753966009 0 0.13737030665753211 0.20313708640667491 0 0.106902708054812 0.16453234188234539 0 0.14332333627550789 0.14578431753966009 0 0.18124454140915969 0.18790916706335251 0 0.13737030665753211 0.20313708640667491 0 0.14332333627550789 0.14578431753966009 0 0.16141998738593399 0.10404039647458049 0 0.18652628422869419 0.14162325200928061 0 0.2185883431182947 0.18019736283949719 0 0.18652628422869419 0.14162325200928061 0 0.22985637510995899 0.1298347970200906 0 0.2185883431182947 0.18019736283949719 0 0.22985637510995899 0.1298347970200906 0 0.25557216766470708 0.15874861286892261 0 0.2185883431182947 0.18019736283949719 0 0.25557216766470708 0.15874861286892261 0 0.26429849586623999 0.19346700179430079 0 0.2185883431182947 0.18019736283949719 0 0.18124454140915969 0.18790916706335251 0 0.18652628422869419 0.14162325200928061 0 0.17933913398461551 0.2350063570234002 0 0.18124454140915969 0.18790916706335251 0 0.224700362040408 0.22206622194729711 0 0.2185883431182947 0.18019736283949719 0 0.224700362040408 0.22206622194729711 0 0.18124454140915969 0.18790916706335251 0 0.2185883431182947 0.18019736283949719 0 0.26429849586623999 0.19346700179430079 0 0.224700362040408 0.22206622194729711 0 0.25195515620380449 0.25883339815888678 0 0.21049769590865089 0.26857363548218488 0 0.224700362040408 0.22206622194729711 0 0.17933913398461551 0.2350063570234002 0 0.224700362040408 0.22206622194729711 0 0.21049769590865089 0.26857363548218488 0 0.14999999999970359 0 0 0.184418230509967 0.038773194583122873 0 0.14618258501891079 0.062070108745602003 0 0.19922788606653311 0.085920220746880993 0 0.14618258501891079 0.062070108745602003 0 0.184418230509967 0.038773194583122873 0 0.14999999999970359 0 0 0.19999999999955789 0 0 0.184418230509967 0.038773194583122873 0 0.14999999999970359 0 0 0.14618258501891079 0.062070108745602003 0 0.10266856499169109 0.044518360900210059 0 0.14618258501891079 0.062070108745602003 0 0.16141998738593399 0.10404039647458049 0 0.12372429750337779 0.095814237875728972 0 0.14332333627550789 0.14578431753966009 0 0.12372429750337779 0.095814237875728972 0 0.16141998738593399 0.10404039647458049 0 0.19922788606653311 0.085920220746880993 0 0.18652628422869419 0.14162325200928061 0 0.16141998738593399 0.10404039647458049 0 0.19922788606653311 0.085920220746880993 0 0.16141998738593399 0.10404039647458049 0 0.14618258501891079 0.062070108745602003 0 0.19922788606653311 0.085920220746880993 0 0.22985637510995899 0.1298347970200906 0 0.18652628422869419 0.14162325200928061 0 0.19922788606653311 0.085920220746880993 0 0.24218496799700481 0.089025544070598317 0 0.22985637510995899 0.1298347970200906 0 0.27474541102162192 0.11822029332053539 0 0.22985637510995899 0.1298347970200906 0 0.24218496799700481 0.089025544070598317 0 0.19922788606653311 0.085920220746880993 0 0.22668068146512929 0.045875643423131329 0 0.24218496799700481 0.089025544070598317 0 0.27499999999933927 0.060310814194988557 0 0.24218496799700481 0.089025544070598317 0 0.22668068146512929 0.045875643423131329 0 0.19922788606653311 0.085920220746880993 0 0.184418230509967 0.038773194583122873 0 0.22668068146512929 0.045875643423131329 0 0.19999999999955789 0 0 0.22668068146512929 0.045875643423131329 0 0.184418230509967 0.038773194583122873 0 0.19999999999955789 0 0 0.24999999999941211 0 0 0.22668068146512929 0.045875643423131329 0 0.24999999999941211 0 0 0.29999999999926641 0 0 0.27499999999933927 0.060310814194988557 0 0.24999999999941211 0 0 0.27499999999933927 0.060310814194988557 0 0.22668068146512929 0.045875643423131329 0 0.29999999999926641 0 0 0.32541448401678508 0.046215317981507749 0 0.27499999999933927 0.060310814194988557 0 0.29999999999926641 0 0 0.34999999999912063 0 0 0.32541448401678508 0.046215317981507749 0 0.35312867752657662 0.084946736076730367 0 0.32541448401678508 0.046215317981507749 0 0.3615861437013822 0.03582617922508851 0 0.35312867752657662 0.084946736076730367 0 0.3615861437013822 0.03582617922508851 0 0.39591832466117061 0.056982757562006353 0 0.34999999999912063 0 0 0.3615861437013822 0.03582617922508851 0 0.32541448401678508 0.046215317981507749 0 0.34999999999912063 0 0 0.3999999999989749 0 0 0.3615861437013822 0.03582617922508851 0 0.35312867752657662 0.084946736076730367 0 0.39823268594401579 0.1116623613130045 0 0.36246644853392812 0.1399454205365751 0 0.35312867752657662 0.084946736076730367 0 0.36246644853392812 0.1399454205365751 0 0.32215584939770009 0.1218492143506909 0 0.35312867752657662 0.084946736076730367 0 0.3096713403101819 0.085471541595262421 0 0.32541448401678508 0.046215317981507749 0 0.35312867752657662 0.084946736076730367 0 0.32215584939770009 0.1218492143506909 0 0.3096713403101819 0.085471541595262421 0 0.27474541102162192 0.11822029332053539 0 0.3096713403101819 0.085471541595262421 0 0.32215584939770009 0.1218492143506909 0 0.27499999999933927 0.060310814194988557 0 0.32541448401678508 0.046215317981507749 0 0.3096713403101819 0.085471541595262421 0 0.3096713403101819 0.085471541595262421 0 0.27474541102162192 0.11822029332053539 0 0.27499999999933927 0.060310814194988557 0 0.27499999999933927 0.060310814194988557 0 0.27474541102162192 0.11822029332053539 0 0.24218496799700481 0.089025544070598317 0 0.27474541102162192 0.11822029332053539 0 0.25557216766470708 0.15874861286892261 0 0.22985637510995899 0.1298347970200906 0 0.27474541102162192 0.11822029332053539 0 0.29336099386129338 0.15892013001050981 0 0.25557216766470708 0.15874861286892261 0 0.26429849586623999 0.19346700179430079 0 0.25557216766470708 0.15874861286892261 0 0.29336099386129338 0.15892013001050981 0 0.33084213324567391 0.16272720141332131 0 0.31255190597181792 0.19850845631528771 0 0.29336099386129338 0.15892013001050981 0 0.26429849586623999 0.19346700179430079 0 0.29336099386129338 0.15892013001050981 0 0.31255190597181792 0.19850845631528771 0 0.27474541102162192 0.11822029332053539 0 0.32215584939770009 0.1218492143506909 0 0.29336099386129338 0.15892013001050981 0 0.28040350263641872 0.23054717217092141 0 0.25195515620380449 0.25883339815888678 0 0.224700362040408 0.22206622194729711 0 0.26429849586623999 0.19346700179430079 0 0.28040350263641872 0.23054717217092141 0 0.224700362040408 0.22206622194729711 0 0.26429849586623999 0.19346700179430079 0 0.31255190597181792 0.19850845631528771 0 0.28040350263641872 0.23054717217092141 0 0.33758650185219202 0.23837101504325639 0 0.29132859388405002 0.27203693976649962 0 0.28040350263641872 0.23054717217092141 0 0.33758650185219202 0.23837101504325639 0 0.28040350263641872 0.23054717217092141 0 0.31255190597181792 0.19850845631528771 0 0.33758650185219202 0.23837101504325639 0 0.31255190597181792 0.19850845631528771 0 0.3572130504031617 0.1874703368446563 0 0.33758650185219202 0.23837101504325639 0 0.3572130504031617 0.1874703368446563 0 0.38831533174504851 0.2189834941785925 0 0.33758650185219202 0.23837101504325639 0 0.38831533174504851 0.2189834941785925 0 0.3786248352540974 0.27082301512024259 0 0.33084213324567391 0.16272720141332131 0 0.29336099386129338 0.15892013001050981 0 0.32215584939770009 0.1218492143506909 0 0.33084213324567391 0.16272720141332131 0 0.32215584939770009 0.1218492143506909 0 0.36246644853392812 0.1399454205365751 0 0.33084213324567391 0.16272720141332131 0 0.3572130504031617 0.1874703368446563 0 0.31255190597181792 0.19850845631528771 0 0.39801143831225599 0.16651381068160659 0 0.3572130504031617 0.1874703368446563 0 0.36246644853392812 0.1399454205365751 0 0.33084213324567391 0.16272720141332131 0 0.36246644853392812 0.1399454205365751 0 0.3572130504031617 0.1874703368446563 0 0.39801143831225599 0.16651381068160659 0 0.36246644853392812 0.1399454205365751 0 0.39823268594401579 0.1116623613130045 0 0.39801143831225599 0.16651381068160659 0 0.44288491854585582 0.14116182884956319 0 0.42905200079338551 0.19982395548231649 0 0.39801143831225599 0.16651381068160659 0 0.39823268594401579 0.1116623613130045 0 0.44288491854585582 0.14116182884956319 0 0.42377727103934271 0.25099357235810238 0 0.3786248352540974 0.27082301512024259 0 0.38831533174504851 0.2189834941785925 0 0.39801143831225599 0.16651381068160659 0 0.38831533174504851 0.2189834941785925 0 0.3572130504031617 0.1874703368446563 0 0.39801143831225599 0.16651381068160659 0 0.42905200079338551 0.19982395548231649 0 0.38831533174504851 0.2189834941785925 0 0.42377727103934271 0.25099357235810238 0 0.38831533174504851 0.2189834941785925 0 0.42905200079338551 0.19982395548231649 0 0.42377727103934271 0.25099357235810238 0 0.42905200079338551 0.19982395548231649 0 0.46429753744194407 0.22870891180733599 0 0.47357141910802508 0.1873585799078378 0 0.46429753744194407 0.22870891180733599 0 0.42905200079338551 0.19982395548231649 0 0.47357141910802508 0.1873585799078378 0 0.51729576145820033 0.1683240575987815 0 0.50760557329222289 0.20700468884612061 0 0.47357141910802508 0.1873585799078378 0 0.50760557329222289 0.20700468884612061 0 0.46429753744194407 0.22870891180733599 0 0.49695729691142171 0.25014895411178018 0 0.46429753744194407 0.22870891180733599 0 0.50760557329222289 0.20700468884612061 0 0.47357141910802508 0.1873585799078378 0 0.44288491854585582 0.14116182884956319 0 0.48466639505193998 0.1421439844745814 0 0.47357141910802508 0.1873585799078378 0 0.42905200079338551 0.19982395548231649 0 0.44288491854585582 0.14116182884956319 0 0.47357141910802508 0.1873585799078378 0 0.48466639505193998 0.1421439844745814 0 0.51729576145820033 0.1683240575987815 0 0.44288491854585582 0.14116182884956319 0 0.47881186583059909 0.093591717165689425 0 0.48466639505193998 0.1421439844745814 0 0.51076801031701946 0.1202837388510348 0 0.48466639505193998 0.1421439844745814 0 0.47881186583059909 0.093591717165689425 0 0.43698630808430822 0.080423614171545449 0 0.47881186583059909 0.093591717165689425 0 0.44288491854585582 0.14116182884956319 0 0.43698630808430822 0.080423614171545449 0 0.47040171442036788 0.044141676406503738 0 0.47881186583059909 0.093591717165689425 0 0.52375890611712683 0.059318771819432882 0 0.47881186583059909 0.093591717165689425 0 0.47040171442036788 0.044141676406503738 0 0.49999999999869432 0 0 0.52375890611712683 0.059318771819432882 0 0.47040171442036788 0.044141676406503738 0 0.44999999999882923 0 0 0.49999999999869432 0 0 0.47040171442036788 0.044141676406503738 0 0.44999999999882923 0 0 0.47040171442036788 0.044141676406503738 0 0.4320097814748517 0.037406712692169303 0 0.43698630808430822 0.080423614171545449 0 0.4320097814748517 0.037406712692169303 0 0.47040171442036788 0.044141676406503738 0 0.3999999999989749 0 0 0.4320097814748517 0.037406712692169303 0 0.39591832466117061 0.056982757562006353 0 0.43698630808430822 0.080423614171545449 0 0.39591832466117061 0.056982757562006353 0 0.4320097814748517 0.037406712692169303 0 0.3999999999989749 0 0 0.44999999999882923 0 0 0.4320097814748517 0.037406712692169303 0 0.3999999999989749 0 0 0.39591832466117061 0.056982757562006353 0 0.3615861437013822 0.03582617922508851 0 0.35312867752657662 0.084946736076730367 0 0.39591832466117061 0.056982757562006353 0 0.39823268594401579 0.1116623613130045 0 0.43698630808430822 0.080423614171545449 0 0.44288491854585582 0.14116182884956319 0 0.39823268594401579 0.1116623613130045 0 0.43698630808430822 0.080423614171545449 0 0.39823268594401579 0.1116623613130045 0 0.39591832466117061 0.056982757562006353 0 0.43249999999999988 0.43937499999999979 0 0.38707855792647411 0.42299362914874578 0 0.42161023666869668 0.39493916313643851 0 0.38083244760691543 0.38531983672244652 0 0.42161023666869668 0.39493916313643851 0 0.38707855792647411 0.42299362914874578 0 0.38083244760691543 0.38531983672244652 0 0.40076539126862748 0.34589349467022118 0 0.42161023666869668 0.39493916313643851 0 0.43249999999999988 0.43937499999999979 0 0.3908716102680424 0.47010282357248828 0 0.38707855792647411 0.42299362914874578 0 0.38244435121258652 0.51653317813019495 0 0.3908716102680424 0.47010282357248828 0 0.43507373378304309 0.49699695397193322 0 0.43249999999999988 0.43937499999999979 0 0.43507373378304309 0.49699695397193322 0 0.3908716102680424 0.47010282357248828 0 0.43249999999999988 0.43937499999999979 0 0.46111841286828259 0.46690301029591341 0 0.43507373378304309 0.49699695397193322 0 0.43249999999999988 0.43937499999999979 0 0.48858720058566618 0.43964267759203868 0 0.46111841286828259 0.46690301029591341 0 0.49102375406324739 0.49123754822244059 0 0.43507373378304309 0.49699695397193322 0 0.46111841286828259 0.46690301029591341 0 0.49102375406324739 0.49123754822244059 0 0.46111841286828259 0.46690301029591341 0 0.48858720058566618 0.43964267759203868 0 0.52289427570932567 0.3932284363388488 0 0.48858720058566618 0.43964267759203868 0 0.46655310992796922 0.39650496622958609 0 0.43249999999999988 0.43937499999999979 0 0.46655310992796922 0.39650496622958609 0 0.48858720058566618 0.43964267759203868 0 0.43249999999999988 0.43937499999999979 0 0.42161023666869668 0.39493916313643851 0 0.46655310992796922 0.39650496622958609 0 0.4409427642593301 0.35743108089689513 0 0.46655310992796922 0.39650496622958609 0 0.42161023666869668 0.39493916313643851 0 0.52289427570932567 0.3932284363388488 0 0.46655310992796922 0.39650496622958609 0 0.49077833859261139 0.35229981449445641 0 0.5 0.29999999999999999 0 0.49077833859261139 0.35229981449445641 0 0.46226845272279993 0.31901800744800313 0 0.4409427642593301 0.35743108089689513 0 0.46226845272279993 0.31901800744800313 0 0.49077833859261139 0.35229981449445641 0 0.4409427642593301 0.35743108089689513 0 0.41914690343363781 0.30688979866601612 0 0.46226845272279993 0.31901800744800313 0 0.4409427642593301 0.35743108089689513 0 0.49077833859261139 0.35229981449445641 0 0.46655310992796922 0.39650496622958609 0 0.5 0.29999999999999999 0 0.4604742573284204 0.27846934318264788 0 0.49695729691142171 0.25014895411178018 0 0.49695729691142171 0.25014895411178018 0 0.4604742573284204 0.27846934318264788 0 0.46429753744194407 0.22870891180733599 0 0.5 0.29999999999999999 0 0.46226845272279993 0.31901800744800313 0 0.4604742573284204 0.27846934318264788 0 0.41914690343363781 0.30688979866601612 0 0.4604742573284204 0.27846934318264788 0 0.46226845272279993 0.31901800744800313 0 0.42377727103934271 0.25099357235810238 0 0.46429753744194407 0.22870891180733599 0 0.4604742573284204 0.27846934318264788 0 0.42377727103934271 0.25099357235810238 0 0.4604742573284204 0.27846934318264788 0 0.41914690343363781 0.30688979866601612 0 0.42377727103934271 0.25099357235810238 0 0.41914690343363781 0.30688979866601612 0 0.3786248352540974 0.27082301512024259 0 0.36575549820117997 0.31677992835137742 0 0.3786248352540974 0.27082301512024259 0 0.41914690343363781 0.30688979866601612 0 0.4409427642593301 0.35743108089689513 0 0.42161023666869668 0.39493916313643851 0 0.40076539126862748 0.34589349467022118 0 0.4409427642593301 0.35743108089689513 0 0.40076539126862748 0.34589349467022118 0 0.41914690343363781 0.30688979866601612 0 0.36575549820117997 0.31677992835137742 0 0.41914690343363781 0.30688979866601612 0 0.40076539126862748 0.34589349467022118 0 0.40076539126862748 0.34589349467022118 0 0.33277555741076909 0.36432196682010132 0 0.36575549820117997 0.31677992835137742 0 0.38083244760691543 0.38531983672244652 0 0.33277555741076909 0.36432196682010132 0 0.40076539126862748 0.34589349467022118 0 0.36575549820117997 0.31677992835137742 0 0.33277555741076909 0.36432196682010132 0 0.32752639306529541 0.32610012995269699 0 0.33277555741076909 0.36432196682010132 0 0.29644548887253103 0.34914008784168082 0 0.32752639306529541 0.32610012995269699 0 0.33758650185219202 0.23837101504325639 0 0.3786248352540974 0.27082301512024259 0 0.33402499257867951 0.28911035184473982 0 0.36575549820117997 0.31677992835137742 0 0.33402499257867951 0.28911035184473982 0 0.3786248352540974 0.27082301512024259 0 0.36575549820117997 0.31677992835137742 0 0.32752639306529541 0.32610012995269699 0 0.33402499257867951 0.28911035184473982 0 0.29348325746214782 0.31350119524708198 0 0.33402499257867951 0.28911035184473982 0 0.32752639306529541 0.32610012995269699 0 0.33758650185219202 0.23837101504325639 0 0.33402499257867951 0.28911035184473982 0 0.29132859388405002 0.27203693976649962 0 0.29348325746214782 0.31350119524708198 0 0.29132859388405002 0.27203693976649962 0 0.33402499257867951 0.28911035184473982 0 0.29348325746214782 0.31350119524708198 0 0.24432083401701241 0.3006253385567515 0 0.29132859388405002 0.27203693976649962 0 0.25195515620380449 0.25883339815888678 0 0.29132859388405002 0.27203693976649962 0 0.24432083401701241 0.3006253385567515 0 0.25195515620380449 0.25883339815888678 0 0.28040350263641872 0.23054717217092141 0 0.29132859388405002 0.27203693976649962 0 0.27866744612395528 0.38416094670951489 0 0.29644548887253103 0.34914008784168082 0 0.33277555741076909 0.36432196682010132 0 0.29348325746214782 0.31350119524708198 0 0.32752639306529541 0.32610012995269699 0 0.29644548887253103 0.34914008784168082 0 0.29348325746214782 0.31350119524708198 0 0.29644548887253103 0.34914008784168082 0 0.25966125648670141 0.34351016742083729 0 0.29348325746214782 0.31350119524708198 0 0.25966125648670141 0.34351016742083729 0 0.24432083401701241 0.3006253385567515 0 0.27866744612395528 0.38416094670951489 0 0.25966125648670141 0.34351016742083729 0 0.29644548887253103 0.34914008784168082 0 0.27866744612395528 0.38416094670951489 0 0.22033343844674469 0.36963382230740238 0 0.25966125648670141 0.34351016742083729 0 0.27866744612395528 0.38416094670951489 0 0.29124338931648802 0.43334555462578611 0 0.24049127783545701 0.41270748208749802 0 0.29124338931648802 0.43334555462578611 0 0.25982634974572738 0.46097799597715272 0 0.24049127783545701 0.41270748208749802 0 0.27866744612395528 0.38416094670951489 0 0.31778888742534622 0.40581751814196781 0 0.29124338931648802 0.43334555462578611 0 0.27866744612395528 0.38416094670951489 0 0.33277555741076909 0.36432196682010132 0 0.31778888742534622 0.40581751814196781 0 0.33277555741076909 0.36432196682010132 0 0.35221190152536241 0.40457127605439203 0 0.31778888742534622 0.40581751814196781 0 0.34258405725730701 0.4444034294386992 0 0.31778888742534622 0.40581751814196781 0 0.35221190152536241 0.40457127605439203 0 0.34258405725730701 0.4444034294386992 0 0.29124338931648802 0.43334555462578611 0 0.31778888742534622 0.40581751814196781 0 0.34258405725730701 0.4444034294386992 0 0.35221190152536241 0.40457127605439203 0 0.38707855792647411 0.42299362914874578 0 0.38083244760691543 0.38531983672244652 0 0.38707855792647411 0.42299362914874578 0 0.35221190152536241 0.40457127605439203 0 0.38083244760691543 0.38531983672244652 0 0.35221190152536241 0.40457127605439203 0 0.33277555741076909 0.36432196682010132 0 0.38244435121258652 0.51653317813019495 0 0.35024835142131061 0.48654922671676981 0 0.3908716102680424 0.47010282357248828 0 0.34258405725730701 0.4444034294386992 0 0.3908716102680424 0.47010282357248828 0 0.35024835142131061 0.48654922671676981 0 0.34258405725730701 0.4444034294386992 0 0.38707855792647411 0.42299362914874578 0 0.3908716102680424 0.47010282357248828 0 0.34258405725730701 0.4444034294386992 0 0.31068898841644388 0.47541502461811092 0 0.29124338931648802 0.43334555462578611 0 0.35024835142131061 0.48654922671676981 0 0.33190227185843768 0.52715113583864037 0 0.31068898841644388 0.47541502461811092 0 0.34258405725730701 0.4444034294386992 0 0.35024835142131061 0.48654922671676981 0 0.31068898841644388 0.47541502461811092 0 0.28307294598219601 0.50789252727458634 0 0.25982634974572738 0.46097799597715272 0 0.31068898841644388 0.47541502461811092 0 0.29124338931648802 0.43334555462578611 0 0.31068898841644388 0.47541502461811092 0 0.25982634974572738 0.46097799597715272 0 0.28307294598219601 0.50789252727458634 0 0.23975172658309729 0.49475499200540818 0 0.25982634974572738 0.46097799597715272 0 0.22278230690790279 0.44824268025881547 0 0.23975172658309729 0.49475499200540818 0 0.19604738184454831 0.47787523520405789 0 0.22278230690790279 0.44824268025881547 0 0.19604738184454831 0.47787523520405789 0 0.191953871957803 0.42546416763755879 0 0.22278230690790279 0.44824268025881547 0 0.24049127783545701 0.41270748208749802 0 0.25982634974572738 0.46097799597715272 0 0.22278230690790279 0.44824268025881547 0 0.25982634974572738 0.46097799597715272 0 0.23975172658309729 0.49475499200540818 0 0.27866744612395528 0.38416094670951489 0 0.24049127783545701 0.41270748208749802 0 0.22033343844674469 0.36963382230740238 0 0.1650278706801647 0.38791388161335733 0 0.22033343844674469 0.36963382230740238 0 0.191953871957803 0.42546416763755879 0 0.22033343844674469 0.36963382230740238 0 0.24049127783545701 0.41270748208749802 0 0.191953871957803 0.42546416763755879 0 0.22278230690790279 0.44824268025881547 0 0.191953871957803 0.42546416763755879 0 0.24049127783545701 0.41270748208749802 0 0.15801167086041079 0.46008690540259539 0 0.13773355295499351 0.42497777642586831 0 0.191953871957803 0.42546416763755879 0 0.1650278706801647 0.38791388161335733 0 0.191953871957803 0.42546416763755879 0 0.13773355295499351 0.42497777642586831 0 0.1650278706801647 0.38791388161335733 0 0.13773355295499351 0.42497777642586831 0 0.1117088112799664 0.38831403004970022 0 0.15801167086041079 0.46008690540259539 0 0.113541300460994 0.46208784312094731 0 0.13773355295499351 0.42497777642586831 0 0.1216098864341134 0.50637075089503902 0 0.113541300460994 0.46208784312094731 0 0.15801167086041079 0.46008690540259539 0 0.1216098864341134 0.50637075089503902 0 0.15801167086041079 0.46008690540259539 0 0.16618607197337229 0.50652878253548905 0 0.15801167086041079 0.46008690540259539 0 0.19604738184454831 0.47787523520405789 0 0.16618607197337229 0.50652878253548905 0 0.15801167086041079 0.46008690540259539 0 0.191953871957803 0.42546416763755879 0 0.19604738184454831 0.47787523520405789 0 0.25195515620380449 0.25883339815888678 0 0.24432083401701241 0.3006253385567515 0 0.21049769590865089 0.26857363548218488 0 0.19670163708476801 0.31472518408333222 0 0.21049769590865089 0.26857363548218488 0 0.24432083401701241 0.3006253385567515 0 0.19670163708476801 0.31472518408333222 0 0.168349569971391 0.28054490850913671 0 0.21049769590865089 0.26857363548218488 0 0.19670163708476801 0.31472518408333222 0 0.22615676742807109 0.33458786033114157 0 0.18434624290945251 0.35208838264196463 0 0.19670163708476801 0.31472518408333222 0 0.24432083401701241 0.3006253385567515 0 0.22615676742807109 0.33458786033114157 0 0.24432083401701241 0.3006253385567515 0 0.25966125648670141 0.34351016742083729 0 0.22615676742807109 0.33458786033114157 0 0.22033343844674469 0.36963382230740238 0 0.22615676742807109 0.33458786033114157 0 0.25966125648670141 0.34351016742083729 0 0.22033343844674469 0.36963382230740238 0 0.18434624290945251 0.35208838264196463 0 0.22615676742807109 0.33458786033114157 0 0.1650278706801647 0.38791388161335733 0 0.18434624290945251 0.35208838264196463 0 0.22033343844674469 0.36963382230740238 0 0.1650278706801647 0.38791388161335733 0 0.14223753364722069 0.3341983344262433 0 0.18434624290945251 0.35208838264196463 0 0.1650278706801647 0.38791388161335733 0 0.1117088112799664 0.38831403004970022 0 0.14223753364722069 0.3341983344262433 0 0.19670163708476801 0.31472518408333222 0 0.18434624290945251 0.35208838264196463 0 0.14223753364722069 0.3341983344262433 0 0.19670163708476801 0.31472518408333222 0 0.14223753364722069 0.3341983344262433 0 0.168349569971391 0.28054490850913671 0 0.1247745017231483 0.27198077544791172 0 0.168349569971391 0.28054490850913671 0 0.14223753364722069 0.3341983344262433 0 0.1247745017231483 0.27198077544791172 0 0.14377654328998779 0.2442024734791064 0 0.168349569971391 0.28054490850913671 0 0.17933913398461551 0.2350063570234002 0 0.21049769590865089 0.26857363548218488 0 0.168349569971391 0.28054490850913671 0 0.17933913398461551 0.2350063570234002 0 0.168349569971391 0.28054490850913671 0 0.14377654328998779 0.2442024734791064 0 0.049706944316556423 0.27522722923869108 0 0.095326043202144745 0.24554465089224409 0 0.093851963071650835 0.30582068233324772 0 0.1247745017231483 0.27198077544791172 0 0.095326043202144745 0.24554465089224409 0 0.14377654328998779 0.2442024734791064 0 0.1247745017231483 0.27198077544791172 0 0.093851963071650835 0.30582068233324772 0 0.095326043202144745 0.24554465089224409 0 0.1247745017231483 0.27198077544791172 0 0.14223753364722069 0.3341983344262433 0 0.093851963071650835 0.30582068233324772 0 0.049706944316556423 0.27522722923869108 0 0.093851963071650835 0.30582068233324772 0 0.046389130980076937 0.32668781832131749 0 0.087545339447545459 0.35122518864182262 0 0.046389130980076937 0.32668781832131749 0 0.093851963071650835 0.30582068233324772 0 0.087545339447545459 0.35122518864182262 0 0.093851963071650835 0.30582068233324772 0 0.14223753364722069 0.3341983344262433 0 0.087545339447545459 0.35122518864182262 0 0.14223753364722069 0.3341983344262433 0 0.1117088112799664 0.38831403004970022 0 0.087545339447545459 0.35122518864182262 0 0.1117088112799664 0.38831403004970022 0 0.050583896093752537 0.38543522283434112 0 0.087545339447545459 0.35122518864182262 0 0.050583896093752537 0.38543522283434112 0 0.046389130980076937 0.32668781832131749 0 0 0.35000000000145642 0 0.046389130980076937 0.32668781832131749 0 0.050583896093752537 0.38543522283434112 0 0 0.35000000000145642 0 0 0.30000000000124832 0 0.046389130980076937 0.32668781832131749 0 0 0.30000000000124832 0 0.049706944316556423 0.27522722923869108 0 0.046389130980076937 0.32668781832131749 0 0 0.30000000000124832 0 0 0.25000000000104028 0 0.049706944316556423 0.27522722923869108 0 0 0.25000000000104028 0 0.044081577119474857 0.2271058242433576 0 0.049706944316556423 0.27522722923869108 0 0.078358742472063481 0.43365249433908948 0 0.113541300460994 0.46208784312094731 0 0.068743045408989428 0.48853989837882689 0 0.1216098864341134 0.50637075089503902 0 0.068743045408989428 0.48853989837882689 0 0.113541300460994 0.46208784312094731 0 0.113541300460994 0.46208784312094731 0 0.078358742472063481 0.43365249433908948 0 0.13773355295499351 0.42497777642586831 0 0.078358742472063481 0.43365249433908948 0 0.1117088112799664 0.38831403004970022 0 0.13773355295499351 0.42497777642586831 0 0.078358742472063481 0.43365249433908948 0 0.050583896093752537 0.38543522283434112 0 0.1117088112799664 0.38831403004970022 0 0.078358742472063481 0.43365249433908948 0 0.035463093262830522 0.42673416072819947 0 0.050583896093752537 0.38543522283434112 0 0 0.40000000000166441 0 0 0.35000000000145642 0 0.050583896093752537 0.38543522283434112 0 0 0.40000000000166441 0 0.050583896093752537 0.38543522283434112 0 0.035463093262830522 0.42673416072819947 0 0 0.45000000000187229 0 0 0.40000000000166441 0 0.035463093262830522 0.42673416072819947 0 0 0.45000000000187229 0 0.035463093262830522 0.42673416072819947 0 0.033550201249889847 0.46247875832467239 0 0 0.50000000000205869 0 0.033550201249889847 0.46247875832467239 0 0.068743045408989428 0.48853989837882689 0 0.078358742472063481 0.43365249433908948 0 0.068743045408989428 0.48853989837882689 0 0.033550201249889847 0.46247875832467239 0 0.078358742472063481 0.43365249433908948 0 0.033550201249889847 0.46247875832467239 0 0.035463093262830522 0.42673416072819947 0 0 0.50000000000205869 0 0 0.45000000000187229 0 0.033550201249889847 0.46247875832467239 0 0 0.50000000000205869 0 0.068743045408989428 0.48853989837882689 0 0.044576108720083309 0.53509043209532614 0 0 0.55000000000173355 0 0 0.50000000000205869 0 0.044576108720083309 0.53509043209532614 0 0 0.55000000000173355 0 0.044576108720083309 0.53509043209532614 0 0.034381862692950467 0.57372682250960894 0 0.077693244765132896 0.56932317963405099 0 0.034381862692950467 0.57372682250960894 0 0.044576108720083309 0.53509043209532614 0 0.068743045408989428 0.48853989837882689 0 0.085622222639554768 0.53333248912060549 0 0.044576108720083309 0.53509043209532614 0 0.1216098864341134 0.50637075089503902 0 0.085622222639554768 0.53333248912060549 0 0.068743045408989428 0.48853989837882689 0 0.077693244765132896 0.56932317963405099 0 0.044576108720083309 0.53509043209532614 0 0.085622222639554768 0.53333248912060549 0 0.077693244765132896 0.56932317963405099 0 0.085622222639554768 0.53333248912060549 0 0.1154888278694548 0.56733818459978413 0 0.085622222639554768 0.53333248912060549 0 0.1216098864341134 0.50637075089503902 0 0.1154888278694548 0.56733818459978413 0 0.077693244765132896 0.56932317963405099 0 0.1154888278694548 0.56733818459978413 0 0.1024350934457823 0.60772393977513839 0 0.086179601630648681 0.64647209519980475 0 0.050069554451969707 0.61308520079857043 0 0.1024350934457823 0.60772393977513839 0 0.077693244765132896 0.56932317963405099 0 0.1024350934457823 0.60772393977513839 0 0.050069554451969707 0.61308520079857043 0 0.077693244765132896 0.56932317963405099 0 0.050069554451969707 0.61308520079857043 0 0.034381862692950467 0.57372682250960894 0 0 0.60000000000138687 0 0 0.55000000000173355 0 0.034381862692950467 0.57372682250960894 0 0 0.65000000000104008 0 0 0.60000000000138687 0 0.050069554451969707 0.61308520079857043 0 0 0.60000000000138687 0 0.034381862692950467 0.57372682250960894 0 0.050069554451969707 0.61308520079857043 0 0 0.7000000000006934 0 0 0.65000000000104008 0 0.046634677244967337 0.671418230738282 0 0.086179601630648681 0.64647209519980475 0 0.046634677244967337 0.671418230738282 0 0.050069554451969707 0.61308520079857043 0 0 0.65000000000104008 0 0.050069554451969707 0.61308520079857043 0 0.046634677244967337 0.671418230738282 0 0 0.75000000000034661 0 0 0.7000000000006934 0 0.049706944316475897 0.72477277076253799 0 0 0.7000000000006934 0 0.046634677244967337 0.671418230738282 0 0.049706944316475897 0.72477277076253799 0 0 0.75000000000034661 0 0.049706944316475897 0.72477277076253799 0 0.04408157711937423 0.7728941757575627 0 0.049706944316475897 0.72477277076253799 0 0.1020579365089687 0.69352219419301997 0 0.090953281884486245 0.7564451946902494 0 0.1215415378367805 0.72939333680004137 0 0.090953281884486245 0.7564451946902494 0 0.1020579365089687 0.69352219419301997 0 0.049706944316475897 0.72477277076253799 0 0.046634677244967337 0.671418230738282 0 0.1020579365089687 0.69352219419301997 0 0.1215415378367805 0.72939333680004137 0 0.14335651144331049 0.75565258250209677 0 0.090953281884486245 0.7564451946902494 0 0.086179601630648681 0.64647209519980475 0 0.1020579365089687 0.69352219419301997 0 0.046634677244967337 0.671418230738282 0 0.086179601630648681 0.64647209519980475 0 0.1241190223511371 0.64391885572885044 0 0.1020579365089687 0.69352219419301997 0 0.086179601630648681 0.64647209519980475 0 0.1024350934457823 0.60772393977513839 0 0.1241190223511371 0.64391885572885044 0 0.16500388252850301 0.66612077714085194 0 0.1020579365089687 0.69352219419301997 0 0.1241190223511371 0.64391885572885044 0 0.15720202157091859 0.60665697304410315 0 0.16500388252850301 0.66612077714085194 0 0.1241190223511371 0.64391885572885044 0 0.15720202157091859 0.60665697304410315 0 0.19914261668318661 0.62286739485272158 0 0.16500388252850301 0.66612077714085194 0 0.16500388252850301 0.66612077714085194 0 0.15332765547575641 0.71200081858233666 0 0.1020579365089687 0.69352219419301997 0 0.1215415378367805 0.72939333680004137 0 0.15332765547575641 0.71200081858233666 0 0.14335651144331049 0.75565258250209677 0 0.1215415378367805 0.72939333680004137 0 0.1020579365089687 0.69352219419301997 0 0.15332765547575641 0.71200081858233666 0 0.16500388252850301 0.66612077714085194 0 0.19068556247388771 0.71028988922845504 0 0.15332765547575641 0.71200081858233666 0 0.18269480424590959 0.75905448272264375 0 0.14335651144331049 0.75565258250209677 0 0.15332765547575641 0.71200081858233666 0 0.18269480424590959 0.75905448272264375 0 0.15332765547575641 0.71200081858233666 0 0.19068556247388771 0.71028988922845504 0 0.18269480424590959 0.75905448272264375 0 0.19068556247388771 0.71028988922845504 0 0.2248999640082178 0.72584299459689172 0 0.2236846579037573 0.67380363126050236 0 0.2248999640082178 0.72584299459689172 0 0.19068556247388771 0.71028988922845504 0 0.2236846579037573 0.67380363126050236 0 0.26439878998046262 0.7048065392091396 0 0.2248999640082178 0.72584299459689172 0 0.25676291524611189 0.7436741304886243 0 0.22556077506376701 0.77837424984191617 0 0.2248999640082178 0.72584299459689172 0 0.25676291524611189 0.7436741304886243 0 0.2248999640082178 0.72584299459689172 0 0.26439878998046262 0.7048065392091396 0 0.2236846579037573 0.67380363126050236 0 0.16500388252850301 0.66612077714085194 0 0.19914261668318661 0.62286739485272158 0 0.2236846579037573 0.67380363126050236 0 0.19068556247388771 0.71028988922845504 0 0.16500388252850301 0.66612077714085194 0 0.2236846579037573 0.67380363126050236 0 0.19914261668318661 0.62286739485272158 0 0.2459498854893499 0.63248470766216769 0 0.2236846579037573 0.67380363126050236 0 0.2459498854893499 0.63248470766216769 0 0.27820712747429932 0.65530134213254643 0 0.22549374774072969 0.58452645269293457 0 0.2459498854893499 0.63248470766216769 0 0.19914261668318661 0.62286739485272158 0 0.26573297623774761 0.59828298563722948 0 0.2459498854893499 0.63248470766216769 0 0.22549374774072969 0.58452645269293457 0 0.22549374774072969 0.58452645269293457 0 0.19914261668318661 0.62286739485272158 0 0.18381867841758909 0.57774125163628387 0 0.20050006573841939 0.53248514016039872 0 0.22549374774072969 0.58452645269293457 0 0.18381867841758909 0.57774125163628387 0 0.26573297623774761 0.59828298563722948 0 0.22549374774072969 0.58452645269293457 0 0.25115337790845271 0.54719303014923271 0 0.20050006573841939 0.53248514016039872 0 0.25115337790845271 0.54719303014923271 0 0.22549374774072969 0.58452645269293457 0 0.20050006573841939 0.53248514016039872 0 0.23975172658309729 0.49475499200540818 0 0.25115337790845271 0.54719303014923271 0 0.20050006573841939 0.53248514016039872 0 0.16618607197337229 0.50652878253548905 0 0.19604738184454831 0.47787523520405789 0 0.20050006573841939 0.53248514016039872 0 0.19604738184454831 0.47787523520405789 0 0.23975172658309729 0.49475499200540818 0 0.20050006573841939 0.53248514016039872 0 0.18381867841758909 0.57774125163628387 0 0.14934928745814749 0.55042914607228977 0 0.20050006573841939 0.53248514016039872 0 0.14934928745814749 0.55042914607228977 0 0.16618607197337229 0.50652878253548905 0 0.1216098864341134 0.50637075089503902 0 0.16618607197337229 0.50652878253548905 0 0.14934928745814749 0.55042914607228977 0 0.1154888278694548 0.56733818459978413 0 0.1216098864341134 0.50637075089503902 0 0.14934928745814749 0.55042914607228977 0 0.15720202157091859 0.60665697304410315 0 0.1154888278694548 0.56733818459978413 0 0.14934928745814749 0.55042914607228977 0 0.15720202157091859 0.60665697304410315 0 0.1024350934457823 0.60772393977513839 0 0.1154888278694548 0.56733818459978413 0 0.15720202157091859 0.60665697304410315 0 0.1241190223511371 0.64391885572885044 0 0.1024350934457823 0.60772393977513839 0 0.18381867841758909 0.57774125163628387 0 0.19914261668318661 0.62286739485272158 0 0.15720202157091859 0.60665697304410315 0 0.15720202157091859 0.60665697304410315 0 0.14934928745814749 0.55042914607228977 0 0.18381867841758909 0.57774125163628387 0 0.15000000000062411 1 0 0.10000000000041601 1 0 0.10266856499240549 0.95548163909968886 0 0.083411279318375747 0.91030024466934134 0 0.10266856499240549 0.95548163909968886 0 0.053064897599294662 0.95186845269532028 0 0.050000000000207989 1 0 0.053064897599294662 0.95186845269532028 0 0.10000000000041601 1 0 0.10000000000041601 1 0 0.053064897599294662 0.95186845269532028 0 0.10266856499240549 0.95548163909968886 0 0.050000000000207989 1 0 0.025766224399875661 0.97546711317377799 0 0.053064897599294662 0.95186845269532028 0 0 1 0 0.025766224399875661 0.97546711317377799 0 0.050000000000207989 1 0 0 1 0 0 0.94999999999979179 0 0.025766224399875661 0.97546711317377799 0 0 0.94999999999979179 0 0.053064897599294662 0.95186845269532028 0 0.025766224399875661 0.97546711317377799 0 0 0.94999999999979179 0 0.0443105827531413 0.89858748162559932 0 0.053064897599294662 0.95186845269532028 0 0.083411279318375747 0.91030024466934134 0 0.053064897599294662 0.95186845269532028 0 0.0443105827531413 0.89858748162559932 0 0 0.94999999999979179 0 0 0.89999999999958358 0 0.0443105827531413 0.89858748162559932 0 0 0.89999999999958358 0 0 0.84999999999965292 0 0.0443105827531413 0.89858748162559932 0 0.083411279318375747 0.91030024466934134 0 0.0443105827531413 0.89858748162559932 0 0.065374659239661639 0.8551091961254178 0 0.083411279318375747 0.91030024466934134 0 0.065374659239661639 0.8551091961254178 0 0.10562472963403439 0.87143394428979881 0 0.083411279318375747 0.91030024466934134 0 0.1241151115713819 0.9045666525468371 0 0.10266856499240549 0.95548163909968886 0 0.14617343800780541 0.93808063414349496 0 0.10266856499240549 0.95548163909968886 0 0.1241151115713819 0.9045666525468371 0 0.14474682429600511 0.85524784522713515 0 0.1241151115713819 0.9045666525468371 0 0.10562472963403439 0.87143394428979881 0 0.083411279318375747 0.91030024466934134 0 0.10562472963403439 0.87143394428979881 0 0.1241151115713819 0.9045666525468371 0 0.14474682429600511 0.85524784522713515 0 0.10562472963403439 0.87143394428979881 0 0.1074251789111534 0.83564394292147814 0 0.083105206071452636 0.79992298667296435 0 0.1074251789111534 0.83564394292147814 0 0.065374659239661639 0.8551091961254178 0 0.065374659239661639 0.8551091961254178 0 0.1074251789111534 0.83564394292147814 0 0.10562472963403439 0.87143394428979881 0 0 0.84999999999965292 0 0.038512288486097702 0.8155852717111195 0 0.065374659239661639 0.8551091961254178 0 0 0.84999999999965292 0 0.065374659239661639 0.8551091961254178 0 0.0443105827531413 0.89858748162559932 0 0 0.84999999999965292 0 0 0.79999999999999982 0 0.038512288486097702 0.8155852717111195 0 0.083105206071452636 0.79992298667296435 0 0.065374659239661639 0.8551091961254178 0 0.038512288486097702 0.8155852717111195 0 0.083105206071452636 0.79992298667296435 0 0.038512288486097702 0.8155852717111195 0 0.04408157711937423 0.7728941757575627 0 0 0.79999999999999982 0 0.04408157711937423 0.7728941757575627 0 0.038512288486097702 0.8155852717111195 0 0 0.79999999999999982 0 0 0.75000000000034661 0 0.04408157711937423 0.7728941757575627 0 0.049706944316475897 0.72477277076253799 0 0.090953281884486245 0.7564451946902494 0 0.04408157711937423 0.7728941757575627 0 0.083105206071452636 0.79992298667296435 0 0.04408157711937423 0.7728941757575627 0 0.090953281884486245 0.7564451946902494 0 0.083105206071452636 0.79992298667296435 0 0.1382744753146134 0.79650574229207483 0 0.1074251789111534 0.83564394292147814 0 0.083105206071452636 0.79992298667296435 0 0.090953281884486245 0.7564451946902494 0 0.1382744753146134 0.79650574229207483 0 0.1382744753146134 0.79650574229207483 0 0.090953281884486245 0.7564451946902494 0 0.14335651144331049 0.75565258250209677 0 0.18269480424590959 0.75905448272264375 0 0.1382744753146134 0.79650574229207483 0 0.14335651144331049 0.75565258250209677 0 0.18269480424590959 0.75905448272264375 0 0.17777405986036951 0.81832336108265358 0 0.1382744753146134 0.79650574229207483 0 0.18269480424590959 0.75905448272264375 0 0.2248999640082178 0.72584299459689172 0 0.22556077506376701 0.77837424984191617 0 0.21858834311891909 0.81980263716112767 0 0.22556077506376701 0.77837424984191617 0 0.26104540868854792 0.81401944968719064 0 0.21858834311891909 0.81980263716112767 0 0.17777405986036951 0.81832336108265358 0 0.22556077506376701 0.77837424984191617 0 0.18269480424590959 0.75905448272264375 0 0.22556077506376701 0.77837424984191617 0 0.17777405986036951 0.81832336108265358 0 0.21858834311891909 0.81980263716112767 0 0.19741632902693801 0.86755867406447229 0 0.17777405986036951 0.81832336108265358 0 0.21858834311891909 0.81980263716112767 0 0.26104540868854792 0.81401944968719064 0 0.2401283238295133 0.85648409884788523 0 0.21858834311891909 0.81980263716112767 0 0.2401283238295133 0.85648409884788523 0 0.19741632902693801 0.86755867406447229 0 0.14474682429600511 0.85524784522713515 0 0.17777405986036951 0.81832336108265358 0 0.19741632902693801 0.86755867406447229 0 0.14474682429600511 0.85524784522713515 0 0.19741632902693801 0.86755867406447229 0 0.16206583317966519 0.89685560785156404 0 0.14474682429600511 0.85524784522713515 0 0.1382744753146134 0.79650574229207483 0 0.17777405986036951 0.81832336108265358 0 0.14474682429600511 0.85524784522713515 0 0.1074251789111534 0.83564394292147814 0 0.1382744753146134 0.79650574229207483 0 0.14474682429600511 0.85524784522713515 0 0.16206583317966519 0.89685560785156404 0 0.1241151115713819 0.9045666525468371 0 0.14617343800780541 0.93808063414349496 0 0.1241151115713819 0.9045666525468371 0 0.16206583317966519 0.89685560785156404 0 0.19901705110390991 0.9175543425573498 0 0.14617343800780541 0.93808063414349496 0 0.16206583317966519 0.89685560785156404 0 0.19901705110390991 0.9175543425573498 0 0.16206583317966519 0.89685560785156404 0 0.19741632902693801 0.86755867406447229 0 0.19901705110390991 0.9175543425573498 0 0.19741632902693801 0.86755867406447229 0 0.24536017905392571 0.90704567837671446 0 0.19741632902693801 0.86755867406447229 0 0.2401283238295133 0.85648409884788523 0 0.24536017905392571 0.90704567837671446 0 0.19901705110390991 0.9175543425573498 0 0.24536017905392571 0.90704567837671446 0 0.22850979588452081 0.95594428570238643 0 0.19901705110390991 0.9175543425573498 0 0.22850979588452081 0.95594428570238643 0 0.18474005699953849 0.96231585248064622 0 0.27609987656793722 0.94991445621608572 0 0.22850979588452081 0.95594428570238643 0 0.24536017905392571 0.90704567837671446 0 0.25000000000104028 1 0 0.20000000000083221 1 0 0.22850979588452081 0.95594428570238643 0 0.20000000000083221 1 0 0.18474005699953849 0.96231585248064622 0 0.22850979588452081 0.95594428570238643 0 0.20000000000083221 1 0 0.15000000000062411 1 0 0.18474005699953849 0.96231585248064622 0 0.19901705110390991 0.9175543425573498 0 0.18474005699953849 0.96231585248064622 0 0.14617343800780541 0.93808063414349496 0 0.15000000000062411 1 0 0.14617343800780541 0.93808063414349496 0 0.18474005699953849 0.96231585248064622 0 0.15000000000062411 1 0 0.10266856499240549 0.95548163909968886 0 0.14617343800780541 0.93808063414349496 0 0.35000000000145642 1 0 0.32544832635163229 0.95485394099568932 0 0.36184234618600131 0.96443954459096326 0 0.40000000000166441 1 0 0.35000000000145642 1 0 0.36184234618600131 0.96443954459096326 0 0.35752321586431363 0.9185439911803448 0 0.36184234618600131 0.96443954459096326 0 0.32544832635163229 0.95485394099568932 0 0.35752321586431363 0.9185439911803448 0 0.39641108128798319 0.94356127926187128 0 0.36184234618600131 0.96443954459096326 0 0.35000000000145642 1 0 0.30000000000124832 1 0 0.32544832635163229 0.95485394099568932 0 0.30000000000124832 1 0 0.25000000000104028 1 0 0.27609987656793722 0.94991445621608572 0 0.25000000000104028 1 0 0.22850979588452081 0.95594428570238643 0 0.27609987656793722 0.94991445621608572 0 0.30000000000124832 1 0 0.27609987656793722 0.94991445621608572 0 0.32544832635163229 0.95485394099568932 0 0.27609987656793722 0.94991445621608572 0 0.30864387279288652 0.89906554525974958 0 0.32544832635163229 0.95485394099568932 0 0.27270076654418179 0.87751467830216623 0 0.30864387279288652 0.89906554525974958 0 0.24536017905392571 0.90704567837671446 0 0.27609987656793722 0.94991445621608572 0 0.24536017905392571 0.90704567837671446 0 0.30864387279288652 0.89906554525974958 0 0.27270076654418179 0.87751467830216623 0 0.24536017905392571 0.90704567837671446 0 0.2401283238295133 0.85648409884788523 0 0.35752321586431363 0.9185439911803448 0 0.30864387279288652 0.89906554525974958 0 0.35864759629805099 0.87963482415279515 0 0.35752321586431363 0.9185439911803448 0 0.32544832635163229 0.95485394099568932 0 0.30864387279288652 0.89906554525974958 0 0.35752321586431363 0.9185439911803448 0 0.35864759629805099 0.87963482415279515 0 0.39767323751400468 0.89584229130535065 0 0.35864759629805099 0.87963482415279515 0 0.33403534827021109 0.84402799729020661 0 0.39536230704883951 0.84069429572832477 0 0.33403534827021109 0.84402799729020661 0 0.35642984951668422 0.80994399665655703 0 0.39536230704883951 0.84069429572832477 0 0.33403534827021109 0.84402799729020661 0 0.30857225866488791 0.81101973481716805 0 0.35642984951668422 0.80994399665655703 0 0.33403534827021109 0.84402799729020661 0 0.35864759629805099 0.87963482415279515 0 0.30864387279288652 0.89906554525974958 0 0.33403534827021109 0.84402799729020661 0 0.30864387279288652 0.89906554525974958 0 0.29209212897034281 0.84715728365233667 0 0.27270076654418179 0.87751467830216623 0 0.29209212897034281 0.84715728365233667 0 0.30864387279288652 0.89906554525974958 0 0.27270076654418179 0.87751467830216623 0 0.2401283238295133 0.85648409884788523 0 0.29209212897034281 0.84715728365233667 0 0.26104540868854792 0.81401944968719064 0 0.29209212897034281 0.84715728365233667 0 0.2401283238295133 0.85648409884788523 0 0.26104540868854792 0.81401944968719064 0 0.30857225866488791 0.81101973481716805 0 0.29209212897034281 0.84715728365233667 0 0.33403534827021109 0.84402799729020661 0 0.29209212897034281 0.84715728365233667 0 0.30857225866488791 0.81101973481716805 0 0.26104540868854792 0.81401944968719064 0 0.2792923945214143 0.77665808831789485 0 0.30857225866488791 0.81101973481716805 0 0.33123028043633618 0.77629643437932982 0 0.30857225866488791 0.81101973481716805 0 0.2792923945214143 0.77665808831789485 0 0.26104540868854792 0.81401944968719064 0 0.22556077506376701 0.77837424984191617 0 0.2792923945214143 0.77665808831789485 0 0.25676291524611189 0.7436741304886243 0 0.29904318922293632 0.74132814928635593 0 0.2792923945214143 0.77665808831789485 0 0.25676291524611189 0.7436741304886243 0 0.2792923945214143 0.77665808831789485 0 0.22556077506376701 0.77837424984191617 0 0.33123028043633618 0.77629643437932982 0 0.2792923945214143 0.77665808831789485 0 0.29904318922293632 0.74132814928635593 0 0.33123028043633618 0.77629643437932982 0 0.29904318922293632 0.74132814928635593 0 0.35415581127540569 0.73730480045900215 0 0.33123028043633618 0.77629643437932982 0 0.35642984951668422 0.80994399665655703 0 0.30857225866488791 0.81101973481716805 0 0.33123028043633618 0.77629643437932982 0 0.38586766253264881 0.78219501014812498 0 0.35642984951668422 0.80994399665655703 0 0.33123028043633618 0.77629643437932982 0 0.35415581127540569 0.73730480045900215 0 0.38586766253264881 0.78219501014812498 0 0.40326160981139969 0.73346192995102844 0 0.42676259796334498 0.76772545931379299 0 0.38586766253264881 0.78219501014812498 0 0.40326160981139969 0.73346192995102844 0 0.38586766253264881 0.78219501014812498 0 0.35415581127540569 0.73730480045900215 0 0.39536230704883951 0.84069429572832477 0 0.38586766253264881 0.78219501014812498 0 0.42609163930740518 0.80361684430568059 0 0.39536230704883951 0.84069429572832477 0 0.35642984951668422 0.80994399665655703 0 0.38586766253264881 0.78219501014812498 0 0.38586766253264881 0.78219501014812498 0 0.42676259796334498 0.76772545931379299 0 0.42609163930740518 0.80361684430568059 0 0.4656888918609538 0.78493261229743638 0 0.42676259796334498 0.76772545931379299 0 0.45582236402875981 0.73896743678908217 0 0.4656888918609538 0.78493261229743638 0 0.45582236402875981 0.73896743678908217 0 0.50945740445113552 0.75476055527778108 0 0.4656888918609538 0.78493261229743638 0 0.50945740445113552 0.75476055527778108 0 0.50731287292894423 0.78963574450233831 0 0.4656888918609538 0.78493261229743638 0 0.50731287292894423 0.78963574450233831 0 0.50627822638148745 0.8263979829520941 0 0.4656888918609538 0.78493261229743638 0 0.45677673713123867 0.84253684404072415 0 0.42609163930740518 0.80361684430568059 0 0.4656888918609538 0.78493261229743638 0 0.42609163930740518 0.80361684430568059 0 0.42676259796334498 0.76772545931379299 0 0.4656888918609538 0.78493261229743638 0 0.50627822638148745 0.8263979829520941 0 0.45677673713123867 0.84253684404072415 0 0.50202631463681879 0.87892870825713787 0 0.45677673713123867 0.84253684404072415 0 0.50627822638148745 0.8263979829520941 0 0.50202631463681879 0.87892870825713787 0 0.44003836461056539 0.88093474584252718 0 0.45677673713123867 0.84253684404072415 0 0.39536230704883951 0.84069429572832477 0 0.45677673713123867 0.84253684404072415 0 0.44003836461056539 0.88093474584252718 0 0.39536230704883951 0.84069429572832477 0 0.44003836461056539 0.88093474584252718 0 0.39767323751400468 0.89584229130535065 0 0.39536230704883951 0.84069429572832477 0 0.42609163930740518 0.80361684430568059 0 0.45677673713123867 0.84253684404072415 0 0.39536230704883951 0.84069429572832477 0 0.39767323751400468 0.89584229130535065 0 0.35864759629805099 0.87963482415279515 0 0.35752321586431363 0.9185439911803448 0 0.39767323751400468 0.89584229130535065 0 0.39641108128798319 0.94356127926187128 0 0.4367309254023824 0.92065556789053882 0 0.39641108128798319 0.94356127926187128 0 0.39767323751400468 0.89584229130535065 0 0.4367309254023824 0.92065556789053882 0 0.39767323751400468 0.89584229130535065 0 0.44003836461056539 0.88093474584252718 0 0.4367309254023824 0.92065556789053882 0 0.44003836461056539 0.88093474584252718 0 0.47401147028110507 0.91529957330468115 0 0.50202631463681879 0.87892870825713787 0 0.47401147028110507 0.91529957330468115 0 0.44003836461056539 0.88093474584252718 0 0.52122150208832174 0.94089974453840242 0 0.47135117303824892 0.95556877749289892 0 0.47401147028110507 0.91529957330468115 0 0.50202631463681879 0.87892870825713787 0 0.52122150208832174 0.94089974453840242 0 0.47401147028110507 0.91529957330468115 0 0.4367309254023824 0.92065556789053882 0 0.47401147028110507 0.91529957330468115 0 0.47135117303824892 0.95556877749289892 0 0.4367309254023824 0.92065556789053882 0 0.47135117303824892 0.95556877749289892 0 0.4308986359464303 0.96395712492906194 0 0.50000000000205869 1 0 0.47135117303824892 0.95556877749289892 0 0.52122150208832174 0.94089974453840242 0 0.50000000000205869 1 0 0.45000000000187229 1 0 0.47135117303824892 0.95556877749289892 0 0.45000000000187229 1 0 0.4308986359464303 0.96395712492906194 0 0.47135117303824892 0.95556877749289892 0 0.45000000000187229 1 0 0.40000000000166441 1 0 0.4308986359464303 0.96395712492906194 0 0.40000000000166441 1 0 0.39641108128798319 0.94356127926187128 0 0.4308986359464303 0.96395712492906194 0 0.4367309254023824 0.92065556789053882 0 0.4308986359464303 0.96395712492906194 0 0.39641108128798319 0.94356127926187128 0 0.40000000000166441 1 0 0.36184234618600131 0.96443954459096326 0 0.39641108128798319 0.94356127926187128 0 0.33122374654748771 0.57588941099433744 0 0.35765792684946668 0.6000687869219653 0 0.31502927232353312 0.6134992213375432 0 0.35864735590330371 0.63903383440414463 0 0.31502927232353312 0.6134992213375432 0 0.35765792684946668 0.6000687869219653 0 0.35864735590330371 0.63903383440414463 0 0.35765792684946668 0.6000687869219653 0 0.39743091024207589 0.6239520004230239 0 0.33122374654748771 0.57588941099433744 0 0.37272913873093971 0.56192925302619479 0 0.35765792684946668 0.6000687869219653 0 0.38244435121258652 0.51653317813019495 0 0.37272913873093971 0.56192925302619479 0 0.33190227185843768 0.52715113583864037 0 0.33122374654748771 0.57588941099433744 0 0.33190227185843768 0.52715113583864037 0 0.37272913873093971 0.56192925302619479 0 0.38244435121258652 0.51653317813019495 0 0.33190227185843768 0.52715113583864037 0 0.35024835142131061 0.48654922671676981 0 0.33122374654748771 0.57588941099433744 0 0.29110487519241501 0.56588143995431495 0 0.33190227185843768 0.52715113583864037 0 0.28307294598219601 0.50789252727458634 0 0.33190227185843768 0.52715113583864037 0 0.29110487519241501 0.56588143995431495 0 0.31068898841644388 0.47541502461811092 0 0.33190227185843768 0.52715113583864037 0 0.28307294598219601 0.50789252727458634 0 0.28307294598219601 0.50789252727458634 0 0.25115337790845271 0.54719303014923271 0 0.23975172658309729 0.49475499200540818 0 0.28307294598219601 0.50789252727458634 0 0.29110487519241501 0.56588143995431495 0 0.25115337790845271 0.54719303014923271 0 0.26573297623774761 0.59828298563722948 0 0.25115337790845271 0.54719303014923271 0 0.29110487519241501 0.56588143995431495 0 0.33122374654748771 0.57588941099433744 0 0.31502927232353312 0.6134992213375432 0 0.29110487519241501 0.56588143995431495 0 0.26573297623774761 0.59828298563722948 0 0.29110487519241501 0.56588143995431495 0 0.31502927232353312 0.6134992213375432 0 0.26573297623774761 0.59828298563722948 0 0.31502927232353312 0.6134992213375432 0 0.27820712747429932 0.65530134213254643 0 0.26573297623774761 0.59828298563722948 0 0.27820712747429932 0.65530134213254643 0 0.2459498854893499 0.63248470766216769 0 0.2236846579037573 0.67380363126050236 0 0.27820712747429932 0.65530134213254643 0 0.26439878998046262 0.7048065392091396 0 0.31378396441836959 0.70157213313026345 0 0.27820712747429932 0.65530134213254643 0 0.32263089806001177 0.66003674931826484 0 0.31378396441836959 0.70157213313026345 0 0.26439878998046262 0.7048065392091396 0 0.27820712747429932 0.65530134213254643 0 0.27820712747429932 0.65530134213254643 0 0.31502927232353312 0.6134992213375432 0 0.32263089806001177 0.66003674931826484 0 0.25676291524611189 0.7436741304886243 0 0.26439878998046262 0.7048065392091396 0 0.29904318922293632 0.74132814928635593 0 0.31378396441836959 0.70157213313026345 0 0.29904318922293632 0.74132814928635593 0 0.26439878998046262 0.7048065392091396 0 0.31378396441836959 0.70157213313026345 0 0.35415581127540569 0.73730480045900215 0 0.29904318922293632 0.74132814928635593 0 0.31378396441836959 0.70157213313026345 0 0.36622285152418499 0.69092437780804039 0 0.35415581127540569 0.73730480045900215 0 0.40326160981139969 0.73346192995102844 0 0.35415581127540569 0.73730480045900215 0 0.36622285152418499 0.69092437780804039 0 0.35864735590330371 0.63903383440414463 0 0.32263089806001177 0.66003674931826484 0 0.31502927232353312 0.6134992213375432 0 0.31378396441836959 0.70157213313026345 0 0.32263089806001177 0.66003674931826484 0 0.36622285152418499 0.69092437780804039 0 0.35864735590330371 0.63903383440414463 0 0.36622285152418499 0.69092437780804039 0 0.32263089806001177 0.66003674931826484 0 0.35864735590330371 0.63903383440414463 0 0.3977710372045391 0.65868194622830212 0 0.36622285152418499 0.69092437780804039 0 0.35864735590330371 0.63903383440414463 0 0.39743091024207589 0.6239520004230239 0 0.3977710372045391 0.65868194622830212 0 0.36622285152418499 0.69092437780804039 0 0.3977710372045391 0.65868194622830212 0 0.43323420005758778 0.6913544522562407 0 0.43846182030517877 0.64845797726506715 0 0.43323420005758778 0.6913544522562407 0 0.3977710372045391 0.65868194622830212 0 0.43846182030517877 0.64845797726506715 0 0.39743091024207589 0.6239520004230239 0 0.43545892161006339 0.61093128915313821 0 0.43846182030517877 0.64845797726506715 0 0.3977710372045391 0.65868194622830212 0 0.39743091024207589 0.6239520004230239 0 0.40326160981139969 0.73346192995102844 0 0.36622285152418499 0.69092437780804039 0 0.43323420005758778 0.6913544522562407 0 0.40326160981139969 0.73346192995102844 0 0.43323420005758778 0.6913544522562407 0 0.45582236402875981 0.73896743678908217 0 0.40326160981139969 0.73346192995102844 0 0.45582236402875981 0.73896743678908217 0 0.42676259796334498 0.76772545931379299 0 0.5 0.69999999999999996 0 0.45582236402875981 0.73896743678908217 0 0.43323420005758778 0.6913544522562407 0 0.5 0.69999999999999996 0 0.50945740445113552 0.75476055527778108 0 0.45582236402875981 0.73896743678908217 0 0.5 0.69999999999999996 0 0.43323420005758778 0.6913544522562407 0 0.47913475093885149 0.66010775372412711 0 0.43846182030517877 0.64845797726506715 0 0.47095389620662098 0.61892551373708504 0 0.47913475093885149 0.66010775372412711 0 0.43846182030517877 0.64845797726506715 0 0.43545892161006339 0.61093128915313821 0 0.47095389620662098 0.61892551373708504 0 0.43846182030517877 0.64845797726506715 0 0.47913475093885149 0.66010775372412711 0 0.43323420005758778 0.6913544522562407 0 0.50715858906372158 0.63295939104129484 0 0.47913475093885149 0.66010775372412711 0 0.47095389620662098 0.61892551373708504 0 0.50715858906372158 0.63295939104129484 0 0.47095389620662098 0.61892551373708504 0 0.5166924242153631 0.59825134841919447 0 0.46666084890304671 0.57634471035397938 0 0.5166924242153631 0.59825134841919447 0 0.47095389620662098 0.61892551373708504 0 0.46666084890304671 0.57634471035397938 0 0.47095389620662098 0.61892551373708504 0 0.43545892161006339 0.61093128915313821 0 0.4089290844030305 0.58728915500154233 0 0.43545892161006339 0.61093128915313821 0 0.39743091024207589 0.6239520004230239 0 0.43545892161006339 0.61093128915313821 0 0.4089290844030305 0.58728915500154233 0 0.46666084890304671 0.57634471035397938 0 0.4089290844030305 0.58728915500154233 0 0.42644501560315817 0.54603747078095544 0 0.46666084890304671 0.57634471035397938 0 0.4089290844030305 0.58728915500154233 0 0.37272913873093971 0.56192925302619479 0 0.42644501560315817 0.54603747078095544 0 0.4089290844030305 0.58728915500154233 0 0.35765792684946668 0.6000687869219653 0 0.37272913873093971 0.56192925302619479 0 0.4089290844030305 0.58728915500154233 0 0.39743091024207589 0.6239520004230239 0 0.35765792684946668 0.6000687869219653 0 0.38244435121258652 0.51653317813019495 0 0.42644501560315817 0.54603747078095544 0 0.37272913873093971 0.56192925302619479 0 0.38244435121258652 0.51653317813019495 0 0.43507373378304309 0.49699695397193322 0 0.42644501560315817 0.54603747078095544 0 0.46666084890304671 0.57634471035397938 0 0.47793794143994173 0.52940715638744962 0 0.53245488764484505 0.55078124999999989 0 0.49102375406324739 0.49123754822244059 0 0.47793794143994173 0.52940715638744962 0 0.43507373378304309 0.49699695397193322 0 0.43507373378304309 0.49699695397193322 0 0.47793794143994173 0.52940715638744962 0 0.42644501560315817 0.54603747078095544 0 0.46666084890304671 0.57634471035397938 0 0.42644501560315817 0.54603747078095544 0 0.47793794143994173 0.52940715638744962 0 0.49102375406324739 0.49123754822244059 0 0.53330375813596242 0.50827942741749099 0 0.47793794143994173 0.52940715638744962 0 0.53245488764484505 0.55078124999999989 0 0.47793794143994173 0.52940715638744962 0 0.53330375813596242 0.50827942741749099 0 0.53245488764484505 0.55078124999999989 0 0.53330375813596242 0.50827942741749099 0 0.57435499076887508 0.54267261987897775 0 0.57412547362576272 0.58273804879550706 0 0.53245488764484505 0.55078124999999989 0 0.57435499076887508 0.54267261987897775 0 0.57611405284611883 0.50165903596042916 0 0.57435499076887508 0.54267261987897775 0 0.53330375813596242 0.50827942741749099 0 0.57611405284611883 0.50165903596042916 0 0.62042975506801734 0.54295974692364424 0 0.57435499076887508 0.54267261987897775 0 0.57412547362576272 0.58273804879550706 0 0.57435499076887508 0.54267261987897775 0 0.62042975506801734 0.54295974692364424 0 0.57611405284611883 0.50165903596042916 0 0.61547661924074692 0.48539576058873962 0 0.62042975506801734 0.54295974692364424 0 0.6405463747586706 0.63290524857395714 0 0.5991018319127801 0.62925360607495295 0 0.63065402604362242 0.59661356661633302 0 0.57412547362576272 0.58273804879550706 0 0.63065402604362242 0.59661356661633302 0 0.5991018319127801 0.62925360607495295 0 0.57412547362576272 0.58273804879550706 0 0.62042975506801734 0.54295974692364424 0 0.63065402604362242 0.59661356661633302 0 0.57412547362576272 0.58273804879550706 0 0.5991018319127801 0.62925360607495295 0 0.5498280205245758 0.6290146943450976 0 0.46666084890304671 0.57634471035397938 0 0.53245488764484505 0.55078124999999989 0 0.5166924242153631 0.59825134841919447 0 0.57412547362576272 0.58273804879550706 0 0.5498280205245758 0.6290146943450976 0 0.5166924242153631 0.59825134841919447 0 0.57412547362576272 0.58273804879550706 0 0.5166924242153631 0.59825134841919447 0 0.53245488764484505 0.55078124999999989 0 0.50715858906372158 0.63295939104129484 0 0.5166924242153631 0.59825134841919447 0 0.5498280205245758 0.6290146943450976 0 0.50715858906372158 0.63295939104129484 0 0.52584555706968406 0.66664215091846768 0 0.47913475093885149 0.66010775372412711 0 0.50715858906372158 0.63295939104129484 0 0.5498280205245758 0.6290146943450976 0 0.52584555706968406 0.66664215091846768 0 0.5 0.69999999999999996 0 0.47913475093885149 0.66010775372412711 0 0.52584555706968406 0.66664215091846768 0 0.54999999999999993 0.69999999999999996 0 0.52584555706968406 0.66664215091846768 0 0.57484956128872922 0.66573805030881994 0 0.57484956128872922 0.66573805030881994 0 0.52584555706968406 0.66664215091846768 0 0.5498280205245758 0.6290146943450976 0 0.50945740445113552 0.75476055527778108 0 0.5 0.69999999999999996 0 0.55363780716230748 0.74348740161571747 0 0.5 0.69999999999999996 0 0.52584555706968406 0.66664215091846768 0 0.54999999999999993 0.69999999999999996 0 0.5 0.69999999999999996 0 0.54999999999999993 0.69999999999999996 0 0.5 0.69999999999999996 0 0.54999999999999993 0.69999999999999996 0 0.55363780716230748 0.74348740161571747 0 0.59999999999999976 0.69999999999999996 0 0.59636844454254345 0.75937156204589151 0 0.55363780716230748 0.74348740161571747 0 0.54999999999999993 0.69999999999999996 0 0.59999999999999976 0.69999999999999996 0 0.54999999999999993 0.69999999999999996 0 0.57484956128872922 0.66573805030881994 0 0.59999999999999976 0.69999999999999996 0 0.54999999999999993 0.69999999999999996 0 0.59999999999999976 0.69999999999999996 0 0.55363780716230748 0.74348740161571747 0 0.59999999999999976 0.69999999999999996 0 0.6499999999999998 0.69999999999999996 0 0.59999999999999976 0.69999999999999996 0 0.62460753523532009 0.66851202781000296 0 0.6499999999999998 0.69999999999999996 0 0.59999999999999976 0.69999999999999996 0 0.63221990677827677 0.73442891067859706 0 0.59636844454254345 0.75937156204589151 0 0.57484956128872922 0.66573805030881994 0 0.5498280205245758 0.6290146943450976 0 0.5991018319127801 0.62925360607495295 0 0.59999999999999976 0.69999999999999996 0 0.57484956128872922 0.66573805030881994 0 0.62460753523532009 0.66851202781000296 0 0.57484956128872922 0.66573805030881994 0 0.5991018319127801 0.62925360607495295 0 0.62460753523532009 0.66851202781000296 0 0.6405463747586706 0.63290524857395714 0 0.62460753523532009 0.66851202781000296 0 0.5991018319127801 0.62925360607495295 0 0.6405463747586706 0.63290524857395714 0 0.675261390228442 0.65996937624687813 0 0.62460753523532009 0.66851202781000296 0 0.6499999999999998 0.69999999999999996 0 0.62460753523532009 0.66851202781000296 0 0.675261390228442 0.65996937624687813 0 0.6499999999999998 0.69999999999999996 0 0.675261390228442 0.65996937624687813 0 0.69999999999999984 0.69999999999999996 0 0.6405463747586706 0.63290524857395714 0 0.67529834988829951 0.61613270668143583 0 0.675261390228442 0.65996937624687813 0 0.64753070846764316 0.77332939069435502 0 0.63221990677827677 0.73442891067859706 0 0.66427993341343905 0.73232764502436276 0 0.6499999999999998 0.69999999999999996 0 0.66427993341343905 0.73232764502436276 0 0.63221990677827677 0.73442891067859706 0 0.59999999999999976 0.69999999999999996 0 0.6499999999999998 0.69999999999999996 0 0.63221990677827677 0.73442891067859706 0 0.6499999999999998 0.69999999999999996 0 0.69999999999999984 0.69999999999999996 0 0.6499999999999998 0.69999999999999996 0 0.69999999999999984 0.69999999999999996 0 0.66427993341343905 0.73232764502436276 0 0.69999999999999984 0.69999999999999996 0 0.6916490518212759 0.75387992374886192 0 0.66427993341343905 0.73232764502436276 0 0.69999999999999984 0.69999999999999996 0 0.72501250972655151 0.74067302935308721 0 0.6916490518212759 0.75387992374886192 0 0.69999999999999984 0.69999999999999996 0 0.74999999999999989 0.69999999999999996 0 0.72501250972655151 0.74067302935308721 0 0.69999999999999984 0.69999999999999996 0 0.72500000000000064 0.67022701834392062 0 0.74999999999999989 0.69999999999999996 0 0.69999999999999984 0.69999999999999996 0 0.74999999999999989 0.69999999999999996 0 0.74999999999999989 0.69999999999999996 0 0.75841349681148107 0.75422312624214749 0 0.72501250972655151 0.74067302935308721 0 0.71406021706547751 0.63292083137662503 0 0.72500000000000064 0.67022701834392062 0 0.675261390228442 0.65996937624687813 0 0.71406021706547751 0.63292083137662503 0 0.675261390228442 0.65996937624687813 0 0.67529834988829951 0.61613270668143583 0 0.69999999999999984 0.69999999999999996 0 0.675261390228442 0.65996937624687813 0 0.72500000000000064 0.67022701834392062 0 0.71406021706547751 0.63292083137662503 0 0.74994237037456724 0.62775548192980357 0 0.72500000000000064 0.67022701834392062 0 0.7750489929959945 0.66593931409600093 0 0.72500000000000064 0.67022701834392062 0 0.74994237037456724 0.62775548192980357 0 0.71406021706547751 0.63292083137662503 0 0.71809016091162536 0.58185040402320831 0 0.74994237037456724 0.62775548192980357 0 0.77293540622714185 0.59448302402785813 0 0.74994237037456724 0.62775548192980357 0 0.71809016091162536 0.58185040402320831 0 0.71406021706547751 0.63292083137662503 0 0.67529834988829951 0.61613270668143583 0 0.71809016091162536 0.58185040402320831 0 0.67323294229744413 0.57556450033612505 0 0.67569444444444449 0.53500863336860327 0 0.71809016091162536 0.58185040402320831 0 0.67323294229744413 0.57556450033612505 0 0.71809016091162536 0.58185040402320831 0 0.67529834988829951 0.61613270668143583 0 0.7152569930854884 0.5237994455134295 0 0.77151014687832564 0.54436834383023036 0 0.71809016091162536 0.58185040402320831 0 0.7152569930854884 0.5237994455134295 0 0.73947346780852752 0.49062440112282169 0 0.77151014687832564 0.54436834383023036 0 0.7152569930854884 0.5237994455134295 0 0.67569444444444449 0.53500863336860327 0 0.69385896817107129 0.48377516041410151 0 0.7152569930854884 0.5237994455134295 0 0.71809016091162536 0.58185040402320831 0 0.67569444444444449 0.53500863336860327 0 0.67323294229744413 0.57556450033612505 0 0.62042975506801734 0.54295974692364424 0 0.67569444444444449 0.53500863336860327 0 0.6541250972820879 0.49999999999999989 0 0.69385896817107129 0.48377516041410151 0 0.67569444444444449 0.53500863336860327 0 0.6541250972820879 0.49999999999999989 0 0.67569444444444449 0.53500863336860327 0 0.62042975506801734 0.54295974692364424 0 0.6541250972820879 0.49999999999999989 0 0.62042975506801734 0.54295974692364424 0 0.61547661924074692 0.48539576058873962 0 0.67323294229744413 0.57556450033612505 0 0.63065402604362242 0.59661356661633302 0 0.62042975506801734 0.54295974692364424 0 0.6405463747586706 0.63290524857395714 0 0.63065402604362242 0.59661356661633302 0 0.67529834988829951 0.61613270668143583 0 0.67323294229744413 0.57556450033612505 0 0.67529834988829951 0.61613270668143583 0 0.63065402604362242 0.59661356661633302 0 0.60000000000138687 1 0 0.57382506491224949 0.9629411906298494 0 0.62065498684670595 0.95224934003983619 0 0.65000000000104008 1 0 0.60000000000138687 1 0 0.62065498684670595 0.95224934003983619 0 0.57724883562309992 0.92155686857100794 0 0.62065498684670595 0.95224934003983619 0 0.57382506491224949 0.9629411906298494 0 0.60000000000138687 1 0 0.55000000000173355 1 0 0.57382506491224949 0.9629411906298494 0 0.55000000000173355 1 0 0.50000000000205869 1 0 0.52122150208832174 0.94089974453840242 0 0.57724883562309992 0.92155686857100794 0 0.57382506491224949 0.9629411906298494 0 0.52122150208832174 0.94089974453840242 0 0.55000000000173355 1 0 0.52122150208832174 0.94089974453840242 0 0.57382506491224949 0.9629411906298494 0 0.57724883562309992 0.92155686857100794 0 0.52122150208832174 0.94089974453840242 0 0.54783390826260769 0.89287767010860219 0 0.50202631463681879 0.87892870825713787 0 0.54783390826260769 0.89287767010860219 0 0.52122150208832174 0.94089974453840242 0 0.55899371797446828 0.85003102233514438 0 0.5832743223239254 0.88483152652961872 0 0.54783390826260769 0.89287767010860219 0 0.57724883562309992 0.92155686857100794 0 0.54783390826260769 0.89287767010860219 0 0.5832743223239254 0.88483152652961872 0 0.57724883562309992 0.92155686857100794 0 0.5832743223239254 0.88483152652961872 0 0.61885627562261258 0.90282959257498208 0 0.57724883562309992 0.92155686857100794 0 0.61885627562261258 0.90282959257498208 0 0.62065498684670595 0.95224934003983619 0 0.61343887413683884 0.856862479058357 0 0.61885627562261258 0.90282959257498208 0 0.5832743223239254 0.88483152652961872 0 0.61343887413683884 0.856862479058357 0 0.60294066490120068 0.80851322453934582 0 0.65005442820240822 0.82644988530054031 0 0.61343887413683884 0.856862479058357 0 0.55899371797446828 0.85003102233514438 0 0.60294066490120068 0.80851322453934582 0 0.54782696902220018 0.79245182748204157 0 0.60294066490120068 0.80851322453934582 0 0.55899371797446828 0.85003102233514438 0 0.61343887413683884 0.856862479058357 0 0.5832743223239254 0.88483152652961872 0 0.55899371797446828 0.85003102233514438 0 0.50202631463681879 0.87892870825713787 0 0.55899371797446828 0.85003102233514438 0 0.54783390826260769 0.89287767010860219 0 0.50202631463681879 0.87892870825713787 0 0.50627822638148745 0.8263979829520941 0 0.55899371797446828 0.85003102233514438 0 0.54782696902220018 0.79245182748204157 0 0.55899371797446828 0.85003102233514438 0 0.50627822638148745 0.8263979829520941 0 0.54782696902220018 0.79245182748204157 0 0.50627822638148745 0.8263979829520941 0 0.50731287292894423 0.78963574450233831 0 0.54782696902220018 0.79245182748204157 0 0.50731287292894423 0.78963574450233831 0 0.50945740445113552 0.75476055527778108 0 0.54782696902220018 0.79245182748204157 0 0.50945740445113552 0.75476055527778108 0 0.55363780716230748 0.74348740161571747 0 0.54782696902220018 0.79245182748204157 0 0.55363780716230748 0.74348740161571747 0 0.59636844454254345 0.75937156204589151 0 0.54782696902220018 0.79245182748204157 0 0.59636844454254345 0.75937156204589151 0 0.60294066490120068 0.80851322453934582 0 0.64753070846764316 0.77332939069435502 0 0.60294066490120068 0.80851322453934582 0 0.59636844454254345 0.75937156204589151 0 0.64753070846764316 0.77332939069435502 0 0.59636844454254345 0.75937156204589151 0 0.63221990677827677 0.73442891067859706 0 0.64753070846764316 0.77332939069435502 0 0.65005442820240822 0.82644988530054031 0 0.60294066490120068 0.80851322453934582 0 0.64753070846764316 0.77332939069435502 0 0.68024162096458085 0.79868546898116533 0 0.65005442820240822 0.82644988530054031 0 0.64753070846764316 0.77332939069435502 0 0.6916490518212759 0.75387992374886192 0 0.68024162096458085 0.79868546898116533 0 0.64753070846764316 0.77332939069435502 0 0.66427993341343905 0.73232764502436276 0 0.6916490518212759 0.75387992374886192 0 0.6916490518212759 0.75387992374886192 0 0.72501250972655151 0.74067302935308721 0 0.72500000000000064 0.7952620967744265 0 0.72501250972655151 0.74067302935308721 0 0.75841349681148107 0.75422312624214749 0 0.72500000000000064 0.7952620967744265 0 0.72500000000000064 0.7952620967744265 0 0.68024162096458085 0.79868546898116533 0 0.6916490518212759 0.75387992374886192 0 0.72500000000000064 0.7952620967744265 0 0.68697391633157634 0.84450604838764298 0 0.68024162096458085 0.79868546898116533 0 0.72500000000000064 0.7952620967744265 0 0.72863726579783861 0.85390518901155588 0 0.68697391633157634 0.84450604838764298 0 0.72500000000000064 0.7952620967744265 0 0.76901770135486491 0.84293557325473656 0 0.72863726579783861 0.85390518901155588 0 0.7250000000005199 0.89375000000045834 0 0.68697391633157634 0.84450604838764298 0 0.72863726579783861 0.85390518901155588 0 0.7250000000005199 0.89375000000045834 0 0.66412543161245952 0.88015090885499059 0 0.68697391633157634 0.84450604838764298 0 0.68697391633157634 0.84450604838764298 0 0.66412543161245952 0.88015090885499059 0 0.65005442820240822 0.82644988530054031 0 0.68697391633157634 0.84450604838764298 0 0.65005442820240822 0.82644988530054031 0 0.68024162096458085 0.79868546898116533 0 0.61343887413683884 0.856862479058357 0 0.65005442820240822 0.82644988530054031 0 0.66412543161245952 0.88015090885499059 0 0.61343887413683884 0.856862479058357 0 0.66412543161245952 0.88015090885499059 0 0.61885627562261258 0.90282959257498208 0 0.65507451745379841 0.92229208810758578 0 0.61885627562261258 0.90282959257498208 0 0.66412543161245952 0.88015090885499059 0 0.65507451745379841 0.92229208810758578 0 0.62065498684670595 0.95224934003983619 0 0.61885627562261258 0.90282959257498208 0 0.65507451745379841 0.92229208810758578 0 0.68987011941058407 0.92105047536677087 0 0.68015064798562208 0.95924320340003011 0 0.65507451745379841 0.92229208810758578 0 0.66412543161245952 0.88015090885499059 0 0.68987011941058407 0.92105047536677087 0 0.7250000000005199 0.89375000000045834 0 0.68987011941058407 0.92105047536677087 0 0.66412543161245952 0.88015090885499059 0 0.7250000000005199 0.89375000000045834 0 0.72863726579783861 0.85390518901155588 0 0.76891166905518427 0.88835469571185499 0 0.7250000000005199 0.89375000000045834 0 0.75729602384198635 0.92353652857884294 0 0.7250000000005199 0.94981617647078953 0 0.7250000000005199 0.89375000000045834 0 0.7250000000005199 0.94981617647078953 0 0.68987011941058407 0.92105047536677087 0 0.7250000000005199 0.94981617647078953 0 0.68015064798562208 0.95924320340003011 0 0.68987011941058407 0.92105047536677087 0 0.75000000000034661 1 0 0.7000000000006934 1 0 0.7250000000005199 0.94981617647078953 0 0.75000000000034661 1 0 0.7250000000005199 0.94981617647078953 0 0.770759834363826 0.95919399014344442 0 0.7000000000006934 1 0 0.68015064798562208 0.95924320340003011 0 0.7250000000005199 0.94981617647078953 0 0.7000000000006934 1 0 0.65000000000104008 1 0 0.68015064798562208 0.95924320340003011 0 0.65507451745379841 0.92229208810758578 0 0.68015064798562208 0.95924320340003011 0 0.62065498684670595 0.95224934003983619 0 0.65000000000104008 1 0 0.62065498684670595 0.95224934003983619 0 0.68015064798562208 0.95924320340003011 0 0.84999999999965292 1 0 0.85170973911348691 0.93569607295217616 0 0.89898474358632463 0.95391965591118966 0 0.84999999999965292 1 0 0.81486180804382891 0.96321394949790495 0 0.85170973911348691 0.93569607295217616 0 0.79680861578988083 0.92656778056766709 0 0.85170973911348691 0.93569607295217616 0 0.81486180804382891 0.96321394949790495 0 0.84999999999965292 1 0 0.79999999999999982 1 0 0.81486180804382891 0.96321394949790495 0 0.79999999999999982 1 0 0.770759834363826 0.95919399014344442 0 0.81486180804382891 0.96321394949790495 0 0.79999999999999982 1 0 0.75000000000034661 1 0 0.770759834363826 0.95919399014344442 0 0.7250000000005199 0.94981617647078953 0 0.75729602384198635 0.92353652857884294 0 0.770759834363826 0.95919399014344442 0 0.79680861578988083 0.92656778056766709 0 0.81486180804382891 0.96321394949790495 0 0.770759834363826 0.95919399014344442 0 0.79680861578988083 0.92656778056766709 0 0.75729602384198635 0.92353652857884294 0 0.76891166905518427 0.88835469571185499 0 0.79680861578988083 0.92656778056766709 0 0.770759834363826 0.95919399014344442 0 0.75729602384198635 0.92353652857884294 0 0.7250000000005199 0.89375000000045834 0 0.76891166905518427 0.88835469571185499 0 0.75729602384198635 0.92353652857884294 0 0.79680861578988083 0.92656778056766709 0 0.76891166905518427 0.88835469571185499 0 0.81159157511211755 0.88795995483179491 0 0.85170973911348691 0.93569607295217616 0 0.81159157511211755 0.88795995483179491 0 0.85600844944837662 0.88483418979512773 0 0.79680861578988083 0.92656778056766709 0 0.81159157511211755 0.88795995483179491 0 0.85170973911348691 0.93569607295217616 0 0.90416666666660628 0.9041666666666166 0 0.85170973911348691 0.93569607295217616 0 0.85600844944837662 0.88483418979512773 0 0.82709327591091286 0.84937141670920724 0 0.88088768115933802 0.84674609810493673 0 0.85600844944837662 0.88483418979512773 0 0.82709327591091286 0.84937141670920724 0 0.84725310900444062 0.80779732082917555 0 0.88088768115933802 0.84674609810493673 0 0.82709327591091286 0.84937141670920724 0 0.80041942726660109 0.81543261647703358 0 0.84725310900444062 0.80779732082917555 0 0.82709327591091286 0.84937141670920724 0 0.85600844944837662 0.88483418979512773 0 0.81159157511211755 0.88795995483179491 0 0.76901770135486491 0.84293557325473656 0 0.81159157511211755 0.88795995483179491 0 0.76891166905518427 0.88835469571185499 0 0.82709327591091286 0.84937141670920724 0 0.81159157511211755 0.88795995483179491 0 0.76901770135486491 0.84293557325473656 0 0.76901770135486491 0.84293557325473656 0 0.76891166905518427 0.88835469571185499 0 0.72863726579783861 0.85390518901155588 0 0.76901770135486491 0.84293557325473656 0 0.77094201086366854 0.79647480515688507 0 0.80041942726660109 0.81543261647703358 0 0.82709327591091286 0.84937141670920724 0 0.76901770135486491 0.84293557325473656 0 0.80041942726660109 0.81543261647703358 0 0.80185942888539485 0.77452061303608133 0 0.80041942726660109 0.81543261647703358 0 0.77094201086366854 0.79647480515688507 0 0.72500000000000064 0.7952620967744265 0 0.75841349681148107 0.75422312624214749 0 0.77094201086366854 0.79647480515688507 0 0.72500000000000064 0.7952620967744265 0 0.77094201086366854 0.79647480515688507 0 0.76901770135486491 0.84293557325473656 0 0.80185942888539485 0.77452061303608133 0 0.77094201086366854 0.79647480515688507 0 0.75841349681148107 0.75422312624214749 0 0.80185942888539485 0.77452061303608133 0 0.75841349681148107 0.75422312624214749 0 0.78578450296893509 0.73292684821144505 0 0.80185942888539485 0.77452061303608133 0 0.85491058998424563 0.76004753345552634 0 0.84725310900444062 0.80779732082917555 0 0.80185942888539485 0.77452061303608133 0 0.81864958914779962 0.73589050177899629 0 0.85491058998424563 0.76004753345552634 0 0.80185942888539485 0.77452061303608133 0 0.84725310900444062 0.80779732082917555 0 0.80041942726660109 0.81543261647703358 0 0.90299850604011456 0.79563452813489832 0 0.84725310900444062 0.80779732082917555 0 0.85491058998424563 0.76004753345552634 0 0.90299850604011456 0.79563452813489832 0 0.85491058998424563 0.76004753345552634 0 0.89999166460796554 0.74528934923809909 0 0.90299850604011456 0.79563452813489832 0 0.94399509803918602 0.75600490196082126 0 0.95386563387742829 0.80414874155775029 0 0.90299850604011456 0.79563452813489832 0 0.89999166460796554 0.74528934923809909 0 0.94399509803918602 0.75600490196082126 0 0.94399509803918602 0.75600490196082126 0 0.97435614836745565 0.77499999999987745 0 0.95386563387742829 0.80414874155775029 0 0.94399509803918602 0.75600490196082126 0 0.97166519676947294 0.73337114490064459 0 0.97435614836745565 0.77499999999987745 0 1 0.74999999999993494 0 0.97435614836745565 0.77499999999987745 0 0.97166519676947294 0.73337114490064459 0 1 0.74999999999993494 0 1 0.7999999999998193 0 0.97435614836745565 0.77499999999987745 0 1 0.7999999999998193 0 0.95386563387742829 0.80414874155775029 0 0.97435614836745565 0.77499999999987745 0 1 0.84999999999982645 0 0.95391631417670719 0.89584263333814784 0 0.93677536231884972 0.85000000000000286 0 1 0.84999999999982645 0 0.93677536231884972 0.85000000000000286 0 0.95386563387742829 0.80414874155775029 0 1 0.7999999999998193 0 1 0.84999999999982645 0 0.95386563387742829 0.80414874155775029 0 0.90416666666660628 0.9041666666666166 0 0.88088768115933802 0.84674609810493673 0 0.93677536231884972 0.85000000000000286 0 0.90299850604011456 0.79563452813489832 0 0.95386563387742829 0.80414874155775029 0 0.93677536231884972 0.85000000000000286 0 0.90299850604011456 0.79563452813489832 0 0.93677536231884972 0.85000000000000286 0 0.88088768115933802 0.84674609810493673 0 0.90299850604011456 0.79563452813489832 0 0.88088768115933802 0.84674609810493673 0 0.84725310900444062 0.80779732082917555 0 0.90416666666660628 0.9041666666666166 0 0.85600844944837662 0.88483418979512773 0 0.88088768115933802 0.84674609810493673 0 0.90416666666660628 0.9041666666666166 0 0.89898474358632463 0.95391965591118966 0 0.85170973911348691 0.93569607295217616 0 0.90416666666660628 0.9041666666666166 0 0.95391631417670719 0.89584263333814784 0 0.94399509803919068 0.9439950980391687 0 0.90416666666660628 0.9041666666666166 0 0.94399509803919068 0.9439950980391687 0 0.89898474358632463 0.95391965591118966 0 0.90416666666660628 0.9041666666666166 0 0.93677536231884972 0.85000000000000286 0 0.95391631417670719 0.89584263333814784 0 1 0.84999999999982645 0 1 0.8999999999998336 0 0.95391631417670719 0.89584263333814784 0 1 0.8999999999998336 0 1 0.94999999999997109 0 0.97435614836744289 0.92499999999990257 0 1 0.8999999999998336 0 0.97435614836744289 0.92499999999990257 0 0.95391631417670719 0.89584263333814784 0 0.94399509803919068 0.9439950980391687 0 0.95391631417670719 0.89584263333814784 0 0.97435614836744289 0.92499999999990257 0 0.94399509803919068 0.9439950980391687 0 0.97435614836744289 0.92499999999990257 0 0.97166519676946206 0.96662885509935492 0 1 0.94999999999997109 0 0.97166519676946206 0.96662885509935492 0 0.97435614836744289 0.92499999999990257 0 1 1 0 0.97166519676946206 0.96662885509935492 0 1 0.94999999999997109 0 1 1 0 0.94999999999979179 1 0 0.97166519676946206 0.96662885509935492 0 0.94999999999979179 1 0 0.94399509803919068 0.9439950980391687 0 0.97166519676946206 0.96662885509935492 0 0.94999999999979179 1 0 0.89999999999958358 1 0 0.89898474358632463 0.95391965591118966 0 0.94999999999979179 1 0 0.89898474358632463 0.95391965591118966 0 0.94399509803919068 0.9439950980391687 0 0.89999999999958358 1 0 0.84999999999965292 1 0 0.89898474358632463 0.95391965591118966 0 0.86956835336234861 0.571283299838105 0 0.81723410853263523 0.59419663659258926 0 0.82862096804812391 0.55037090955459045 0 0.83758014339878906 0.63222013025741819 0 0.81723410853263523 0.59419663659258926 0 0.87159648282691515 0.61285406320581504 0 0.83758014339878906 0.63222013025741819 0 0.79884539758237771 0.62875045078114233 0 0.81723410853263523 0.59419663659258926 0 0.86956835336234861 0.571283299838105 0 0.87159648282691515 0.61285406320581504 0 0.81723410853263523 0.59419663659258926 0 0.86956835336234861 0.571283299838105 0 0.82862096804812391 0.55037090955459045 0 0.86907294890112186 0.52008116128001669 0 0.82862096804812391 0.55037090955459045 0 0.81441713509985358 0.51161854125224959 0 0.86907294890112186 0.52008116128001669 0 0.84723782639812573 0.48638347960178252 0 0.86907294890112186 0.52008116128001669 0 0.81441713509985358 0.51161854125224959 0 0.82862096804812391 0.55037090955459045 0 0.77151014687832564 0.54436834383023036 0 0.81441713509985358 0.51161854125224959 0 0.77846603114747959 0.49850927265137401 0 0.81441713509985358 0.51161854125224959 0 0.77151014687832564 0.54436834383023036 0 0.77846603114747959 0.49850927265137401 0 0.77151014687832564 0.54436834383023036 0 0.73947346780852752 0.49062440112282169 0 0.77293540622714185 0.59448302402785813 0 0.71809016091162536 0.58185040402320831 0 0.77151014687832564 0.54436834383023036 0 0.81723410853263523 0.59419663659258926 0 0.77293540622714185 0.59448302402785813 0 0.77151014687832564 0.54436834383023036 0 0.82862096804812391 0.55037090955459045 0 0.81723410853263523 0.59419663659258926 0 0.77151014687832564 0.54436834383023036 0 0.77293540622714185 0.59448302402785813 0 0.81723410853263523 0.59419663659258926 0 0.79884539758237771 0.62875045078114233 0 0.77293540622714185 0.59448302402785813 0 0.79884539758237771 0.62875045078114233 0 0.74994237037456724 0.62775548192980357 0 0.7750489929959945 0.66593931409600093 0 0.74994237037456724 0.62775548192980357 0 0.79884539758237771 0.62875045078114233 0 0.74999999999999989 0.69999999999999996 0 0.72500000000000064 0.67022701834392062 0 0.7750489929959945 0.66593931409600093 0 0.79999999999999982 0.69999999999999996 0 0.7750489929959945 0.66593931409600093 0 0.82457059160610424 0.66831947184359608 0 0.7750489929959945 0.66593931409600093 0 0.79884539758237771 0.62875045078114233 0 0.82457059160610424 0.66831947184359608 0 0.74999999999999989 0.69999999999999996 0 0.78578450296893509 0.73292684821144505 0 0.75841349681148107 0.75422312624214749 0 0.74999999999999989 0.69999999999999996 0 0.79999999999999982 0.69999999999999996 0 0.78578450296893509 0.73292684821144505 0 0.74999999999999989 0.69999999999999996 0 0.7750489929959945 0.66593931409600093 0 0.79999999999999982 0.69999999999999996 0 0.74999999999999989 0.69999999999999996 0 0.79999999999999982 0.69999999999999996 0 0.80185942888539485 0.77452061303608133 0 0.78578450296893509 0.73292684821144505 0 0.81864958914779962 0.73589050177899629 0 0.79999999999999982 0.69999999999999996 0 0.81864958914779962 0.73589050177899629 0 0.78578450296893509 0.73292684821144505 0 0.84999999999999987 0.69999999999999996 0 0.85491058998424563 0.76004753345552634 0 0.81864958914779962 0.73589050177899629 0 0.79999999999999982 0.69999999999999996 0 0.84999999999999987 0.69999999999999996 0 0.79999999999999982 0.69999999999999996 0 0.82457059160610424 0.66831947184359608 0 0.84999999999999987 0.69999999999999996 0 0.79999999999999982 0.69999999999999996 0 0.84999999999999987 0.69999999999999996 0 0.81864958914779962 0.73589050177899629 0 0.84999999999999987 0.69999999999999996 0 0.89999999999999991 0.69999999999999996 0 0.84999999999999987 0.69999999999999996 0 0.89999166460796554 0.74528934923809909 0 0.85491058998424563 0.76004753345552634 0 0.83758014339878906 0.63222013025741819 0 0.82457059160610424 0.66831947184359608 0 0.79884539758237771 0.62875045078114233 0 0.84999999999999987 0.69999999999999996 0 0.82457059160610424 0.66831947184359608 0 0.87712158428786946 0.65709029563313581 0 0.83758014339878906 0.63222013025741819 0 0.87159648282691515 0.61285406320581504 0 0.87712158428786946 0.65709029563313581 0 0.83758014339878906 0.63222013025741819 0 0.87712158428786946 0.65709029563313581 0 0.82457059160610424 0.66831947184359608 0 0.91750694127105259 0.63017627779935648 0 0.92057473616084773 0.66770436535372446 0 0.87712158428786946 0.65709029563313581 0 0.91750694127105259 0.63017627779935648 0 0.87712158428786946 0.65709029563313581 0 0.87159648282691515 0.61285406320581504 0 0.84999999999999987 0.69999999999999996 0 0.87712158428786946 0.65709029563313581 0 0.89999999999999991 0.69999999999999996 0 0.89999999999999991 0.69999999999999996 0 0.87712158428786946 0.65709029563313581 0 0.92057473616084773 0.66770436535372446 0 0.91750694127105259 0.63017627779935648 0 0.9578014258160763 0.65787212321113708 0 0.92057473616084773 0.66770436535372446 0 0.84999999999999987 0.69999999999999996 0 0.89999999999999991 0.69999999999999996 0 0.89999166460796554 0.74528934923809909 0 0.89999999999999991 0.69999999999999996 0 0.94999999999999996 0.69999999999999996 0 0.89999999999999991 0.69999999999999996 0 0.92057473616084773 0.66770436535372446 0 0.94999999999999996 0.69999999999999996 0 0.89999999999999991 0.69999999999999996 0 0.94999999999999996 0.69999999999999996 0 0.89999166460796554 0.74528934923809909 0 0.94999999999999996 0.69999999999999996 0 0.94399509803918602 0.75600490196082126 0 0.89999166460796554 0.74528934923809909 0 0.94999999999999996 0.69999999999999996 0 0.97166519676947294 0.73337114490064459 0 0.94399509803918602 0.75600490196082126 0 0.94999999999999996 0.69999999999999996 0 1 0.69999999999999996 0 1 0.69999999999999996 0 0.97166519676947294 0.73337114490064459 0 0.94999999999999996 0.69999999999999996 0 1 0.69999999999999996 0 1 0.74999999999993494 0 0.97166519676947294 0.73337114490064459 0 0.91750694127105259 0.63017627779935648 0 0.95867599106212187 0.60011091146651041 0 0.9578014258160763 0.65787212321113708 0 0.94999999999999996 0.69999999999999996 0 0.92057473616084773 0.66770436535372446 0 0.9578014258160763 0.65787212321113708 0 1 0.69999999999999996 0 0.94999999999999996 0.69999999999999996 0 0.9578014258160763 0.65787212321113708 0 1 0.69999999999999996 0 0.9578014258160763 0.65787212321113708 0 1 0.64999999999986979 0 1 0.64999999999986979 0 0.9578014258160763 0.65787212321113708 0 0.95867599106212187 0.60011091146651041 0 1 0.54999999999963112 0 0.95867599106212187 0.60011091146651041 0 0.93732437411268477 0.55911392101136159 0 1 0.59999999999973963 0 1 0.64999999999986979 0 0.95867599106212187 0.60011091146651041 0 1 0.54999999999963112 0 1 0.59999999999973963 0 0.95867599106212187 0.60011091146651041 0 0.91750694127105259 0.63017627779935648 0 0.91143117093204207 0.58709913730335972 0 0.95867599106212187 0.60011091146651041 0 0.93732437411268477 0.55911392101136159 0 0.95867599106212187 0.60011091146651041 0 0.91143117093204207 0.58709913730335972 0 0.86956835336234861 0.571283299838105 0 0.90900154012161016 0.53607784105648792 0 0.91143117093204207 0.58709913730335972 0 0.86956835336234861 0.571283299838105 0 0.91143117093204207 0.58709913730335972 0 0.87159648282691515 0.61285406320581504 0 0.91750694127105259 0.63017627779935648 0 0.87159648282691515 0.61285406320581504 0 0.91143117093204207 0.58709913730335972 0 0.91696753777131557 0.497780560203536 0 0.90900154012161016 0.53607784105648792 0 0.86907294890112186 0.52008116128001669 0 0.86956835336234861 0.571283299838105 0 0.86907294890112186 0.52008116128001669 0 0.90900154012161016 0.53607784105648792 0 0.93732437411268477 0.55911392101136159 0 0.90900154012161016 0.53607784105648792 0 0.95631871884947484 0.51827533208233789 0 0.93732437411268477 0.55911392101136159 0 0.91143117093204207 0.58709913730335972 0 0.90900154012161016 0.53607784105648792 0 0.91696753777131557 0.497780560203536 0 0.95631871884947484 0.51827533208233789 0 0.90900154012161016 0.53607784105648792 0 1 0.54999999999963112 0 0.93732437411268477 0.55911392101136159 0 0.95631871884947484 0.51827533208233789 0 1 0.49999999999950101 0 1 0.54999999999963112 0 0.95631871884947484 0.51827533208233789 0 1 0.49999999999950101 0 0.95631871884947484 0.51827533208233789 0 0.96228564064454991 0.48206450662049471 0 1 0.44999999999963131 0 1 0.49999999999950101 0 0.96228564064454991 0.48206450662049471 0 1 0.44999999999963131 0 0.96228564064454991 0.48206450662049471 0 0.93814194660195893 0.44426664081746747 0 0.91696753777131557 0.497780560203536 0 0.93814194660195893 0.44426664081746747 0 0.96228564064454991 0.48206450662049471 0 0.91696753777131557 0.497780560203536 0 0.96228564064454991 0.48206450662049471 0 0.95631871884947484 0.51827533208233789 0 1 0.34999999999993492 0 1 0.39999999999978308 0 0.95871855522754235 0.40006508612975411 0 1 0.39999999999978308 0 1 0.44999999999963131 0 0.95871855522754235 0.40006508612975411 0 1 0.44999999999963131 0 0.93814194660195893 0.44426664081746747 0 0.95871855522754235 0.40006508612975411 0 0.91750694127107502 0.36982372220068471 0 0.95871855522754235 0.40006508612975411 0 0.90594285160987287 0.4141265964174129 0 0.93814194660195893 0.44426664081746747 0 0.90594285160987287 0.4141265964174129 0 0.95871855522754235 0.40006508612975411 0 0.90594285160987287 0.4141265964174129 0 0.88594198078881503 0.46167788676578442 0 0.86411095495256451 0.42388805655111889 0 0.86411095495256451 0.42388805655111889 0 0.86844634540301924 0.38530937474099819 0 0.90594285160987287 0.4141265964174129 0 0.91750694127107502 0.36982372220068471 0 0.90594285160987287 0.4141265964174129 0 0.86844634540301924 0.38530937474099819 0 0.91696753777131557 0.497780560203536 0 0.88594198078881503 0.46167788676578442 0 0.93814194660195893 0.44426664081746747 0 0.93814194660195893 0.44426664081746747 0 0.88594198078881503 0.46167788676578442 0 0.90594285160987287 0.4141265964174129 0 0.91696753777131557 0.497780560203536 0 0.86907294890112186 0.52008116128001669 0 0.88594198078881503 0.46167788676578442 0 0.84723782639812573 0.48638347960178252 0 0.88594198078881503 0.46167788676578442 0 0.86907294890112186 0.52008116128001669 0 0.84723782639812573 0.48638347960178252 0 0.81441713509985358 0.51161854125224959 0 0.81400510706333218 0.47357325943904899 0 0.84723782639812573 0.48638347960178252 0 0.81400510706333218 0.47357325943904899 0 0.84925632466077294 0.45359738909549091 0 0.81973119833356312 0.43505687159469048 0 0.84925632466077294 0.45359738909549091 0 0.81400510706333218 0.47357325943904899 0 0.84723782639812573 0.48638347960178252 0 0.84925632466077294 0.45359738909549091 0 0.88594198078881503 0.46167788676578442 0 0.86411095495256451 0.42388805655111889 0 0.84925632466077294 0.45359738909549091 0 0.81973119833356312 0.43505687159469048 0 0.86411095495256451 0.42388805655111889 0 0.88594198078881503 0.46167788676578442 0 0.84925632466077294 0.45359738909549091 0 0.86411095495256451 0.42388805655111889 0 0.81308179852519835 0.39754945808726527 0 0.86844634540301924 0.38530937474099819 0 0.83573492347052902 0.36590755630746369 0 0.86844634540301924 0.38530937474099819 0 0.81308179852519835 0.39754945808726527 0 0.86411095495256451 0.42388805655111889 0 0.81973119833356312 0.43505687159469048 0 0.81308179852519835 0.39754945808726527 0 0.77354604466818633 0.40378688774472771 0 0.81973119833356312 0.43505687159469048 0 0.77972660463949339 0.45529290596363098 0 0.77354604466818633 0.40378688774472771 0 0.81308179852519835 0.39754945808726527 0 0.81973119833356312 0.43505687159469048 0 0.77354604466818633 0.40378688774472771 0 0.78145581580700685 0.34881365920033602 0 0.81308179852519835 0.39754945808726527 0 0.77354604466818633 0.40378688774472771 0 0.77972660463949339 0.45529290596363098 0 0.73483647259922602 0.44789725365921768 0 0.73483647259922602 0.44789725365921768 0 0.77972660463949339 0.45529290596363098 0 0.73947346780852752 0.49062440112282169 0 0.77846603114747959 0.49850927265137401 0 0.73947346780852752 0.49062440112282169 0 0.77972660463949339 0.45529290596363098 0 0.77846603114747959 0.49850927265137401 0 0.77972660463949339 0.45529290596363098 0 0.81400510706333218 0.47357325943904899 0 0.77846603114747959 0.49850927265137401 0 0.81400510706333218 0.47357325943904899 0 0.81441713509985358 0.51161854125224959 0 0.81973119833356312 0.43505687159469048 0 0.81400510706333218 0.47357325943904899 0 0.77972660463949339 0.45529290596363098 0 0.79999999999999982 0.29999999999999999 0 0.77075983436335049 0.25919399014334171 0 0.81486180804364938 0.26321394949780091 0 0.74999999999999989 0.29999999999999999 0 0.79999999999999982 0.29999999999999999 0 0.74999999999999989 0.29999999999999999 0 0.77075983436335049 0.25919399014334171 0 0.79999999999999982 0.29999999999999999 0 0.74999999999999989 0.29999999999999999 0 0.79999999999999982 0.29999999999999999 0 0.78145581580700685 0.34881365920033602 0 0.74999999999999989 0.29999999999999999 0 0.78145581580700685 0.34881365920033602 0 0.73090396928863699 0.33699297293167962 0 0.77354604466818633 0.40378688774472771 0 0.74764719760526988 0.3719647154012321 0 0.78145581580700685 0.34881365920033602 0 0.78145581580700685 0.34881365920033602 0 0.74764719760526988 0.3719647154012321 0 0.73090396928863699 0.33699297293167962 0 0.83573492347052902 0.36590755630746369 0 0.81308179852519835 0.39754945808726527 0 0.78145581580700685 0.34881365920033602 0 0.79999999999999982 0.29999999999999999 0 0.82500000000000062 0.33010209762754811 0 0.78145581580700685 0.34881365920033602 0 0.83573492347052902 0.36590755630746369 0 0.78145581580700685 0.34881365920033602 0 0.82500000000000062 0.33010209762754811 0 0.83573492347052902 0.36590755630746369 0 0.82500000000000062 0.33010209762754811 0 0.87430060258887643 0.34056085888204451 0 0.83573492347052902 0.36590755630746369 0 0.87430060258887643 0.34056085888204451 0 0.86844634540301924 0.38530937474099819 0 0.84999999999999987 0.29999999999999999 0 0.87430060258887643 0.34056085888204451 0 0.82500000000000062 0.33010209762754811 0 0.84999999999999987 0.29999999999999999 0 0.89999999999999991 0.29999999999999999 0 0.87430060258887643 0.34056085888204451 0 0.84999999999999987 0.29999999999999999 0 0.81486180804364938 0.26321394949780091 0 0.8517097391133297 0.2356960729520409 0 0.84999999999999987 0.29999999999999999 0 0.8517097391133297 0.2356960729520409 0 0.89898474358614167 0.25391965591104898 0 0.84999999999999987 0.29999999999999999 0 0.89999999999999991 0.29999999999999999 0 0.79999999999999982 0.29999999999999999 0 0.84999999999999987 0.29999999999999999 0 0.82500000000000062 0.33010209762754811 0 0.79999999999999982 0.29999999999999999 0 0.81486180804364938 0.26321394949780091 0 0.84999999999999987 0.29999999999999999 0 0.79999999999999982 0.29999999999999999 0 0.84999999999999987 0.29999999999999999 0 0.84999999999999987 0.29999999999999999 0 0.89898474358614167 0.25391965591104898 0 0.89999999999999991 0.29999999999999999 0 0.89999999999999991 0.29999999999999999 0 0.94999999999999996 0.29999999999999999 0 0.89999999999999991 0.29999999999999999 0 0.94999999999999996 0.29999999999999999 0 0.92012390126144183 0.33123581297173937 0 0.89999999999999991 0.29999999999999999 0 0.89898474358614167 0.25391965591104898 0 0.94999999999999996 0.29999999999999999 0 0.94999999999999996 0.29999999999999999 0 0.89898474358614167 0.25391965591104898 0 0.94399509803921056 0.24399509803922639 0 0.91750694127107502 0.36982372220068471 0 0.86844634540301924 0.38530937474099819 0 0.87430060258887643 0.34056085888204451 0 0.91750694127107502 0.36982372220068471 0 0.87430060258887643 0.34056085888204451 0 0.92012390126144183 0.33123581297173937 0 0.89999999999999991 0.29999999999999999 0 0.92012390126144183 0.33123581297173937 0 0.87430060258887643 0.34056085888204451 0 0.91750694127107502 0.36982372220068471 0 0.92012390126144183 0.33123581297173937 0 0.95780851984364423 0.34215720972155339 0 0.91750694127107502 0.36982372220068471 0 0.95780851984364423 0.34215720972155339 0 0.95871855522754235 0.40006508612975411 0 0.94999999999999996 0.29999999999999999 0 0.95780851984364423 0.34215720972155339 0 0.92012390126144183 0.33123581297173937 0 1 0.29999999999999999 0 0.95780851984364423 0.34215720972155339 0 0.94999999999999996 0.29999999999999999 0 1 0.29999999999999999 0 1 0.34999999999993492 0 0.95780851984364423 0.34215720972155339 0 1 0.34999999999993492 0 0.95871855522754235 0.40006508612975411 0 0.95780851984364423 0.34215720972155339 0 0.94999999999999996 0.29999999999999999 0 0.94399509803921056 0.24399509803922639 0 0.97166519676951801 0.26662885509932011 0 0.94999999999999996 0.29999999999999999 0 1 0.29999999999999999 0 1 0.29999999999999999 0 0.94999999999999996 0.29999999999999999 0 0.97166519676951801 0.26662885509932011 0 1 0.29999999999999999 0 0.97166519676951801 0.26662885509932011 0 1 0.24999999999987299 0 1 0.24999999999987299 0 0.97166519676951801 0.26662885509932011 0 0.97435614836740092 0.22499999999981049 0 1 0.19999999999974799 0 1 0.24999999999987299 0 0.97435614836740092 0.22499999999981049 0 0.94399509803921056 0.24399509803922639 0 0.95391631417672862 0.19584263333809451 0 0.97435614836740092 0.22499999999981049 0 0.94399509803921056 0.24399509803922639 0 0.97435614836740092 0.22499999999981049 0 0.97166519676951801 0.26662885509932011 0 1 0.19999999999974799 0 0.97435614836740092 0.22499999999981049 0 0.95391631417672862 0.19584263333809451 0 1 0.14999999999961891 0 0.95391631417672862 0.19584263333809451 0 0.93677536231883773 0.14999999999999089 0 1 0.14999999999961891 0 0.93677536231883773 0.14999999999999089 0 0.95386563387744361 0.1041487415577465 0 1 0.14999999999961891 0 1 0.19999999999974799 0 0.95391631417672862 0.19584263333809451 0 0.90416666666668166 0.20416666666667119 0 0.93677536231883773 0.14999999999999089 0 0.95391631417672862 0.19584263333809451 0 0.90416666666668166 0.20416666666667119 0 0.88088768115941807 0.14674609810479519 0 0.93677536231883773 0.14999999999999089 0 0.90299850604006393 0.09563452813493091 0 0.93677536231883773 0.14999999999999089 0 0.88088768115941807 0.14674609810479519 0 0.90416666666668166 0.20416666666667119 0 0.85600844944842547 0.1848341897950983 0 0.88088768115941807 0.14674609810479519 0 0.90416666666668166 0.20416666666667119 0 0.89898474358614167 0.25391965591104898 0 0.8517097391133297 0.2356960729520409 0 0.90416666666668166 0.20416666666667119 0 0.94399509803921056 0.24399509803922639 0 0.89898474358614167 0.25391965591104898 0 0.90416666666668166 0.20416666666667119 0 0.95391631417672862 0.19584263333809451 0 0.94399509803921056 0.24399509803922639 0 0.94999999999986839 0 0 0.97166519676946894 0.033371144900598393 0 0.94399509803922566 0.056004901960802607 0 1 0 0 0.97166519676946894 0.033371144900598393 0 0.94999999999986839 0 0 1 0 0 1 0.049999999999896842 0 0.97166519676946894 0.033371144900598393 0 1 0.049999999999896842 0 0.97435614836748241 0.074999999999825387 0 0.97166519676946894 0.033371144900598393 0 0.94399509803922566 0.056004901960802607 0 0.97166519676946894 0.033371144900598393 0 0.97435614836748241 0.074999999999825387 0 0.94399509803922566 0.056004901960802607 0 0.97435614836748241 0.074999999999825387 0 0.95386563387744361 0.1041487415577465 0 1 0.099999999999753911 0 0.95386563387744361 0.1041487415577465 0 0.97435614836748241 0.074999999999825387 0 1 0.049999999999896842 0 1 0.099999999999753911 0 0.97435614836748241 0.074999999999825387 0 1 0.099999999999753911 0 1 0.14999999999961891 0 0.95386563387744361 0.1041487415577465 0 0.90299850604006393 0.09563452813493091 0 0.95386563387744361 0.1041487415577465 0 0.93677536231883773 0.14999999999999089 0 0.90299850604006393 0.09563452813493091 0 0.88088768115941807 0.14674609810479519 0 0.84725310900442086 0.10779732082922661 0 0.90299850604006393 0.09563452813493091 0 0.85491058998398861 0.060047533455626502 0 0.899991664607802 0.045289349238254978 0 0.90299850604006393 0.09563452813493091 0 0.94399509803922566 0.056004901960802607 0 0.95386563387744361 0.1041487415577465 0 0.90299850604006393 0.09563452813493091 0 0.899991664607802 0.045289349238254978 0 0.94399509803922566 0.056004901960802607 0 0.94999999999986839 0 0 0.94399509803922566 0.056004901960802607 0 0.899991664607802 0.045289349238254978 0 0.84999999999960507 0 0 0.89999999999973679 0 0 0.899991664607802 0.045289349238254978 0 0.89999999999973679 0 0 0.94999999999986839 0 0 0.899991664607802 0.045289349238254978 0 0.79999999999947335 0 0 0.84999999999960507 0 0 0.81864958914740749 0.035890501779055867 0 0.84999999999960507 0 0 0.899991664607802 0.045289349238254978 0 0.85491058998398861 0.060047533455626502 0 0.80185942888501827 0.074520613036224564 0 0.81864958914740749 0.035890501779055867 0 0.85491058998398861 0.060047533455626502 0 0.84999999999960507 0 0 0.85491058998398861 0.060047533455626502 0 0.81864958914740749 0.035890501779055867 0 0.80185942888501827 0.074520613036224564 0 0.85491058998398861 0.060047533455626502 0 0.84725310900442086 0.10779732082922661 0 0.90299850604006393 0.09563452813493091 0 0.84725310900442086 0.10779732082922661 0 0.85491058998398861 0.060047533455626502 0 0.80185942888501827 0.074520613036224564 0 0.84725310900442086 0.10779732082922661 0 0.80076557130237269 0.1154587552654202 0 0.82709327591102189 0.14937141670914489 0 0.80076557130237269 0.1154587552654202 0 0.84725310900442086 0.10779732082922661 0 0.80185942888501827 0.074520613036224564 0 0.80076557130237269 0.1154587552654202 0 0.76878382444651716 0.097147941686331368 0 0.72525833953073282 0.1032114801687094 0 0.76878382444651716 0.097147941686331368 0 0.77144070960558853 0.14311854477243749 0 0.77144070960558853 0.14311854477243749 0 0.76878382444651716 0.097147941686331368 0 0.80076557130237269 0.1154587552654202 0 0.80185942888501827 0.074520613036224564 0 0.76878382444651716 0.097147941686331368 0 0.7527966693318906 0.053051678021508272 0 0.80185942888501827 0.074520613036224564 0 0.78393852574753176 0.032039079577822822 0 0.81864958914740749 0.035890501779055867 0 0.80185942888501827 0.074520613036224564 0 0.7527966693318906 0.053051678021508272 0 0.78393852574753176 0.032039079577822822 0 0.74999999999934175 0 0 0.78393852574753176 0.032039079577822822 0 0.7527966693318906 0.053051678021508272 0 0.74999999999934175 0 0 0.79999999999947335 0 0 0.78393852574753176 0.032039079577822822 0 0.79999999999947335 0 0 0.81864958914740749 0.035890501779055867 0 0.78393852574753176 0.032039079577822822 0 0.79680861578956375 0.22656778056752541 0 0.81283102246527783 0.1881007222486438 0 0.8517097391133297 0.2356960729520409 0 0.8517097391133297 0.2356960729520409 0 0.81283102246527783 0.1881007222486438 0 0.85600844944842547 0.1848341897950983 0 0.79680861578956375 0.22656778056752541 0 0.8517097391133297 0.2356960729520409 0 0.81486180804364938 0.26321394949780091 0 0.90416666666668166 0.20416666666667119 0 0.8517097391133297 0.2356960729520409 0 0.85600844944842547 0.1848341897950983 0 0.82709327591102189 0.14937141670914489 0 0.88088768115941807 0.14674609810479519 0 0.85600844944842547 0.1848341897950983 0 0.82709327591102189 0.14937141670914489 0 0.84725310900442086 0.10779732082922661 0 0.88088768115941807 0.14674609810479519 0 0.82709327591102189 0.14937141670914489 0 0.85600844944842547 0.1848341897950983 0 0.81283102246527783 0.1881007222486438 0 0.77144070960558853 0.14311854477243749 0 0.81283102246527783 0.1881007222486438 0 0.76587607630038135 0.18880039518954719 0 0.82709327591102189 0.14937141670914489 0 0.81283102246527783 0.1881007222486438 0 0.77144070960558853 0.14311854477243749 0 0.82709327591102189 0.14937141670914489 0 0.77144070960558853 0.14311854477243749 0 0.80076557130237269 0.1154587552654202 0 0.77144070960558853 0.14311854477243749 0 0.76587607630038135 0.18880039518954719 0 0.72634814642510737 0.16106886917518889 0 0.79680861578956375 0.22656778056752541 0 0.75668890529066124 0.2244279804069782 0 0.76587607630038135 0.18880039518954719 0 0.79680861578956375 0.22656778056752541 0 0.76587607630038135 0.18880039518954719 0 0.81283102246527783 0.1881007222486438 0 0.79680861578956375 0.22656778056752541 0 0.81486180804364938 0.26321394949780091 0 0.77075983436335049 0.25919399014334171 0 0.79680861578956375 0.22656778056752541 0 0.77075983436335049 0.25919399014334171 0 0.75668890529066124 0.2244279804069782 0 0.72500000000000064 0.2498161764706 0 0.75668890529066124 0.2244279804069782 0 0.77075983436335049 0.25919399014334171 0 0.72500000000001008 0.19776155966387679 0 0.75668890529066124 0.2244279804069782 0 0.72500000000000064 0.2498161764706 0 0.72500000000001008 0.19776155966387679 0 0.72500000000000064 0.2498161764706 0 0.69397719155551807 0.2245125647000914 0 0.72500000000000064 0.2498161764706 0 0.67933712972090698 0.25920070958121938 0 0.69397719155551807 0.2245125647000914 0 0.72500000000001008 0.19776155966387679 0 0.69397719155551807 0.2245125647000914 0 0.6865991819015953 0.189116534044597 0 0.72500000000001008 0.19776155966387679 0 0.76587607630038135 0.18880039518954719 0 0.75668890529066124 0.2244279804069782 0 0.72500000000001008 0.19776155966387679 0 0.72634814642510737 0.16106886917518889 0 0.76587607630038135 0.18880039518954719 0 0.72525833953073282 0.1032114801687094 0 0.77144070960558853 0.14311854477243749 0 0.72634814642510737 0.16106886917518889 0 0.72525833953073282 0.1032114801687094 0 0.72634814642510737 0.16106886917518889 0 0.68391457121233579 0.14440470121196541 0 0.72500000000001008 0.19776155966387679 0 0.6865991819015953 0.189116534044597 0 0.72634814642510737 0.16106886917518889 0 0.68391457121233579 0.14440470121196541 0 0.72634814642510737 0.16106886917518889 0 0.6865991819015953 0.189116534044597 0 0.68391457121233579 0.14440470121196541 0 0.6865991819015953 0.189116534044597 0 0.64011864159029941 0.18789607982138171 0 0.6236733212988993 0.14864538214901801 0 0.65290632656860115 0.11434202593454081 0 0.68391457121233579 0.14440470121196541 0 0.6236733212988993 0.14864538214901801 0 0.68391457121233579 0.14440470121196541 0 0.64011864159029941 0.18789607982138171 0 0.65394964615507722 0.22666784374016369 0 0.59814117807200873 0.23398510860739519 0 0.64011864159029941 0.18789607982138171 0 0.65394964615507722 0.22666784374016369 0 0.62657463266645097 0.26524202571255862 0 0.59814117807200873 0.23398510860739519 0 0.65394964615507722 0.22666784374016369 0 0.69397719155551807 0.2245125647000914 0 0.67933712972090698 0.25920070958121938 0 0.65394964615507722 0.22666784374016369 0 0.64011864159029941 0.18789607982138171 0 0.6865991819015953 0.189116534044597 0 0.65394964615507722 0.22666784374016369 0 0.6865991819015953 0.189116534044597 0 0.69397719155551807 0.2245125647000914 0 0.69999999999921003 0 0 0.72683645290270404 0.027797073151180601 0 0.7010294155333181 0.056779085686491267 0 0.69999999999921003 0 0 0.7010294155333181 0.056779085686491267 0 0.66369801598854572 0.036327466368102787 0 0.74999999999934175 0 0 0.7527966693318906 0.053051678021508272 0 0.72683645290270404 0.027797073151180601 0 0.69999999999921003 0 0 0.74999999999934175 0 0 0.72683645290270404 0.027797073151180601 0 0.7527966693318906 0.053051678021508272 0 0.7010294155333181 0.056779085686491267 0 0.72683645290270404 0.027797073151180601 0 0.72525833953073282 0.1032114801687094 0 0.68330259535470161 0.10038702501083881 0 0.7010294155333181 0.056779085686491267 0 0.72525833953073282 0.1032114801687094 0 0.7010294155333181 0.056779085686491267 0 0.7527966693318906 0.053051678021508272 0 0.72525833953073282 0.1032114801687094 0 0.7527966693318906 0.053051678021508272 0 0.76878382444651716 0.097147941686331368 0 0.72525833953073282 0.1032114801687094 0 0.68391457121233579 0.14440470121196541 0 0.68330259535470161 0.10038702501083881 0 0.65408113592120842 0.073941773121567966 0 0.68330259535470161 0.10038702501083881 0 0.65290632656860115 0.11434202593454081 0 0.68391457121233579 0.14440470121196541 0 0.65290632656860115 0.11434202593454081 0 0.68330259535470161 0.10038702501083881 0 0.6236733212988993 0.14864538214901801 0 0.61956000905586006 0.1043312481793135 0 0.65290632656860115 0.11434202593454081 0 0.65408113592120842 0.073941773121567966 0 0.65290632656860115 0.11434202593454081 0 0.61956000905586006 0.1043312481793135 0 0.65408113592120842 0.073941773121567966 0 0.61956000905586006 0.1043312481793135 0 0.61940220174112337 0.047251958781050582 0 0.65408113592120842 0.073941773121567966 0 0.7010294155333181 0.056779085686491267 0 0.68330259535470161 0.10038702501083881 0 0.65408113592120842 0.073941773121567966 0 0.66369801598854572 0.036327466368102787 0 0.7010294155333181 0.056779085686491267 0 0.65408113592120842 0.073941773121567966 0 0.61940220174112337 0.047251958781050582 0 0.66369801598854572 0.036327466368102787 0 0.64999999999907843 0 0 0.66369801598854572 0.036327466368102787 0 0.61940220174112337 0.047251958781050582 0 0.64999999999907843 0 0 0.69999999999921003 0 0 0.66369801598854572 0.036327466368102787 0 0.5499999999988151 0 0 0.59999999999894682 0 0 0.57396793757665954 0.037011367187645222 0 0.59999999999894682 0 0 0.64999999999907843 0 0 0.61940220174112337 0.047251958781050582 0 0.59999999999894682 0 0 0.61940220174112337 0.047251958781050582 0 0.57396793757665954 0.037011367187645222 0 0.57667858002728545 0.078486105337742612 0 0.57396793757665954 0.037011367187645222 0 0.61940220174112337 0.047251958781050582 0 0.57667858002728545 0.078486105337742612 0 0.61940220174112337 0.047251958781050582 0 0.61956000905586006 0.1043312481793135 0 0.6236733212988993 0.14864538214901801 0 0.58516465772821369 0.11653801664834119 0 0.61956000905586006 0.1043312481793135 0 0.57667858002728545 0.078486105337742612 0 0.61956000905586006 0.1043312481793135 0 0.58516465772821369 0.11653801664834119 0 0.56202748619534593 0.15054058349222879 0 0.54979595918804436 0.1060565713905809 0 0.58516465772821369 0.11653801664834119 0 0.57667858002728545 0.078486105337742612 0 0.58516465772821369 0.11653801664834119 0 0.54979595918804436 0.1060565713905809 0 0.51076801031701946 0.1202837388510348 0 0.52375890611712683 0.059318771819432882 0 0.54979595918804436 0.1060565713905809 0 0.51076801031701946 0.1202837388510348 0 0.47881186583059909 0.093591717165689425 0 0.52375890611712683 0.059318771819432882 0 0.57667858002728545 0.078486105337742612 0 0.54979595918804436 0.1060565713905809 0 0.52375890611712683 0.059318771819432882 0 0.5499999999988151 0 0 0.57396793757665954 0.037011367187645222 0 0.52375890611712683 0.059318771819432882 0 0.57667858002728545 0.078486105337742612 0 0.52375890611712683 0.059318771819432882 0 0.57396793757665954 0.037011367187645222 0 0.49999999999869432 0 0 0.5499999999988151 0 0 0.52375890611712683 0.059318771819432882 0 0.55306006949600994 0.20198184231352201 0 0.59443395090188023 0.18455690917515069 0 0.59814117807200873 0.23398510860739519 0 0.55306006949600994 0.20198184231352201 0 0.59814117807200873 0.23398510860739519 0 0.54248833945060504 0.2520322959927106 0 0.59814117807200873 0.23398510860739519 0 0.59443395090188023 0.18455690917515069 0 0.64011864159029941 0.18789607982138171 0 0.6236733212988993 0.14864538214901801 0 0.64011864159029941 0.18789607982138171 0 0.59443395090188023 0.18455690917515069 0 0.6236733212988993 0.14864538214901801 0 0.56202748619534593 0.15054058349222879 0 0.58516465772821369 0.11653801664834119 0 0.6236733212988993 0.14864538214901801 0 0.59443395090188023 0.18455690917515069 0 0.56202748619534593 0.15054058349222879 0 0.55306006949600994 0.20198184231352201 0 0.56202748619534593 0.15054058349222879 0 0.59443395090188023 0.18455690917515069 0 0.55306006949600994 0.20198184231352201 0 0.51729576145820033 0.1683240575987815 0 0.56202748619534593 0.15054058349222879 0 0.51076801031701946 0.1202837388510348 0 0.54979595918804436 0.1060565713905809 0 0.56202748619534593 0.15054058349222879 0 0.51076801031701946 0.1202837388510348 0 0.51729576145820033 0.1683240575987815 0 0.48466639505193998 0.1421439844745814 0 0.51076801031701946 0.1202837388510348 0 0.56202748619534593 0.15054058349222879 0 0.51729576145820033 0.1683240575987815 0 0.55306006949600994 0.20198184231352201 0 0.50760557329222289 0.20700468884612061 0 0.51729576145820033 0.1683240575987815 0 0.50760557329222289 0.20700468884612061 0 0.55306006949600994 0.20198184231352201 0 0.54248833945060504 0.2520322959927106 0 0.49695729691142171 0.25014895411178018 0 0.50760557329222289 0.20700468884612061 0 0.54248833945060504 0.2520322959927106 0 0.5 0.29999999999999999 0 0.49695729691142171 0.25014895411178018 0 0.54248833945060504 0.2520322959927106 0 0.5 0.29999999999999999 0 0.54999999999999993 0.29999999999999999 0 0.52752007115234678 0.33170632466418198 0 0.5 0.29999999999999999 0 0.54248833945060504 0.2520322959927106 0 0.54999999999999993 0.29999999999999999 0 0.5 0.29999999999999999 0 0.54999999999999993 0.29999999999999999 0 0.54999999999999993 0.29999999999999999 0 0.54248833945060504 0.2520322959927106 0 0.5794309697024993 0.27124795968204829 0 0.59814117807200873 0.23398510860739519 0 0.5794309697024993 0.27124795968204829 0 0.54248833945060504 0.2520322959927106 0 0.54999999999999993 0.29999999999999999 0 0.59999999999999976 0.29999999999999999 0 0.54999999999999993 0.29999999999999999 0 0.5794309697024993 0.27124795968204829 0 0.59999999999999976 0.29999999999999999 0 0.59999999999999976 0.29999999999999999 0 0.6499999999999998 0.29999999999999999 0 0.59999999999999976 0.29999999999999999 0 0.5794309697024993 0.27124795968204829 0 0.62657463266645097 0.26524202571255862 0 0.59814117807200873 0.23398510860739519 0 0.62657463266645097 0.26524202571255862 0 0.5794309697024993 0.27124795968204829 0 0.6084546825910605 0.37989672713932537 0 0.56836770495988642 0.3523062350852913 0 0.61959173890754571 0.33832250091341232 0 0.59999999999999976 0.29999999999999999 0 0.6499999999999998 0.29999999999999999 0 0.61959173890754571 0.33832250091341232 0 0.59999999999999976 0.29999999999999999 0 0.61959173890754571 0.33832250091341232 0 0.56836770495988642 0.3523062350852913 0 0.54999999999999993 0.29999999999999999 0 0.59999999999999976 0.29999999999999999 0 0.56836770495988642 0.3523062350852913 0 0.56836770495988642 0.3523062350852913 0 0.52289427570932567 0.3932284363388488 0 0.52752007115234678 0.33170632466418198 0 0.54999999999999993 0.29999999999999999 0 0.56836770495988642 0.3523062350852913 0 0.52752007115234678 0.33170632466418198 0 0.5 0.29999999999999999 0 0.52752007115234678 0.33170632466418198 0 0.49077833859261139 0.35229981449445641 0 0.52752007115234678 0.33170632466418198 0 0.52289427570932567 0.3932284363388488 0 0.49077833859261139 0.35229981449445641 0 0.52289427570932567 0.3932284363388488 0 0.56836770495988642 0.3523062350852913 0 0.57744073070774993 0.41535148636609359 0 0.52289427570932567 0.3932284363388488 0 0.57744073070774993 0.41535148636609359 0 0.53823865529665704 0.45873898050322898 0 0.52289427570932567 0.3932284363388488 0 0.53823865529665704 0.45873898050322898 0 0.48858720058566618 0.43964267759203868 0 0.49102375406324739 0.49123754822244059 0 0.53823865529665704 0.45873898050322898 0 0.53330375813596242 0.50827942741749099 0 0.49102375406324739 0.49123754822244059 0 0.48858720058566618 0.43964267759203868 0 0.53823865529665704 0.45873898050322898 0 0.57611405284611883 0.50165903596042916 0 0.53330375813596242 0.50827942741749099 0 0.53823865529665704 0.45873898050322898 0 0.57611405284611883 0.50165903596042916 0 0.57975577671020095 0.46172033326338591 0 0.61547661924074692 0.48539576058873962 0 0.57611405284611883 0.50165903596042916 0 0.53823865529665704 0.45873898050322898 0 0.57975577671020095 0.46172033326338591 0 0.61209567303293111 0.44669033081290321 0 0.57975577671020095 0.46172033326338591 0 0.57744073070774993 0.41535148636609359 0 0.53823865529665704 0.45873898050322898 0 0.57744073070774993 0.41535148636609359 0 0.57975577671020095 0.46172033326338591 0 0.61209567303293111 0.44669033081290321 0 0.61547661924074692 0.48539576058873962 0 0.57975577671020095 0.46172033326338591 0 0.6084546825910605 0.37989672713932537 0 0.57744073070774993 0.41535148636609359 0 0.56836770495988642 0.3523062350852913 0 0.61209567303293111 0.44669033081290321 0 0.57744073070774993 0.41535148636609359 0 0.63912439215427275 0.41063340167983359 0 0.6084546825910605 0.37989672713932537 0 0.63912439215427275 0.41063340167983359 0 0.57744073070774993 0.41535148636609359 0 0.6084546825910605 0.37989672713932537 0 0.65481233915350323 0.35652751921065562 0 0.63912439215427275 0.41063340167983359 0 0.6879972333610942 0.43038561374960838 0 0.65178832218679827 0.45929119821019959 0 0.63912439215427275 0.41063340167983359 0 0.6879972333610942 0.43038561374960838 0 0.63912439215427275 0.41063340167983359 0 0.68128176404677243 0.38629093627004979 0 0.65481233915350323 0.35652751921065562 0 0.68128176404677243 0.38629093627004979 0 0.63912439215427275 0.41063340167983359 0 0.6541250972820879 0.49999999999999989 0 0.61547661924074692 0.48539576058873962 0 0.65178832218679827 0.45929119821019959 0 0.61209567303293111 0.44669033081290321 0 0.65178832218679827 0.45929119821019959 0 0.61547661924074692 0.48539576058873962 0 0.61209567303293111 0.44669033081290321 0 0.63912439215427275 0.41063340167983359 0 0.65178832218679827 0.45929119821019959 0 0.6879972333610942 0.43038561374960838 0 0.69385896817107129 0.48377516041410151 0 0.65178832218679827 0.45929119821019959 0 0.6541250972820879 0.49999999999999989 0 0.65178832218679827 0.45929119821019959 0 0.69385896817107129 0.48377516041410151 0 0.7152569930854884 0.5237994455134295 0 0.69385896817107129 0.48377516041410151 0 0.73947346780852752 0.49062440112282169 0 0.6879972333610942 0.43038561374960838 0 0.73483647259922602 0.44789725365921768 0 0.69385896817107129 0.48377516041410151 0 0.73483647259922602 0.44789725365921768 0 0.73947346780852752 0.49062440112282169 0 0.69385896817107129 0.48377516041410151 0 0.71508799138962864 0.36622814920737751 0 0.72622533758026719 0.40265885511101601 0 0.68128176404677243 0.38629093627004979 0 0.6879972333610942 0.43038561374960838 0 0.72622533758026719 0.40265885511101601 0 0.73483647259922602 0.44789725365921768 0 0.6879972333610942 0.43038561374960838 0 0.68128176404677243 0.38629093627004979 0 0.72622533758026719 0.40265885511101601 0 0.77354604466818633 0.40378688774472771 0 0.73483647259922602 0.44789725365921768 0 0.72622533758026719 0.40265885511101601 0 0.71508799138962864 0.36622814920737751 0 0.74764719760526988 0.3719647154012321 0 0.72622533758026719 0.40265885511101601 0 0.77354604466818633 0.40378688774472771 0 0.72622533758026719 0.40265885511101601 0 0.74764719760526988 0.3719647154012321 0 0.71508799138962864 0.36622814920737751 0 0.73090396928863699 0.33699297293167962 0 0.74764719760526988 0.3719647154012321 0 0.71508799138962864 0.36622814920737751 0 0.68887083591306764 0.33632058575757479 0 0.73090396928863699 0.33699297293167962 0 0.71508799138962864 0.36622814920737751 0 0.68128176404677243 0.38629093627004979 0 0.68887083591306764 0.33632058575757479 0 0.69999999999999984 0.29999999999999999 0 0.73090396928863699 0.33699297293167962 0 0.68887083591306764 0.33632058575757479 0 0.69999999999999984 0.29999999999999999 0 0.72500000000000064 0.2498161764706 0 0.74999999999999989 0.29999999999999999 0 0.69999999999999984 0.29999999999999999 0 0.74999999999999989 0.29999999999999999 0 0.69999999999999984 0.29999999999999999 0 0.74999999999999989 0.29999999999999999 0 0.73090396928863699 0.33699297293167962 0 0.74999999999999989 0.29999999999999999 0 0.72500000000000064 0.2498161764706 0 0.77075983436335049 0.25919399014334171 0 0.69999999999999984 0.29999999999999999 0 0.67933712972090698 0.25920070958121938 0 0.72500000000000064 0.2498161764706 0 0.6499999999999998 0.29999999999999999 0 0.67933712972090698 0.25920070958121938 0 0.69999999999999984 0.29999999999999999 0 0.6499999999999998 0.29999999999999999 0 0.69999999999999984 0.29999999999999999 0 0.68887083591306764 0.33632058575757479 0 0.6499999999999998 0.29999999999999999 0 0.69999999999999984 0.29999999999999999 0 0.6499999999999998 0.29999999999999999 0 0.62657463266645097 0.26524202571255862 0 0.67933712972090698 0.25920070958121938 0 0.65394964615507722 0.22666784374016369 0 0.67933712972090698 0.25920070958121938 0 0.62657463266645097 0.26524202571255862 0 0.59999999999999976 0.29999999999999999 0 0.62657463266645097 0.26524202571255862 0 0.6499999999999998 0.29999999999999999 0 0.6499999999999998 0.29999999999999999 0 0.65481233915350323 0.35652751921065562 0 0.61959173890754571 0.33832250091341232 0 0.6084546825910605 0.37989672713932537 0 0.61959173890754571 0.33832250091341232 0 0.65481233915350323 0.35652751921065562 0 0.65481233915350323 0.35652751921065562 0 0.68887083591306764 0.33632058575757479 0 0.68128176404677243 0.38629093627004979 0 0.6499999999999998 0.29999999999999999 0 0.68887083591306764 0.33632058575757479 0 0.65481233915350323 0.35652751921065562 0 
</DataArray>
</Points>
<Cells>
<DataArray type="UInt32" Name="connectivity" format="ascii">
0 1 2 3 4 5 6 7 8 9 10 11 12 13 14 15 16 17 18 19 20 21 22 23 24 25 26 27 28 29 30 31 32 33 34 35 36 37 38 39 40 41 42 43 44 45 46 47 48 49 50 51 52 53 54 55 56 57 58 59 60 61 62 63 64 65 66 67 68 69 70 71 72 73 74 75 76 77 78 79 80 81 82 83 84 85 86 87 88 89 90 91 92 93 94 95 96 97 98 99 100 101 102 103 104 105 106 107 108 109 110 111 112 113 114 115 116 117 118 119 120 121 122 123 124 125 126 127 128 129 130 131 132 133 134 135 136 137 138 139 140 141 142 143 144 145 146 147 148 149 150 151 152 153 154 155 156 157 158 159 160 161 162 163 164 165 166 167 168 169 170 171 172 173 174 175 176 177 178 179 180 181 182 183 184 185 186 187 188 189 190 191 192 193 194 195 196 197 198 199 200 201 202 203 204 205 206 207 208 209 210 211 212 213 214 215 216 217 218 219 220 221 222 223 224 225 226 227 228 229 230 231 232 233 234 235 236 237 238 239 240 241 242 243 244 245 246 247 248 249 250 251 252 253 254 255 256 257 258 259 260 261 262 263 264 265 266 267 268 269 270 271 272 273 274 275 276 277 278 279 280 281 282 283 284 285 286 287 288 289 290 291 292 293 294 295 296 297 298 299 300 301 302 303 304 305 306 307 308 309 310 311 312 313 314 315 316 317 318 319 320 321 322 323 324 325 326 327 328 329 330 331 332 333 334 335 336 337 338 339 340 341 342 343 344 345 346 347 348 349 350 351 352 353 354 355 356 357 358 359 360 361 362 363 364 365 366 367 368 369 370 371 372 373 374 375 376 377 378 379 380 381 382 383 384 385 386 387 388 389 390 391 392 393 394 395 396 397 398 399 400 401 402 403 404 405 406 407 408 409 410 411 412 413 414 415 416 417 418 419 420 421 422 423 424 425 426 427 428 429 430 431 432 433 434 435 436 437 438 439 440 441 442 443 444 445 446 447 448 449 450 451 452 453 454 455 456 457 458 459 460 461 462 463 464 465 466 467 468 469 470 471 472 473 474 475 476 477 478 479 480 481 482 483 484 485 486 487 488 489 490 491 492 493 494 495 496 497 498 499 500 501 502 503 504 505 506 507 508 509 510 511 512 513 514 515 516 517 518 519 520 521 522 523 524 525 526 527 528 529 530 531 532 533 534 535 536 537 538 539 540 541 542 543 544 545 546 547 548 549 550 551 552 553 554 555 556 557 558 559 560 561 562 563 564 565 566 567 568 569 570 571 572 573 574 575 576 577 578 579 580 581 582 583 584 585 586 587 588 589 590 591 592 593 594 595 596 597 598 599 600 601 602 603 604 605 606 607 608 609 610 611 612 613 614 615 616 617 618 619 620 621 622 623 624 625 626 627 628 629 630 631 632 633 634 635 636 637 638 639 640 641 642 643 644 645 646 647 648 649 650 651 652 653 654 655 656 657 658 659 660 661 662 663 664 665 666 667 668 669 670 671 672 673 674 675 676 677 678 679 680 681 682 683 684 685 686 687 688 689 690 691 692 693 694 695 696 697 698 699 700 701 702 703 704 705 706 707 708 709 710 711 712 713 714 715 716 717 718 719 720 721 722 723 724 725 726 727 728 729 730 731 732 733 734 735 736 737 738 739 740 741 742 743 744 745 746 747 748 749 750 751 752 753 754 755 756 757 758 759 760 761 762 763 764 765 766 767 768 769 770 771 772 773 774 775 776 777 778 779 780 781 782 783 784 785 786 787 788 789 790 791 792 793 794 795 796 797 798 799 800 801 802 803 804 805 806 807 808 809 810 811 812 813 814 815 816 817 818 819 820 821 822 823 824 825 826 827 828 829 830 831 832 833 834 835 836 837 838 839 840 841 842 843 844 845 846 847 848 849 850 851 852 853 854 855 856 857 858 859 860 861 862 863 864 865 866 867 868 869 870 871 872 873 874 875 876 877 878 879 880 881 882 883 884 885 886 887 888 889 890 891 892 893 894 895 896 897 898 899 900 901 902 903 904 905 906 907 908 909 910 911 912 913 914 915 916 917 918 919 920 921 922 923 924 925 926 927 928 929 930 931 932 933 934 935 936 937 938 939 940 941 942 943 944 945 946 947 948 949 950 951 952 953 954 955 956 957 958 959 960 961 962 963 964 965 966 967 968 969 970 971 972 973 974 975 976 977 978 979 980 981 982 983 984 985 986 987 988 989 990 991 992 993 994 995 996 997 998 999 1000 1001 1002 1003 1004 1005 1006 1007 1008 1009 1010 1011 1012 1013 1014 1015 1016 1017 1018 1019 1020 1021 1022 1023 1024 1025 1026 1027 1028 1029 1030 1031 1032 1033 1034 1035 1036 1037 1038 1039 1040 1041 1042 1043 1044 1045 1046 1047 1048 1049 1050 1051 1052 1053 1054 1055 1056 1057 1058 1059 1060 1061 1062 1063 1064 1065 1066 1067 1068 1069 1070 1071 1072 1073 1074 1075 1076 1077 1078 1079 1080 1081 1082 1083 1084 1085 1086 1087 1088 1089 1090 1091 1092 1093 1094 1095 1096 1097 1098 1099 1100 1101 1102 1103 1104 1105 1106 1107 1108 1109 1110 1111 1112 1113 1114 1115 1116 1117 1118 1119 1120 1121 1122 1123 1124 1125 1126 1127 1128 1129 1130 1131 1132 1133 1134 1135 1136 1137 1138 1139 1140 1141 1142 1143 1144 1145 1146 1147 1148 1149 1150 1151 1152 1153 1154 1155 1156 1157 1158 1159 1160 1161 1162 1163 1164 1165 1166 1167 1168 1169 1170 1171 1172 1173 1174 1175 1176 1177 1178 1179 1180 1181 1182 1183 1184 1185 1186 1187 1188 1189 1190 1191 1192 1193 1194 1195 1196 1197 1198 1199 1200 1201 1202 1203 1204 1205 1206 1207 1208 1209 1210 1211 1212 1213 1214 1215 1216 1217 1218 1219 1220 1221 1222 1223 1224 1225 1226 1227 1228 1229 1230 1231 1232 1233 1234 1235 1236 1237 1238 1239 1240 1241 1242 1243 1244 1245 1246 1247 1248 1249 1250 1251 1252 1253 1254 1255 1256 1257 1258 1259 1260 1261 1262 1263 1264 1265 1266 1267 1268 1269 1270 1271 1272 1273 1274 1275 1276 1277 1278 1279 1280 1281 1282 1283 1284 1285 1286 1287 1288 1289 1290 1291 1292 1293 1294 1295 1296 1297 1298 1299 1300 1301 1302 1303 1304 1305 1306 1307 1308 1309 1310 1311 1312 1313 1314 1315 1316 1317 1318 1319 1320 1321 1322 1323 1324 1325 1326 1327 1328 1329 1330 1331 1332 1333 1334 1335 1336 1337 1338 1339 1340 1341 1342 1343 1344 1345 1346 1347 1348 1349 1350 1351 1352 1353 1354 1355 1356 1357 1358 1359 1360 1361 1362 1363 1364 1365 1366 1367 1368 1369 1370 1371 1372 1373 1374 1375 1376 1377 1378 1379 1380 1381 1382 1383 1384 1385 1386 1387 1388 1389 1390 1391 1392 1393 1394 1395 1396 1397 1398 1399 1400 1401 1402 1403 1404 1405 1406 1407 1408 1409 1410 1411 1412 1413 1414 1415 1416 1417 1418 1419 1420 1421 1422 1423 1424 1425 1426 1427 1428 1429 1430 1431 1432 1433 1434 1435 1436 1437 1438 1439 1440 1441 1442 1443 1444 1445 1446 1447 1448 1449 1450 1451 1452 1453 1454 1455 1456 1457 1458 1459 1460 1461 1462 1463 1464 1465 1466 1467 1468 1469 1470 1471 1472 1473 1474 1475 1476 1477 1478 1479 1480 1481 1482 1483 1484 1485 1486 1487 1488 1489 1490 1491 1492 1493 1494 1495 1496 1497 1498 1499 1500 1501 1502 1503 1504 1505 1506 1507 1508 1509 1510 1511 1512 1513 1514 1515 1516 1517 1518 1519 1520 1521 1522 1523 1524 1525 1526 1527 1528 1529 1530 1531 1532 1533 1534 1535 1536 1537 1538 1539 1540 1541 1542 1543 1544 1545 1546 1547 1548 1549 1550 1551 1552 1553 1554 1555 1556 1557 1558 1559 1560 1561 1562 1563 1564 1565 1566 1567 1568 1569 1570 1571 1572 1573 1574 1575 1576 1577 1578 1579 1580 1581 1582 1583 1584 1585 1586 1587 1588 1589 1590 1591 1592 1593 1594 1595 1596 1597 1598 1599 1600 1601 1602 1603 1604 1605 1606 1607 1608 1609 1610 1611 1612 1613 1614 1615 1616 1617 1618 1619 1620 1621 1622 1623 1624 1625 1626 1627 1628 1629 1630 1631 1632 1633 1634 1635 1636 1637 1638 1639 1640 1641 1642 1643 1644 1645 1646 1647 1648 1649 1650 1651 1652 1653 1654 1655 1656 1657 1658 1659 1660 1661 1662 1663 1664 1665 1666 1667 1668 1669 1670 1671 1672 1673 1674 1675 1676 1677 1678 1679 1680 1681 1682 1683 1684 1685 1686 1687 1688 1689 1690 1691 1692 1693 1694 1695 1696 1697 1698 1699 1700 1701 1702 1703 1704 1705 1706 1707 1708 1709 1710 1711 1712 1713 1714 1715 1716 1717 1718 1719 1720 1721 1722 1723 1724 1725 1726 1727 1728 1729 1730 1731 1732 1733 1734 1735 1736 1737 1738 1739 1740 1741 1742 1743 1744 1745 1746 1747 1748 1749 1750 1751 1752 1753 1754 1755 1756 1757 1758 1759 1760 1761 1762 1763 1764 1765 1766 1767 1768 1769 1770 1771 1772 1773 1774 1775 1776 1777 1778 1779 1780 1781 1782 1783 1784 1785 1786 1787 1788 1789 1790 1791 1792 1793 1794 1795 1796 1797 1798 1799 1800 1801 1802 1803 1804 1805 1806 1807 1808 1809 1810 1811 1812 1813 1814 1815 1816 1817 1818 1819 1820 1821 1822 1823 1824 1825 1826 1827 1828 1829 1830 1831 1832 1833 1834 1835 1836 1837 1838 1839 1840 1841 1842 1843 1844 1845 1846 1847 1848 1849 1850 1851 1852 1853 1854 1855 1856 1857 1858 1859 1860 1861 1862 1863 1864 1865 1866 1867 1868 1869 1870 1871 1872 1873 1874 1875 1876 1877 1878 1879 1880 1881 1882 1883 1884 1885 1886 1887 1888 1889 1890 1891 1892 1893 1894 1895 1896 1897 1898 1899 1900 1901 1902 1903 1904 1905 1906 1907 1908 1909 1910 1911 1912 1913 1914 1915 1916 1917 1918 1919 1920 1921 1922 1923 1924 1925 1926 1927 1928 1929 1930 1931 1932 1933 1934 1935 1936 1937 1938 1939 1940 1941 1942 1943 1944 1945 1946 1947 1948 1949 1950 1951 1952 1953 1954 1955 1956 1957 1958 1959 1960 1961 1962 1963 1964 1965 1966 1967 1968 1969 1970 1971 1972 1973 1974 1975 1976 1977 1978 1979 1980 1981 1982 1983 1984 1985 1986 1987 1988 1989 1990 1991 1992 1993 1994 1995 1996 1997 1998 1999 2000 2001 2002 2003 2004 2005 2006 2007 2008 2009 2010 2011 2012 2013 2014 2015 2016 2017 2018 2019 2020 2021 2022 2023 2024 2025 2026 2027 2028 2029 2030 2031 2032 2033 2034 2035 2036 2037 2038 2039 2040 2041 2042 2043 2044 2045 2046 2047 2048 2049 2050 2051 2052 2053 2054 2055 2056 2057 2058 2059 2060 2061 2062 2063 2064 2065 2066 2067 2068 2069 2070 2071 2072 2073 2074 2075 2076 2077 2078 2079 2080 2081 2082 2083 2084 2085 2086 2087 2088 2089 2090 2091 2092 2093 2094 2095 2096 2097 2098 2099 2100 2101 2102 2103 2104 2105 2106 2107 2108 2109 2110 2111 2112 2113 2114 2115 2116 2117 2118 2119 2120 2121 2122 2123 2124 2125 2126 2127 2128 2129 2130 2131 2132 2133 2134 2135 2136 2137 2138 2139 2140 2141 2142 2143 2144 2145 2146 2147 2148 2149 2150 2151 2152 2153 2154 2155 2156 2157 2158 2159 2160 2161 2162 2163 2164 2165 2166 2167 2168 2169 2170 2171 2172 2173 2174 2175 2176 2177 2178 2179 2180 2181 2182 2183 2184 2185 2186 2187 2188 2189 2190 2191 2192 2193 2194 2195 2196 2197 2198 2199 2200 2201 2202 2203 2204 2205 2206 2207 2208 2209 2210 2211 2212 2213 2214 2215 2216 2217 2218 2219 2220 2221 2222 2223 2224 2225 2226 2227 2228 2229 2230 2231 2232 2233 2234 2235 2236 2237 2238 2239 2240 2241 2242 2243 2244 2245 2246 2247 2248 2249 2250 2251 2252 2253 2254 2255 2256 2257 2258 2259 2260 2261 2262 2263 2264 2265 2266 2267 2268 2269 2270 2271 2272 2273 2274 2275 2276 2277 2278 2279 2280 2281 2282 2283 2284 2285 2286 2287 2288 2289 2290 2291 2292 2293 2294 2295 2296 2297 2298 2299 2300 2301 2302 2303 2304 2305 2306 2307 2308 2309 2310 2311 2312 2313 2314 2315 2316 2317 2318 2319 2320 2321 2322 2323 2324 2325 2326 2327 2328 2329 2330 2331 2332 2333 2334 2335 2336 2337 2338 2339 2340 2341 2342 2343 2344 2345 2346 2347 2348 2349 2350 2351 2352 2353 2354 2355 2356 2357 2358 2359 2360 2361 2362 2363 2364 2365 2366 2367 2368 2369 2370 2371 2372 2373 2374 2375 2376 2377 2378 2379 2380 2381 2382 2383 2384 2385 2386 2387 2388 2389 2390 2391 2392 2393 2394 2395 2396 2397 2398 2399 2400 2401 2402 2403 2404 2405 2406 2407 2408 2409 2410 2411 2412 2413 2414 2415 2416 2417 2418 2419 2420 2421 2422 2423 2424 2425 2426 2427 2428 2429 2430 2431 2432 2433 2434 2435 2436 2437 2438 2439 2440 2441 2442 2443 2444 2445 2446 2447 2448 2449 2450 2451 2452 2453 2454 2455 2456 2457 2458 2459 2460 2461 2462 2463 2464 2465 2466 2467 2468 2469 2470 2471 2472 2473 2474 2475 2476 2477 2478 2479 2480 2481 2482 2483 2484 2485 2486 2487 2488 2489 2490 2491 2492 2493 2494 2495 2496 2497 2498 2499 2500 2501 2502 2503 2504 2505 2506 2507 2508 2509 2510 2511 2512 2513 2514 2515 2516 2517 2518 2519 2520 2521 2522 2523 2524 2525 2526 2527 2528 2529 2530 2531 2532 2533 2534 2535 2536 2537 2538 2539 2540 2541 2542 2543 2544 2545 2546 2547 2548 2549 2550 2551 2552 2553 2554 2555 2556 2557 2558 2559 2560 2561 2562 2563 2564 2565 2566 2567 2568 2569 2570 2571 2572 2573 2574 2575 2576 2577 2578 2579 2580 2581 2582 2583 2584 2585 2586 2587 2588 2589 2590 2591 2592 2593 2594 2595 2596 2597 2598 2599 2600 2601 2602 2603 2604 2605 2606 2607 2608 2609 2610 2611 2612 2613 2614 2615 2616 2617 2618 2619 2620 2621 2622 2623 2624 2625 2626 2627 2628 2629 2630 2631 2632 2633 2634 2635 2636 2637 2638 2639 2640 2641 2642 2643 2644 2645 2646 2647 2648 2649 2650 2651 2652 2653 2654 2655 2656 2657 2658 2659 2660 2661 2662 2663 2664 2665 2666 2667 2668 2669 2670 2671 2672 2673 2674 2675 2676 2677 2678 2679 2680 2681 2682 2683 2684 2685 2686 2687 2688 2689 2690 2691 2692 2693 2694 2695 2696 2697 2698 2699 2700 2701 2702 2703 2704 2705 2706 2707 2708 2709 2710 2711 2712 2713 2714 2715 2716 2717 2718 2719 2720 2721 2722 2723 2724 2725 2726 2727 2728 2729 2730 2731 2732 2733 2734 2735 2736 2737 2738 2739 2740 2741 2742 2743 2744 2745 2746 2747 2748 2749 2750 2751 2752 2753 2754 2755 2756 2757 2758 2759 2760 2761 2762 2763 2764 2765 2766 2767 2768 2769 2770 2771 2772 2773 2774 2775 2776 2777 2778 2779 2780 2781 2782 2783 2784 2785 2786 2787 2788 2789 2790 2791 2792 2793 2794 2795 2796 2797 2798 2799 2800 2801 2802 2803 2804 2805 2806 2807 2808 2809 2810 2811 2812 2813 2814 2815 2816 2817 2818 2819 2820 2821 2822 2823 2824 2825 2826 2827 2828 2829 2830 2831 2832 2833 2834 2835 2836 2837 2838 2839 2840 2841 2842 2843 2844 2845 2846 2847 2848 2849 2850 2851 2852 2853 2854 2855 2856 2857 2858 2859 2860 2861 2862 2863 2864 2865 2866 2867 2868 2869 2870 2871 2872 2873 2874 2875 2876 2877 2878 2879 2880 2881 2882 2883 2884 2885 2886 2887 2888 2889 2890 2891 2892 2893 2894 2895 2896 2897 2898 2899 2900 2901 2902 2903 2904 2905 2906 2907 2908 2909 2910 2911 2912 2913 2914 2915 2916 2917 2918 2919 2920 2921 2922 2923 2924 2925 2926 2927 2928 2929 2930 2931 2932 2933 2934 2935 2936 2937 2938 2939 2940 2941 2942 2943 2944 2945 2946 2947 2948 2949 2950 2951 2952 2953 2954 2955 2956 2957 2958 2959 2960 2961 2962 2963 2964 2965 2966 2967 2968 2969 2970 2971 2972 2973 2974 2975 2976 2977 2978 2979 2980 2981 2982 2983 2984 2985 2986 2987 2988 2989 2990 2991 2992 2993 2994 2995 2996 2997 2998 2999 3000 3001 3002 3003 3004 3005 3006 3007 3008 3009 3010 3011 3012 3013 3014 3015 3016 3017 3018 3019 3020 3021 3022 3023 3024 3025 3026 3027 3028 3029 3030 3031 3032 3033 3034 3035 3036 3037 3038 3039 3040 3041 3042 3043 3044 3045 3046 3047 3048 3049 3050 3051 3052 3053 3054 3055 3056 3057 3058 3059 3060 3061 3062 3063 3064 3065 3066 3067 3068 3069 3070 3071 3072 3073 3074 3075 3076 3077 3078 3079 3080 3081 3082 3083 3084 3085 3086 3087 3088 3089 3090 3091 3092 3093 3094 3095 3096 3097 3098 3099 3100 3101 3102 3103 3104 3105 3106 3107 3108 3109 3110 3111 3112 3113 3114 3115 3116 3117 3118 3119 3120 3121 3122 3123 3124 3125 3126 3127 3128 3129 3130 3131 3132 3133 3134 3135 3136 3137 3138 3139 3140 3141 
</DataArray>
<DataArray type="UInt32" Name="offsets" format="ascii">
3 6 9 12 15 18 21 24 27 30 33 36 39 42 45 48 51 54 57 60 63 66 69 72 75 78 81 84 87 90 93 96 99 102 105 108 111 114 117 120 123 126 129 132 135 138 141 144 147 150 153 156 159 162 165 168 171 174 177 180 183 186 189 192 195 198 201 204 207 210 213 216 219 222 225 228 231 234 237 240 243 246 249 252 255 258 261 264 267 270 273 276 279 282 285 288 291 294 297 300 303 306 309 312 315 318 321 324 327 330 333 336 339 342 345 348 351 354 357 360 363 366 369 372 375 378 381 384 387 390 393 396 399 402 405 408 411 414 417 420 423 426 429 432 435 438 441 444 447 450 453 456 459 462 465 468 471 474 477 480 483 486 489 492 495 498 501 504 507 510 513 516 519 522 525 528 531 534 537 540 543 546 549 552 555 558 561 564 567 570 573 576 579 582 585 588 591 594 597 600 603 606 609 612 615 618 621 624 627 630 633 636 639 642 645 648 651 654 657 660 663 666 669 672 675 678 681 684 687 690 693 696 699 702 705 708 711 714 717 720 723 726 729 732 735 738 741 744 747 750 753 756 759 762 765 768 771 774 777 780 783 786 789 792 795 798 801 804 807 810 813 816 819 822 825 828 831 834 837 840 843 846 849 852 855 858 861 864 867 870 873 876 879 882 885 888 891 894 897 900 903 906 909 912 915 918 921 924 927 930 933 936 939 942 945 948 951 954 957 960 963 966 969 972 975 978 981 984 987 990 993 996 999 1002 1005 1008 1011 1014 1017 1020 1023 1026 1029 1032 1035 1038 1041 1044 1047 1050 1053 1056 1059 1062 1065 1068 1071 1074 1077 1080 1083 1086 1089 1092 1095 1098 1101 1104 1107 1110 1113 1116 1119 1122 1125 1128 1131 1134 1137 1140 1143 1146 1149 1152 1155 1158 1161 1164 1167 1170 1173 1176 1179 1182 1185 1188 1191 1194 1197 1200 1203 1206 1209 1212 1215 1218 1221 1224 1227 1230 1233 1236 1239 1242 1245 1248 1251 1254 1257 1260 1263 1266 1269 1272 1275 1278 1281 1284 1287 1290 1293 1296 1299 1302 1305 1308 1311 1314 1317 1320 1323 1326 1329 1332 1335 1338 1341 1344 1347 1350 1353 1356 1359 1362 1365 1368 1371 1374 1377 1380 1383 1386 1389 1392 1395 1398 1401 1404 1407 1410 1413 1416 1419 1422 1425 1428 1431 1434 1437 1440 1443 1446 1449 1452 1455 1458 1461 1464 1467 1470 1473 1476 1479 1482 1485 1488 1491 1494 1497 1500 1503 1506 1509 1512 1515 1518 1521 1524 1527 1530 1533 1536 1539 1542 1545 1548 1551 1554 1557 1560 1563 1566 1569 1572 1575 1578 1581 1584 1587 1590 1593 1596 1599 1602 1605 1608 1611 1614 1616 1619 1622 1624 1627 1630 1632 1635 1638 1641 1644 1647 1650 1653 1656 1659 1662 1665 1668 1671 1673 1676 1679 1682 1685 1688 1690 1693 1696 1699 1702 1705 1708 1711 1714 1717 1720 1723 1726 1729 1732 1735 1738 1741 1744 1747 1750 1753 1756 1759 1762 1765 1768 1771 1774 1777 1780 1783 1786 1789 1792 1795 1798 1801 1804 1807 1810 1813 1816 1819 1822 1825 1828 1831 1834 1837 1840 1843 1846 1849 1852 1855 1858 1861 1864 1867 1870 1873 1876 1879 1882 1885 1888 1891 1894 1897 1900 1903 1906 1909 1912 1915 1918 1921 1924 1927 1930 1933 1936 1939 1942 1945 1948 1951 1954 1957 1960 1963 1966 1969 1972 1975 1978 1981 1984 1987 1990 1993 1996 1999 2002 2005 2008 2011 2014 2017 2020 2023 2026 2029 2032 2035 2038 2041 2044 2047 2050 2053 2056 2059 2062 2065 2068 2071 2074 2077 2080 2083 2086 2089 2092 2095 2098 2101 2104 2107 2110 2113 2116 2119 2122 2125 2128 2131 2134 2137 2140 2143 2146 2149 2152 2155 2158 2161 2164 2167 2170 2173 2176 2179 2182 2185 2188 2191 2194 2196 2199 2202 2205 2207 2210 2213 2215 2218 2221 2224 2227 2230 2233 2236 2239 2242 2245 2248 2250 2253 2256 2259 2262 2264 2267 2270 2273 2276 2279 2282 2285 2288 2291 2294 2297 2300 2303 2306 2309 2312 2315 2318 2321 2324 2327 2330 2333 2336 2339 2342 2345 2348 2351 2354 2357 2360 2363 2366 2369 2372 2375 2378 2381 2384 2387 2390 2393 2396 2399 2402 2405 2408 2411 2414 2417 2420 2423 2426 2429 2432 2435 2438 2440 2443 2446 2449 2452 2455 2458 2461 2464 2467 2470 2473 2476 2479 2482 2484 2487 2490 2492 2495 2497 2500 2503 2506 2509 2512 2515 2518 2521 2524 2527 2530 2533 2536 2538 2541 2544 2547 2550 2553 2556 2559 2562 2565 2568 2571 2574 2577 2580 2583 2586 2589 2592 2595 2598 2601 2604 2607 2610 2613 2616 2619 2622 2625 2628 2631 2634 2637 2640 2643 2646 2649 2652 2655 2658 2661 2664 2667 2670 2673 2676 2679 2682 2685 2688 2691 2694 2697 2700 2703 2706 2709 2712 2715 2718 2721 2724 2727 2730 2733 2736 2739 2742 2745 2748 2751 2754 2757 2760 2763 2766 2769 2772 2775 2778 2781 2784 2787 2790 2793 2796 2799 2802 2805 2808 2811 2814 2817 2820 2823 2826 2829 2832 2835 2838 2841 2844 2847 2850 2853 2856 2859 2862 2865 2868 2871 2874 2877 2880 2883 2886 2889 2892 2895 2898 2901 2904 2907 2910 2913 2916 2919 2922 2925 2928 2931 2934 2937 2940 2943 2946 2948 2951 2954 2956 2959 2961 2964 2967 2970 2973 2976 2979 2982 2985 2988 2991 2994 2997 3000 3003 3006 3009 3012 3015 3018 3021 3024 3027 3030 3033 3036 3039 3042 3045 3048 3051 3054 3057 3060 3063 3066 3069 3072 3075 3078 3081 3084 3087 3090 3093 3096 3099 3102 3104 3107 3110 3113 3116 3119 3121 3124 3127 3130 3133 3136 3139 3142 
</DataArray>
<DataArray type="UInt32" Name="types" format="ascii">
5 5 5 5 5 5 5 5 5 5 5 5 5 5 5 5 5 5 5 5 5 5 5 5 5 5 5 5 5 5 5 5 5 5 5 5 5 5 5 5 5 5 5 5 5 5 5 5 5 5 5 5 5 5 5 5 5 5 5 5 5 5 5 5 5 5 5 5 5 5 5 5 5 5 5 5 5 5 5 5 5 5 5 5 5 5 5 5 5 5 5 5 5 5 5 5 5 5 5 5 5 5 5 5 5 5 5 5 5 5 5 5 5 5 5 5 5 5 5 5 5 5 5 5 5 5 5 5 5 5 5 5 5 5 5 5 5 5 5 5 5 5 5 5 5 5 5 5 5 5 5 5 5 5 5 5 5 5 5 5 5 5 5 5 5 5 5 5 5 5 5 5 5 5 5 5 5 5 5 5 5 5 5 5 5 5 5 5 5 5 5 5 5 5 5 5 5 5 5 5 5 5 5 5 5 5 5 5 5 5 5 5 5 5 5 5 5 5 5 5 5 5 5 5 5 5 5 5 5 5 5 5 5 5 5 5 5 5 5 5 5 5 5 5 5 5 5 5 5 5 5 5 5 5 5 5 5 5 5 5 5 5 5 5 5 5 5 5 5 5 5 5 5 5 5 5 5 5 5 5 5 5 5 5 5 5 5 5 5 5 5 5 5 5 5 5 5 5 5 5 5 5 5 5 5 5 5 5 5 5 5 5 5 5 5 5 5 5 5 5 5 5 5 5 5 5 5 5 5 5 5 5 5 5 5 5 5 5 5 5 5 5 5 5 5 5 5 5 5 5 5 5 5 5 5 5 5 5 5 5 5 5 5 5 5 5 5 5 5 5 5 5 5 5 5 5 5 5 5 5 5 5 5 5 5 5 5 5 5 5 5 5 5 5 5 5 5 5 5 5 5 5 5 5 5 5 5 5 5 5 5 5 5 5 5 5 5 5 5 5 5 5 5 5 5 5 5 5 5 5 5 5 5 5 5 5 5 5 5 5 5 5 5 5 5 5 5 5 5 5 5 5 5 5 5 5 5 5 5 5 5 5 5 5 5 5 5 5 5 5 5 5 5 5 5 5 5 5 5 5 5 5 5 5 5 5 5 5 5 5 5 5 5 5 5 5 5 5 5 5 5 5 5 5 5 5 5 5 5 5 5 5 5 5 5 5 5 5 5 5 5 5 5 5 5 5 5 5 5 5 5 5 5 5 5 5 5 5 3 5 5 3 5 5 3 5 5 5 5 5 5 5 5 5 5 5 5 5 3 5 5 5 5 5 3 5 5 5 5 5 5 5 5 5 5 5 5 5 5 5 5 5 5 5 5 5 5 5 5 5 5 5 5 5 5 5 5 5 5 5 5 5 5 5 5 5 5 5 5 5 5 5 5 5 5 5 5 5 5 5 5 5 5 5 5 5 5 5 5 5 5 5 5 5 5 5 5 5 5 5 5 5 5 5 5 5 5 5 5 5 5 5 5 5 5 5 5 5 5 5 5 5 5 5 5 5 5 5 5 5 5 5 5 5 5 5 5 5 5 5 5 5 5 5 5 5 5 5 5 5 5 5 5 5 5 5 5 5 5 5 5 5 5 5 5 5 5 5 5 5 5 5 5 5 5 5 5 5 5 5 5 5 5 5 5 5 5 5 5 5 5 5 5 3 5 5 5 3 5 5 3 5 5 5 5 5 5 5 5 5 5 5 3 5 5 5 5 3 5 5 5 5 5 5 5 5 5 5 5 5 5 5 5 5 5 5 5 5 5 5 5 5 5 5 5 5 5 5 5 5 5 5 5 5 5 5 5 5 5 5 5 5 5 5 5 5 5 5 5 5 5 5 5 5 5 5 3 5 5 5 5 5 5 5 5 5 5 5 5 5 5 3 5 5 3 5 3 5 5 5 5 5 5 5 5 5 5 5 5 5 3 5 5 5 5 5 5 5 5 5 5 5 5 5 5 5 5 5 5 5 5 5 5 5 5 5 5 5 5 5 5 5 5 5 5 5 5 5 5 5 5 5 5 5 5 5 5 5 5 5 5 5 5 5 5 5 5 5 5 5 5 5 5 5 5 5 5 5 5 5 5 5 5 5 5 5 5 5 5 5 5 5 5 5 5 5 5 5 5 5 5 5 5 5 5 5 5 5 5 5 5 5 5 5 5 5 5 5 5 5 5 5 5 5 5 5 5 5 5 5 5 5 5 5 5 5 5 5 5 5 5 5 5 5 5 5 5 3 5 5 3 5 3 5 5 5 5 5 5 5 5 5 5 5 5 5 5 5 5 5 5 5 5 5 5 5 5 5 5 5 5 5 5 5 5 5 5 5 5 5 5 5 5 5 5 5 5 5 5 5 3 5 5 5 5 5 3 5 5 5 5 5 5 5 
</DataArray>
</Cells>
<PointData Scalars="" Vectors="displacement," Tensors="">
<DataArray type="Float64" Name="displacement" NumberOfComponents="3" format="ascii">
-6.1816584585501109e-09 -2.6426398392867858e-09 0 -5.3007946116383327e-06 -2.8596803483695336e-06 0 -2.2161827535291763e-06 -9.441883096342418e-07 0 -6.1816584585501109e-09 -2.6426398392867858e-09 0 -2.2161827535291767e-06 -9.4418830963424201e-07 0 -3.270956340147408e-09 2.7123187700419533e-10 0 -5.3007946116383327e-06 -2.8596803483695336e-06 0 -4.3611199414939488e-06 -1.4675164469289655e-06 0 -2.2161827535291763e-06 -9.441883096342418e-07 0 -3.270956340147408e-09 2.7123187700419533e-10 0 -2.2161827535291763e-06 -9.441883096342418e-07 0 -4.3611199414939488e-06 -1.4675164469289655e-06 0 -3.6405841517504771e-09 -4.1296579410572419e-10 0 -3.270956340147408e-09 2.7123187700419533e-10 0 -3.039116241025592e-06 -4.5211696771341129e-07 0 -2.7196886132724596e-09 3.6563264145954471e-10 0 -3.6405841517504771e-09 -4.1296579410572419e-10 0 -3.039116241025592e-06 -4.5211696771341129e-07 0 -6.2245344148982361e-06 -1.3302273815303965e-06 0 -3.039116241025592e-06 -4.5211696771341129e-07 0 -4.3611199414939488e-06 -1.4675164469289655e-06 0 -3.270956340147408e-09 2.7123187700419533e-10 0 -4.3611199414939488e-06 -1.4675164469289655e-06 0 -3.039116241025592e-06 -4.5211696771341129e-07 0 -6.2245344148982361e-06 -1.3302273815303965e-06 0 -4.122122465073162e-06 -2.2476590070924363e-07 0 -3.039116241025592e-06 -4.5211696771341129e-07 0 -6.2245344148982361e-06 -1.3302273815303965e-06 0 -7.1820860512493518e-06 -1.0187654918118351e-06 0 -4.122122465073162e-06 -2.2476590070924363e-07 0 -6.2245344148982361e-06 -1.3302273815303965e-06 0 -9.4417055593055571e-06 -2.0809675693828899e-06 0 -7.1820860512493518e-06 -1.0187654918118351e-06 0 -9.4400406811474116e-06 -1.4428981116906993e-06 0 -7.1820860512493518e-06 -1.0187654918118351e-06 0 -9.4417055593055571e-06 -2.0809675693828894e-06 0 -1.2388639547930327e-05 -3.4970881430787989e-06 0 -9.4417055593055571e-06 -2.0809675693828894e-06 0 -8.9786552170808779e-06 -2.9437409522731374e-06 0 -6.2245344148982361e-06 -1.3302273815303965e-06 0 -8.9786552170808779e-06 -2.9437409522731374e-06 0 -9.4417055593055571e-06 -2.0809675693828894e-06 0 -9.9958516201359019e-06 -4.2207061855329269e-06 0 -1.4764823400876763e-05 -5.4829254742912111e-06 0 -8.9786552170808779e-06 -2.9437409522731374e-06 0 -5.3007946116383327e-06 -2.8596803483695336e-06 0 -9.9958516201359019e-06 -4.2207061855329269e-06 0 -4.3611199414939488e-06 -1.4675164469289655e-06 0 -9.9958516201359019e-06 -4.2207061855329269e-06 0 -8.9786552170808779e-06 -2.9437409522731374e-06 0 -4.3611199414939488e-06 -1.4675164469289655e-06 0 -6.2245344148982361e-06 -1.3302273815303965e-06 0 -4.3611199414939488e-06 -1.4675164469289655e-06 0 -8.9786552170808779e-06 -2.9437409522731374e-06 0 -2.1680975435414462e-09 2.9249960650587628e-10 0 -2.5859720143300572e-09 1.0371480336728915e-10 0 -2.1050930459908007e-06 3.6354828225788502e-07 0 -2.5859720143300572e-09 1.0371480336728915e-10 0 -2.1045575064339226e-06 1.5210128126842022e-07 0 -2.1050930459908007e-06 3.6354828225788502e-07 0 -4.4595428994858608e-06 1.257632486616752e-07 0 -2.1050930459908007e-06 3.6354828225788502e-07 0 -2.1045575064339226e-06 1.5210128126842022e-07 0 -2.7196886132724596e-09 3.6563264145954471e-10 0 -4.122122465073162e-06 -2.2476590070924363e-07 0 -2.1045575064339226e-06 1.5210128126842022e-07 0 -2.7196886132724596e-09 3.6563264145954471e-10 0 -3.039116241025592e-06 -4.5211696771341129e-07 0 -4.122122465073162e-06 -2.2476590070924363e-07 0 -4.4595428994858608e-06 1.257632486616752e-07 0 -2.1045575064339226e-06 1.5210128126842022e-07 0 -4.122122465073162e-06 -2.2476590070924363e-07 0 -2.5859720143300572e-09 1.0371480336728915e-10 0 -2.7196886132724596e-09 3.6563264145954471e-10 0 -2.1045575064339226e-06 1.5210128126842022e-07 0 -4.122122465073162e-06 -2.2476590070924363e-07 0 -7.1820860512493527e-06 -1.0187654918118353e-06 0 -6.5035905159301882e-06 -4.9687646364177211e-07 0 -9.4400406811474116e-06 -1.4428981116906993e-06 0 -6.5035905159301882e-06 -4.9687646364177211e-07 0 -7.1820860512493518e-06 -1.0187654918118351e-06 0 -4.4595428994858608e-06 1.257632486616752e-07 0 -4.122122465073162e-06 -2.2476590070924363e-07 0 -6.5035905159301882e-06 -4.9687646364177211e-07 0 -4.4595428994858608e-06 1.257632486616752e-07 0 -7.4104231676607324e-06 -4.4683162234117968e-07 0 -4.3604813932543934e-06 3.9379583422911698e-07 0 -4.4595428994858608e-06 1.257632486616752e-07 0 -6.5035905159301882e-06 -4.9687646364177211e-07 0 -7.4104231676607324e-06 -4.4683162234117968e-07 0 -4.4595428994858608e-06 1.257632486616752e-07 0 -4.3604813932543934e-06 3.9379583422911698e-07 0 -2.1050930459908007e-06 3.6354828225788502e-07 0 -2.0216772662948013e-06 5.2272008952498045e-07 0 -2.1050930459908007e-06 3.6354828225788502e-07 0 -4.3604813932543934e-06 3.9379583422911698e-07 0 -7.4104231676607324e-06 -4.4683162234117968e-07 0 -6.7791155443490365e-06 -1.3944626673287022e-07 0 -4.3604813932543934e-06 3.9379583422911698e-07 0 -8.7945683011560774e-06 -8.3793804415639722e-07 0 -6.7791155443490365e-06 -1.3944626673287011e-07 0 -7.4104231676607324e-06 -4.4683162234117968e-07 0 -8.7945683011560774e-06 -8.3793804415639722e-07 0 -7.4104231676607324e-06 -4.4683162234117968e-07 0 -1.0505391497744053e-05 -1.5646861996552389e-06 0 -9.4400406811474116e-06 -1.4428981116906993e-06 0 -1.2649469369275887e-05 -2.5874392471375304e-06 0 -1.0505391497744053e-05 -1.5646861996552389e-06 0 -9.4400406811474116e-06 -1.4428981116906993e-06 0 -7.4104231676607315e-06 -4.4683162234117962e-07 0 -6.5035905159301882e-06 -4.9687646364177211e-07 0 -9.4400406811474116e-06 -1.4428981116906993e-06 0 -1.0505391497744053e-05 -1.5646861996552389e-06 0 -7.4104231676607324e-06 -4.4683162234117968e-07 0 -9.4400406811474116e-06 -1.4428981116906993e-06 0 -1.2216118927063282e-05 -2.7851678228361812e-06 0 -1.2649469369275887e-05 -2.5874392471375299e-06 0 -1.3136169610154573e-05 -2.7476027186975351e-06 0 -1.2649469369275887e-05 -2.5874392471375299e-06 0 -1.63960699367981e-05 -4.2098864462433461e-06 0 -1.3136169610154573e-05 -2.7476027186975351e-06 0 -1.63960699367981e-05 -4.2098864462433461e-06 0 -1.6650722295116026e-05 -4.5452839973777434e-06 0 -1.3136169610154573e-05 -2.7476027186975351e-06 0 -1.6650722295116026e-05 -4.5452839973777434e-06 0 -1.5265441463394128e-05 -4.1464553682243764e-06 0 -1.3136169610154573e-05 -2.7476027186975351e-06 0 -1.0505391497744053e-05 -1.5646861996552389e-06 0 -1.2649469369275887e-05 -2.5874392471375299e-06 0 -8.7945683011560774e-06 -8.3793804415639722e-07 0 -1.0505391497744053e-05 -1.5646861996552389e-06 0 -1.1664073389969905e-05 -2.172556379360047e-06 0 -1.3136169610154573e-05 -2.7476027186975351e-06 0 -1.1664073389969905e-05 -2.172556379360047e-06 0 -1.0505391497744053e-05 -1.5646861996552389e-06 0 -1.3136169610154573e-05 -2.7476027186975351e-06 0 -1.5265441463394128e-05 -4.1464553682243764e-06 0 -1.1664073389969905e-05 -2.172556379360047e-06 0 -1.153826091168149e-05 -2.4980503680090334e-06 0 -9.2151526232731258e-06 -1.1086291833178965e-06 0 -1.1664073389969905e-05 -2.172556379360047e-06 0 -8.7945683011560774e-06 -8.3793804415639722e-07 0 -1.1664073389969905e-05 -2.172556379360047e-06 0 -9.2151526232731258e-06 -1.1086291833178965e-06 0 -1.4764823400876763e-05 -5.4829254742912111e-06 0 -1.6748047361116879e-05 -5.2382634889198371e-06 0 -1.2388639547930327e-05 -3.4970881430787989e-06 0 -1.6068032599498207e-05 -4.2928930128908174e-06 0 -1.2388639547930325e-05 -3.4970881430787984e-06 0 -1.6748047361116879e-05 -5.238263488919838e-06 0 -1.4764823400876763e-05 -5.4829254742912111e-06 0 -1.9822064464405471e-05 -6.9946594616717602e-06 0 -1.6748047361116879e-05 -5.238263488919838e-06 0 -1.4764823400876763e-05 -5.4829254742912111e-06 0 -1.2388639547930328e-05 -3.4970881430787989e-06 0 -8.9786552170808779e-06 -2.9437409522731374e-06 0 -1.2388639547930327e-05 -3.4970881430787989e-06 0 -1.2216118927063282e-05 -2.7851678228361812e-06 0 -9.4417055593055571e-06 -2.0809675693828894e-06 0 -9.4400406811474116e-06 -1.4428981116906993e-06 0 -9.4417055593055571e-06 -2.0809675693828894e-06 0 -1.2216118927063282e-05 -2.7851678228361812e-06 0 -1.6068032599498207e-05 -4.2928930128908174e-06 0 -1.2649469369275887e-05 -2.5874392471375299e-06 0 -1.2216118927063282e-05 -2.7851678228361812e-06 0 -1.6068032599498207e-05 -4.2928930128908174e-06 0 -1.2216118927063282e-05 -2.7851678228361812e-06 0 -1.2388639547930327e-05 -3.4970881430787989e-06 0 -1.6068032599498207e-05 -4.2928930128908174e-06 0 -1.63960699367981e-05 -4.2098864462433461e-06 0 -1.2649469369275887e-05 -2.5874392471375299e-06 0 -1.6068032599498207e-05 -4.2928930128908174e-06 0 -1.9588304108321532e-05 -5.7484517709758559e-06 0 -1.63960699367981e-05 -4.2098864462433461e-06 0 -2.0505458914164551e-05 -6.3603897732012713e-06 0 -1.63960699367981e-05 -4.2098864462433461e-06 0 -1.9588304108321532e-05 -5.7484517709758559e-06 0 -1.6068032599498207e-05 -4.2928930128908174e-06 0 -2.0441586781348262e-05 -6.4315300017994679e-06 0 -1.9588304108321532e-05 -5.7484517709758559e-06 0 -2.4290445193513395e-05 -8.0646751133590707e-06 0 -1.9588304108321532e-05 -5.7484517709758559e-06 0 -2.0441586781348262e-05 -6.4315300017994679e-06 0 -1.6068032599498207e-05 -4.2928930128908174e-06 0 -1.6748047361116879e-05 -5.238263488919838e-06 0 -2.0441586781348262e-05 -6.4315300017994679e-06 0 -1.9822064464405471e-05 -6.9946594616717602e-06 0 -2.0441586781348262e-05 -6.4315300017994679e-06 0 -1.6748047361116879e-05 -5.238263488919838e-06 0 -1.9822064464405471e-05 -6.9946594616717602e-06 0 -2.5166814375656492e-05 -8.9612944308306272e-06 0 -2.0441586781348262e-05 -6.4315300017994679e-06 0 -2.5166814375656492e-05 -8.9612944308306272e-06 0 -3.0676305910566087e-05 -1.1555897316993397e-05 0 -2.4290445193513395e-05 -8.0646751133590707e-06 0 -2.5166814375656492e-05 -8.9612944308306272e-06 0 -2.4290445193513395e-05 -8.0646751133590707e-06 0 -2.0441586781348262e-05 -6.4315300017994679e-06 0 -3.0676305910566087e-05 -1.1555897316993397e-05 0 -3.0277598830877953e-05 -1.1418955325457127e-05 0 -2.4290445193513395e-05 -8.0646751133590707e-06 0 -3.0676305910566087e-05 -1.1555897316993397e-05 0 -3.6643002449942587e-05 -1.4992879930153675e-05 0 -3.0277598830877953e-05 -1.1418955325457127e-05 0 -2.9617133500596582e-05 -1.2132790107503981e-05 0 -3.0277598830877953e-05 -1.1418955325457127e-05 0 -3.4940226817995031e-05 -1.4540047594091977e-05 0 -2.9617133500596582e-05 -1.2132790107503981e-05 0 -3.4940226817995031e-05 -1.4540047594091977e-05 0 -3.6416258009210491e-05 -1.6960296673148566e-05 0 -3.6643002449942587e-05 -1.4992879930153675e-05 0 -3.4940226817995031e-05 -1.4540047594091977e-05 0 -3.0277598830877953e-05 -1.1418955325457127e-05 0 -3.6643002449942587e-05 -1.4992879930153675e-05 0 -4.2946402705195137e-05 -1.9481111083149574e-05 0 -3.4940226817995031e-05 -1.4540047594091977e-05 0 -2.9617133500596582e-05 -1.2132790107503981e-05 0 -3.0869011937098207e-05 -1.5315185304215269e-05 0 -2.541247224429939e-05 -1.1236812080682512e-05 0 -2.9617133500596582e-05 -1.2132790107503981e-05 0 -2.541247224429939e-05 -1.1236812080682512e-05 0 -2.3913660768731509e-05 -8.8663543082060477e-06 0 -2.9617133500596582e-05 -1.2132790107503981e-05 0 -2.5702154243292091e-05 -9.1771714580132438e-06 0 -3.0277598830877953e-05 -1.1418955325457127e-05 0 -2.9617133500596582e-05 -1.2132790107503981e-05 0 -2.3913660768731509e-05 -8.8663543082060477e-06 0 -2.5702154243292091e-05 -9.1771714580132438e-06 0 -2.0505458914164551e-05 -6.3603897732012713e-06 0 -2.5702154243292095e-05 -9.1771714580132438e-06 0 -2.3913660768731509e-05 -8.8663543082060477e-06 0 -2.4290445193513395e-05 -8.0646751133590707e-06 0 -3.0277598830877953e-05 -1.1418955325457127e-05 0 -2.5702154243292091e-05 -9.1771714580132438e-06 0 -2.5702154243292091e-05 -9.1771714580132438e-06 0 -2.0505458914164551e-05 -6.3603897732012713e-06 0 -2.4290445193513395e-05 -8.0646751133590707e-06 0 -2.4290445193513395e-05 -8.0646751133590707e-06 0 -2.0505458914164551e-05 -6.3603897732012713e-06 0 -1.9588304108321532e-05 -5.7484517709758559e-06 0 -2.0505458914164551e-05 -6.3603897732012713e-06 0 -1.6650722295116026e-05 -4.5452839973777434e-06 0 -1.63960699367981e-05 -4.2098864462433461e-06 0 -2.0505458914164551e-05 -6.3603897732012713e-06 0 -1.9178675310886663e-05 -6.2802895396656392e-06 0 -1.6650722295116026e-05 -4.5452839973777434e-06 0 -1.5265441463394128e-05 -4.1464553682243764e-06 0 -1.6650722295116026e-05 -4.5452839973777426e-06 0 -1.9178675310886663e-05 -6.2802895396656392e-06 0 -2.139076277657275e-05 -8.3661075245806131e-06 0 -1.7785817481322415e-05 -6.3950529651752134e-06 0 -1.9178675310886663e-05 -6.2802895396656392e-06 0 -1.5265441463394128e-05 -4.1464553682243764e-06 0 -1.9178675310886663e-05 -6.2802895396656392e-06 0 -1.7785817481322415e-05 -6.3950529651752134e-06 0 -2.0505458914164551e-05 -6.3603897732012713e-06 0 -2.3913660768731509e-05 -8.8663543082060477e-06 0 -1.9178675310886663e-05 -6.2802895396656392e-06 0 -1.4220749596146525e-05 -4.0967650197797918e-06 0 -1.153826091168149e-05 -2.4980503680090334e-06 0 -1.1664073389969905e-05 -2.172556379360047e-06 0 -1.5265441463394128e-05 -4.1464553682243764e-06 0 -1.4220749596146525e-05 -4.0967650197797918e-06 0 -1.1664073389969905e-05 -2.172556379360047e-06 0 -1.5265441463394128e-05 -4.1464553682243764e-06 0 -1.7785817481322415e-05 -6.3950529651752134e-06 0 -1.4220749596146525e-05 -4.0967650197797918e-06 0 -1.6589435784042488e-05 -6.9060669161852034e-06 0 -1.2780955829341655e-05 -3.7729292181816791e-06 0 -1.4220749596146525e-05 -4.0967650197797918e-06 0 -1.6589435784042488e-05 -6.9060669161852034e-06 0 -1.4220749596146525e-05 -4.0967650197797918e-06 0 -1.7785817481322415e-05 -6.3950529651752134e-06 0 -1.6589435784042488e-05 -6.9060669161852034e-06 0 -1.7785817481322415e-05 -6.3950529651752134e-06 0 -2.107657769517266e-05 -9.5052620459931874e-06 0 -1.6589435784042488e-05 -6.9060669161852034e-06 0 -2.107657769517266e-05 -9.5052620459931874e-06 0 -2.0275181250572539e-05 -1.1030065893286852e-05 0 -1.6589435784042488e-05 -6.9060669161852034e-06 0 -2.0275181250572539e-05 -1.1030065893286852e-05 0 -1.6601609944996826e-05 -8.8228014940147555e-06 0 -2.139076277657275e-05 -8.3661075245806131e-06 0 -1.9178675310886663e-05 -6.2802895396656392e-06 0 -2.3913660768731509e-05 -8.8663543082060477e-06 0 -2.139076277657275e-05 -8.3661075245806131e-06 0 -2.3913660768731509e-05 -8.866354308206046e-06 0 -2.541247224429939e-05 -1.1236812080682512e-05 0 -2.139076277657275e-05 -8.3661075245806131e-06 0 -2.107657769517266e-05 -9.5052620459931874e-06 0 -1.7785817481322415e-05 -6.3950529651752134e-06 0 -2.5347353274894228e-05 -1.3514317526256434e-05 0 -2.107657769517266e-05 -9.5052620459931874e-06 0 -2.541247224429939e-05 -1.1236812080682512e-05 0 -2.139076277657275e-05 -8.3661075245806131e-06 0 -2.541247224429939e-05 -1.1236812080682512e-05 0 -2.107657769517266e-05 -9.5052620459931874e-06 0 -2.5347353274894228e-05 -1.3514317526256434e-05 0 -2.541247224429939e-05 -1.1236812080682512e-05 0 -3.0869011937098207e-05 -1.5315185304215269e-05 0 -2.5347353274894228e-05 -1.3514317526256434e-05 0 -3.103312666247406e-05 -1.9337781270965234e-05 0 -2.3979069830537347e-05 -1.5521318790643957e-05 0 -2.5347353274894228e-05 -1.3514317526256434e-05 0 -3.0869011937098207e-05 -1.5315185304215265e-05 0 -3.103312666247406e-05 -1.9337781270965234e-05 0 -1.9466660176544304e-05 -1.3059207078753238e-05 0 -1.6601609944996826e-05 -8.8228014940147555e-06 0 -2.0275181250572539e-05 -1.1030065893286852e-05 0 -2.5347353274894228e-05 -1.3514317526256434e-05 0 -2.0275181250572539e-05 -1.1030065893286852e-05 0 -2.107657769517266e-05 -9.5052620459931874e-06 0 -2.5347353274894228e-05 -1.3514317526256434e-05 0 -2.3979069830537347e-05 -1.5521318790643957e-05 0 -2.0275181250572539e-05 -1.1030065893286852e-05 0 -1.9466660176544304e-05 -1.3059207078753238e-05 0 -2.0275181250572539e-05 -1.1030065893286852e-05 0 -2.3979069830537347e-05 -1.5521318790643957e-05 0 -1.9466660176544304e-05 -1.3059207078753238e-05 0 -2.3979069830537347e-05 -1.5521318790643957e-05 0 -2.2970250990904999e-05 -1.8426232758320992e-05 0 -2.7844091265036239e-05 -2.1707234874221547e-05 0 -2.2970250990904996e-05 -1.8426232758320992e-05 0 -2.3979069830537347e-05 -1.5521318790643957e-05 0 -2.7844091265036239e-05 -2.1707234874221547e-05 0 -3.2655417724891676e-05 -2.9860218740338677e-05 0 -2.7465660534507833e-05 -2.6316981925158188e-05 0 -2.7844091265036239e-05 -2.1707234874221547e-05 0 -2.7465660534507833e-05 -2.6316981925158188e-05 0 -2.2970250990904999e-05 -1.8426232758320992e-05 0 -2.2227628434545212e-05 -2.1912552247206951e-05 0 -2.2970250990904999e-05 -1.8426232758320992e-05 0 -2.7465660534507833e-05 -2.6316981925158188e-05 0 -2.7844091265036239e-05 -2.1707234874221547e-05 0 -3.103312666247406e-05 -1.9337781270965234e-05 0 -3.3906877461601863e-05 -2.5312115835050235e-05 0 -2.7844091265036239e-05 -2.1707234874221547e-05 0 -2.3979069830537347e-05 -1.5521318790643957e-05 0 -3.103312666247406e-05 -1.9337781270965234e-05 0 -2.7844091265036239e-05 -2.1707234874221547e-05 0 -3.3906877461601863e-05 -2.5312115835050235e-05 0 -3.2655417724891676e-05 -2.9860218740338677e-05 0 -3.103312666247406e-05 -1.9337781270965234e-05 0 -3.9645043218149082e-05 -2.6117518592864677e-05 0 -3.3906877461601863e-05 -2.5312115835050235e-05 0 -3.8569730028478027e-05 -3.0467082422525952e-05 0 -3.3906877461601863e-05 -2.5312115835050235e-05 0 -3.9645043218149082e-05 -2.6117518592864677e-05 0 -3.7671546010561585e-05 -2.0747450735166594e-05 0 -3.9645043218149082e-05 -2.6117518592864677e-05 0 -3.103312666247406e-05 -1.9337781270965234e-05 0 -3.7671546010561585e-05 -2.0747450735166594e-05 0 -4.5592431886950865e-05 -2.6596219872679899e-05 0 -3.9645043218149082e-05 -2.6117518592864677e-05 0 -4.853679090140952e-05 -3.4913239896639692e-05 0 -3.9645043218149082e-05 -2.6117518592864677e-05 0 -4.5592431886950865e-05 -2.6596219872679899e-05 0 -5.5708045565357899e-05 -3.3029431324910811e-05 0 -4.853679090140952e-05 -3.4913239896639692e-05 0 -4.5592431886950865e-05 -2.6596219872679899e-05 0 -4.9396494216840588e-05 -2.5491673957429602e-05 0 -5.5708045565357899e-05 -3.3029431324910811e-05 0 -4.5592431886950865e-05 -2.6596219872679899e-05 0 -4.9396494216840588e-05 -2.5491673957429602e-05 0 -4.5592431886950865e-05 -2.6596219872679899e-05 0 -4.241754065059791e-05 -2.1699385668433689e-05 0 -3.7671546010561585e-05 -2.0747450735166594e-05 0 -4.241754065059791e-05 -2.1699385668433689e-05 0 -4.5592431886950865e-05 -2.6596219872679899e-05 0 -4.2946402705195137e-05 -1.9481111083149574e-05 0 -4.241754065059791e-05 -2.1699385668433689e-05 0 -3.6416258009210491e-05 -1.6960296673148566e-05 0 -3.7671546010561585e-05 -2.0747450735166594e-05 0 -3.6416258009210491e-05 -1.6960296673148566e-05 0 -4.241754065059791e-05 -2.1699385668433689e-05 0 -4.2946402705195137e-05 -1.9481111083149574e-05 0 -4.9396494216840588e-05 -2.5491673957429602e-05 0 -4.241754065059791e-05 -2.1699385668433689e-05 0 -4.2946402705195137e-05 -1.9481111083149574e-05 0 -3.6416258009210485e-05 -1.6960296673148562e-05 0 -3.4940226817995031e-05 -1.4540047594091977e-05 0 -2.9617133500596582e-05 -1.2132790107503981e-05 0 -3.6416258009210491e-05 -1.6960296673148566e-05 0 -3.0869011937098207e-05 -1.5315185304215269e-05 0 -3.7671546010561585e-05 -2.0747450735166594e-05 0 -3.103312666247406e-05 -1.9337781270965234e-05 0 -3.0869011937098207e-05 -1.5315185304215269e-05 0 -3.7671546010561585e-05 -2.0747450735166594e-05 0 -3.0869011937098207e-05 -1.5315185304215269e-05 0 -3.6416258009210491e-05 -1.6960296673148566e-05 0 -1.5927329220447072e-05 -3.3563037406537175e-06 0 -1.3276174221833471e-05 -2.666824382025423e-06 0 -1.5974296659981529e-05 -5.8629447554250446e-06 0 -1.3696806325480967e-05 -4.513600635055563e-06 0 -1.5974296659981529e-05 -5.8629447554250446e-06 0 -1.3276174221833471e-05 -2.666824382025423e-06 0 -1.3696806325480967e-05 -4.513600635055563e-06 0 -1.5372962525826178e-05 -7.470081251212256e-06 0 -1.5974296659981529e-05 -5.8629447554250446e-06 0 -1.5927329220447072e-05 -3.3563037406537175e-06 0 -1.2337911313784879e-05 3.0239688211082805e-08 0 -1.3276174221833471e-05 -2.666824382025423e-06 0 -1.0352458015219098e-05 3.188695368358883e-06 0 -1.2337911313784879e-05 3.0239688211082805e-08 0 -1.4454758935682708e-05 6.7999420923247625e-07 0 -1.5927329220447072e-05 -3.3563037406537175e-06 0 -1.4454758935682708e-05 6.7999420923247625e-07 0 -1.2337911313784879e-05 3.0239688211082805e-08 0 -1.5927329220447072e-05 -3.3563037406537175e-06 0 -1.722810585731738e-05 -2.7230290020825649e-06 0 -1.4454758935682708e-05 6.7999420923247625e-07 0 -1.5927329220447072e-05 -3.3563037406537175e-06 0 -1.9957269876782992e-05 -5.840415431291009e-06 0 -1.722810585731738e-05 -2.7230290020825649e-06 0 -1.8567895023537272e-05 -2.5862031315776586e-06 0 -1.4454758935682708e-05 6.7999420923247625e-07 0 -1.722810585731738e-05 -2.7230290020825649e-06 0 -1.8567895023537272e-05 -2.5862031315776586e-06 0 -1.722810585731738e-05 -2.7230290020825645e-06 0 -1.9957269876782995e-05 -5.8404154312910098e-06 0 -2.3454155674693344e-05 -1.0232873390284943e-05 0 -1.9957269876782995e-05 -5.8404154312910098e-06 0 -1.9165906540234699e-05 -7.8516666511952995e-06 0 -1.5927329220447072e-05 -3.3563037406537175e-06 0 -1.9165906540234699e-05 -7.8516666511952995e-06 0 -1.9957269876782995e-05 -5.8404154312910098e-06 0 -1.5927329220447072e-05 -3.3563037406537175e-06 0 -1.5974296659981529e-05 -5.8629447554250446e-06 0 -1.9165906540234699e-05 -7.8516666511952995e-06 0 -1.7575465801716243e-05 -9.4238804758907484e-06 0 -1.9165906540234699e-05 -7.8516666511952995e-06 0 -1.5974296659981529e-05 -5.8629447554250446e-06 0 -2.3454155674693344e-05 -1.0232873390284943e-05 0 -1.9165906540234699e-05 -7.8516666511952995e-06 0 -2.1445640437684624e-05 -1.220750286101181e-05 0 -1.8913013196506527e-05 -1.8092421659581873e-05 0 -2.1445640437684624e-05 -1.220750286101181e-05 0 -1.8223097633705796e-05 -1.3479553295096196e-05 0 -1.7575465801716243e-05 -9.4238804758907484e-06 0 -1.8223097633705796e-05 -1.3479553295096196e-05 0 -2.1445640437684624e-05 -1.220750286101181e-05 0 -1.7575465801716243e-05 -9.4238804758907484e-06 0 -1.6631759133558634e-05 -1.0559127064328577e-05 0 -1.8223097633705796e-05 -1.3479553295096196e-05 0 -1.7575465801716243e-05 -9.4238804758907484e-06 0 -2.1445640437684624e-05 -1.220750286101181e-05 0 -1.9165906540234699e-05 -7.8516666511952995e-06 0 -1.8913013196506527e-05 -1.8092421659581873e-05 0 -1.8987458194414196e-05 -1.5467980529293643e-05 0 -2.2227628434545212e-05 -2.1912552247206951e-05 0 -2.2227628434545212e-05 -2.1912552247206951e-05 0 -1.8987458194414196e-05 -1.5467980529293643e-05 0 -2.2970250990904999e-05 -1.8426232758320992e-05 0 -1.8913013196506527e-05 -1.8092421659581873e-05 0 -1.8223097633705796e-05 -1.3479553295096196e-05 0 -1.8987458194414196e-05 -1.5467980529293643e-05 0 -1.6631759133558634e-05 -1.0559127064328577e-05 0 -1.8987458194414196e-05 -1.5467980529293643e-05 0 -1.8223097633705796e-05 -1.3479553295096196e-05 0 -1.9466660176544304e-05 -1.3059207078753238e-05 0 -2.2970250990904999e-05 -1.8426232758320992e-05 0 -1.8987458194414196e-05 -1.5467980529293643e-05 0 -1.9466660176544304e-05 -1.3059207078753238e-05 0 -1.89874581944142e-05 -1.5467980529293643e-05 0 -1.6631759133558634e-05 -1.0559127064328577e-05 0 -1.9466660176544304e-05 -1.3059207078753238e-05 0 -1.6631759133558634e-05 -1.0559127064328577e-05 0 -1.6601609944996826e-05 -8.8228014940147555e-06 0 -1.4282213967857004e-05 -6.5752774487858008e-06 0 -1.6601609944996826e-05 -8.8228014940147555e-06 0 -1.6631759133558634e-05 -1.0559127064328577e-05 0 -1.7575465801716243e-05 -9.4238804758907484e-06 0 -1.5974296659981529e-05 -5.8629447554250446e-06 0 -1.5372962525826178e-05 -7.470081251212256e-06 0 -1.7575465801716243e-05 -9.4238804758907484e-06 0 -1.5372962525826178e-05 -7.470081251212256e-06 0 -1.6631759133558634e-05 -1.0559127064328577e-05 0 -1.4282213967857004e-05 -6.5752774487858008e-06 0 -1.6631759133558634e-05 -1.0559127064328577e-05 0 -1.5372962525826178e-05 -7.470081251212256e-06 0 -1.5372962525826178e-05 -7.470081251212256e-06 0 -1.1622246675794062e-05 -3.1153075475976978e-06 0 -1.4282213967857004e-05 -6.5752774487858008e-06 0 -1.3696806325480967e-05 -4.513600635055563e-06 0 -1.1622246675794062e-05 -3.1153075475976978e-06 0 -1.5372962525826178e-05 -7.470081251212256e-06 0 -1.4282213967857004e-05 -6.5752774487858008e-06 0 -1.1622246675794061e-05 -3.1153075475976974e-06 0 -1.2369381762065063e-05 -4.1594085546512267e-06 0 -1.1622246675794062e-05 -3.1153075475976978e-06 0 -1.0401225007493036e-05 -2.2907007612059591e-06 0 -1.2369381762065063e-05 -4.1594085546512267e-06 0 -1.6589435784042488e-05 -6.9060669161852034e-06 0 -1.6601609944996826e-05 -8.8228014940147555e-06 0 -1.3933612268684861e-05 -5.5034071698098683e-06 0 -1.4282213967857004e-05 -6.5752774487858008e-06 0 -1.3933612268684859e-05 -5.5034071698098674e-06 0 -1.6601609944996826e-05 -8.8228014940147555e-06 0 -1.4282213967857004e-05 -6.5752774487858008e-06 0 -1.2369381762065063e-05 -4.1594085546512267e-06 0 -1.3933612268684861e-05 -5.5034071698098683e-06 0 -1.1314867910580021e-05 -3.0093367387096745e-06 0 -1.3933612268684861e-05 -5.5034071698098683e-06 0 -1.2369381762065063e-05 -4.1594085546512267e-06 0 -1.6589435784042488e-05 -6.9060669161852034e-06 0 -1.3933612268684861e-05 -5.5034071698098683e-06 0 -1.2780955829341655e-05 -3.7729292181816791e-06 0 -1.1314867910580021e-05 -3.0093367387096745e-06 0 -1.2780955829341657e-05 -3.7729292181816795e-06 0 -1.3933612268684861e-05 -5.5034071698098683e-06 0 -1.1314867910580021e-05 -3.0093367387096745e-06 0 -9.6590158409853128e-06 -1.5276873062325278e-06 0 -1.2780955829341655e-05 -3.7729292181816791e-06 0 -1.153826091168149e-05 -2.4980503680090334e-06 0 -1.2780955829341655e-05 -3.7729292181816791e-06 0 -9.6590158409853128e-06 -1.5276873062325278e-06 0 -1.153826091168149e-05 -2.4980503680090334e-06 0 -1.4220749596146525e-05 -4.0967650197797918e-06 0 -1.2780955829341655e-05 -3.7729292181816791e-06 0 -8.7479819173048127e-06 -7.896097365082315e-07 0 -1.0401225007493036e-05 -2.2907007612059591e-06 0 -1.1622246675794062e-05 -3.1153075475976978e-06 0 -1.1314867910580021e-05 -3.0093367387096745e-06 0 -1.2369381762065063e-05 -4.1594085546512267e-06 0 -1.0401225007493036e-05 -2.2907007612059591e-06 0 -1.1314867910580021e-05 -3.0093367387096745e-06 0 -1.0401225007493036e-05 -2.2907007612059591e-06 0 -8.9944145165565222e-06 -1.227542309946101e-06 0 -1.1314867910580021e-05 -3.0093367387096745e-06 0 -8.9944145165565222e-06 -1.227542309946101e-06 0 -9.6590158409853128e-06 -1.5276873062325278e-06 0 -8.7479819173048127e-06 -7.896097365082315e-07 0 -8.9944145165565222e-06 -1.227542309946101e-06 0 -1.0401225007493036e-05 -2.2907007612059591e-06 0 -8.7479819173048127e-06 -7.896097365082315e-07 0 -6.8708811854415595e-06 1.9445896912335817e-08 0 -8.9944145165565222e-06 -1.227542309946101e-06 0 -8.7479819173048127e-06 -7.896097365082315e-07 0 -8.1461453180045046e-06 2.9926287073679132e-07 0 -6.6786095943831331e-06 4.302088295388529e-07 0 -8.1461453180045046e-06 2.9926287073679127e-07 0 -6.3460992378652516e-06 1.2672698499329758e-06 0 -6.6786095943831331e-06 4.302088295388529e-07 0 -8.7479819173048127e-06 -7.896097365082315e-07 0 -9.9628842222160905e-06 -1.2042973414174175e-06 0 -8.1461453180045046e-06 2.9926287073679127e-07 0 -8.7479819173048127e-06 -7.896097365082315e-07 0 -1.1622246675794062e-05 -3.1153075475976978e-06 0 -9.9628842222160905e-06 -1.2042973414174175e-06 0 -1.1622246675794062e-05 -3.1153075475976978e-06 0 -1.1700920761092517e-05 -2.3462966139270964e-06 0 -9.9628842222160905e-06 -1.2042973414174175e-06 0 -1.0228593140088436e-05 -2.1706649388658079e-07 0 -9.9628842222160905e-06 -1.2042973414174175e-06 0 -1.1700920761092517e-05 -2.3462966139270964e-06 0 -1.0228593140088436e-05 -2.1706649388658079e-07 0 -8.1461453180045046e-06 2.9926287073679127e-07 0 -9.9628842222160905e-06 -1.2042973414174175e-06 0 -1.0228593140088436e-05 -2.1706649388658079e-07 0 -1.1700920761092517e-05 -2.3462966139270964e-06 0 -1.3276174221833471e-05 -2.666824382025423e-06 0 -1.3696806325480967e-05 -4.513600635055563e-06 0 -1.3276174221833471e-05 -2.666824382025423e-06 0 -1.1700920761092517e-05 -2.3462966139270964e-06 0 -1.3696806325480967e-05 -4.513600635055563e-06 0 -1.1700920761092517e-05 -2.3462966139270968e-06 0 -1.1622246675794062e-05 -3.1153075475976978e-06 0 -1.0352458015219098e-05 3.188695368358883e-06 0 -9.5221657194444652e-06 1.7254955019904622e-06 0 -1.2337911313784879e-05 3.0239688211082805e-08 0 -1.0228593140088436e-05 -2.1706649388658079e-07 0 -1.2337911313784879e-05 3.0239688211082805e-08 0 -9.5221657194444652e-06 1.7254955019904622e-06 0 -1.0228593140088436e-05 -2.1706649388658079e-07 0 -1.3276174221833471e-05 -2.666824382025423e-06 0 -1.2337911313784879e-05 3.0239688211082805e-08 0 -1.0228593140088436e-05 -2.1706649388658079e-07 0 -7.9402452758800357e-06 1.5310587698049368e-06 0 -8.1461453180045046e-06 2.9926287073679127e-07 0 -9.5221657194444652e-06 1.7254955019904622e-06 0 -7.4674774444889803e-06 3.7154659419966561e-06 0 -7.9402452758800357e-06 1.5310587698049368e-06 0 -1.0228593140088436e-05 -2.1706649388658079e-07 0 -9.5221657194444652e-06 1.7254955019904622e-06 0 -7.9402452758800357e-06 1.5310587698049368e-06 0 -6.1459611183586116e-06 2.479143431771945e-06 0 -6.3460992378652516e-06 1.2672698499329758e-06 0 -7.9402452758800357e-06 1.5310587698049368e-06 0 -8.1461453180045046e-06 2.9926287073679127e-07 0 -7.9402452758800357e-06 1.5310587698049368e-06 0 -6.3460992378652516e-06 1.2672698499329758e-06 0 -6.1459611183586116e-06 2.479143431771945e-06 0 -5.1013710899508458e-06 1.8355918406716996e-06 0 -6.3460992378652516e-06 1.2672698499329758e-06 0 -5.4018943702807427e-06 1.0856080890075907e-06 0 -5.1013710899508449e-06 1.8355918406716998e-06 0 -4.2150779583522721e-06 1.3177490836551022e-06 0 -5.4018943702807427e-06 1.0856080890075907e-06 0 -4.2150779583522721e-06 1.3177490836551022e-06 0 -4.8751755377659372e-06 9.1271021720313519e-07 0 -5.4018943702807427e-06 1.0856080890075907e-06 0 -6.6786095943831331e-06 4.302088295388529e-07 0 -6.3460992378652516e-06 1.2672698499329758e-06 0 -5.4018943702807427e-06 1.0856080890075907e-06 0 -6.3460992378652516e-06 1.2672698499329758e-06 0 -5.1013710899508458e-06 1.8355918406716996e-06 0 -8.7479819173048127e-06 -7.896097365082315e-07 0 -6.6786095943831331e-06 4.3020882953885285e-07 0 -6.8708811854415595e-06 1.9445896912335985e-08 0 -4.7063631372128127e-06 7.5422711032603695e-07 0 -6.8708811854415595e-06 1.9445896912335985e-08 0 -4.8751755377659372e-06 9.1271021720313519e-07 0 -6.8708811854415595e-06 1.9445896912335985e-08 0 -6.6786095943831331e-06 4.3020882953885279e-07 0 -4.8751755377659372e-06 9.1271021720313519e-07 0 -5.4018943702807427e-06 1.0856080890075907e-06 0 -4.8751755377659372e-06 9.1271021720313519e-07 0 -6.6786095943831331e-06 4.302088295388529e-07 0 -3.5010196951985111e-06 1.0947004664361697e-06 0 -3.4192466885135448e-06 9.5645087207989443e-07 0 -4.8751755377659372e-06 9.1271021720313519e-07 0 -4.7063631372128127e-06 7.5422711032603695e-07 0 -4.8751755377659372e-06 9.1271021720313519e-07 0 -3.4192466885135448e-06 9.5645087207989443e-07 0 -4.7063631372128127e-06 7.5422711032603695e-07 0 -3.4192466885135448e-06 9.5645087207989443e-07 0 -3.1057505441777454e-06 8.591006830082789e-07 0 -3.5010196951985111e-06 1.0947004664361697e-06 0 -2.5063626435836222e-06 8.6414968904990925e-07 0 -3.4192466885135448e-06 9.5645087207989443e-07 0 -2.3590029312013227e-06 8.4653057322174551e-07 0 -2.5063626435836222e-06 8.6414968904990925e-07 0 -3.5010196951985111e-06 1.0947004664361697e-06 0 -2.3590029312013227e-06 8.4653057322174551e-07 0 -3.5010196951985111e-06 1.0947004664361697e-06 0 -3.2290059152092759e-06 1.2313237697668989e-06 0 -3.5010196951985111e-06 1.0947004664361697e-06 0 -4.2150779583522721e-06 1.3177490836551022e-06 0 -3.2290059152092759e-06 1.2313237697668989e-06 0 -3.5010196951985111e-06 1.0947004664361697e-06 0 -4.8751755377659372e-06 9.1271021720313519e-07 0 -4.2150779583522721e-06 1.3177490836551022e-06 0 -1.153826091168149e-05 -2.4980503680090334e-06 0 -9.6590158409853128e-06 -1.527687306232528e-06 0 -9.2151526232731258e-06 -1.1086291833178965e-06 0 -7.3014389649111495e-06 -2.5404829453648466e-07 0 -9.2151526232731258e-06 -1.1086291833178965e-06 0 -9.6590158409853128e-06 -1.5276873062325278e-06 0 -7.3014389649111495e-06 -2.5404829453648466e-07 0 -6.9699123440200271e-06 -1.3666905133198304e-07 0 -9.2151526232731258e-06 -1.1086291833178965e-06 0 -7.3014389649111495e-06 -2.5404829453648466e-07 0 -7.945743518920705e-06 -5.8952464033639823e-07 0 -5.9885253642612296e-06 2.7309246362757609e-07 0 -7.3014389649111495e-06 -2.5404829453648466e-07 0 -9.6590158409853128e-06 -1.5276873062325278e-06 0 -7.945743518920705e-06 -5.8952464033639823e-07 0 -9.6590158409853128e-06 -1.5276873062325278e-06 0 -8.9944145165565222e-06 -1.227542309946101e-06 0 -7.945743518920705e-06 -5.8952464033639823e-07 0 -6.8708811854415595e-06 1.9445896912335985e-08 0 -7.945743518920705e-06 -5.8952464033639823e-07 0 -8.9944145165565222e-06 -1.227542309946101e-06 0 -6.8708811854415595e-06 1.9445896912335985e-08 0 -5.9885253642612296e-06 2.7309246362757609e-07 0 -7.945743518920705e-06 -5.8952464033639823e-07 0 -4.7063631372128127e-06 7.5422711032603695e-07 0 -5.9885253642612288e-06 2.7309246362757609e-07 0 -6.8708811854415595e-06 1.9445896912335985e-08 0 -4.7063631372128127e-06 7.5422711032603695e-07 0 -4.8199651307489151e-06 5.9868840497965973e-07 0 -5.9885253642612296e-06 2.7309246362757609e-07 0 -4.7063631372128127e-06 7.5422711032603695e-07 0 -3.1057505441777454e-06 8.591006830082789e-07 0 -4.8199651307489151e-06 5.9868840497965973e-07 0 -7.3014389649111495e-06 -2.5404829453648466e-07 0 -5.9885253642612296e-06 2.7309246362757609e-07 0 -4.8199651307489151e-06 5.9868840497965973e-07 0 -7.3014389649111495e-06 -2.5404829453648466e-07 0 -4.8199651307489151e-06 5.9868840497965973e-07 0 -6.9699123440200271e-06 -1.3666905133198304e-07 0 -5.275627509391378e-06 3.2448866520993303e-07 0 -6.9699123440200271e-06 -1.3666905133198304e-07 0 -4.8199651307489151e-06 5.9868840497965973e-07 0 -5.275627509391378e-06 3.2448866520993303e-07 0 -6.7791155443490365e-06 -1.3944626673287022e-07 0 -6.9699123440200271e-06 -1.3666905133198304e-07 0 -8.7945683011560774e-06 -8.3793804415639722e-07 0 -9.2151526232731258e-06 -1.1086291833178965e-06 0 -6.9699123440200271e-06 -1.3666905133198304e-07 0 -8.7945683011560774e-06 -8.3793804415639722e-07 0 -6.9699123440200271e-06 -1.3666905133198304e-07 0 -6.7791155443490365e-06 -1.3944626673287022e-07 0 -2.0216772662948013e-06 5.2272008952498045e-07 0 -4.3604813932543934e-06 3.9379583422911698e-07 0 -3.4788310785819691e-06 6.6439059858877211e-07 0 -5.275627509391378e-06 3.2448866520993303e-07 0 -4.3604813932543934e-06 3.9379583422911698e-07 0 -6.7791155443490365e-06 -1.3944626673287022e-07 0 -5.275627509391378e-06 3.2448866520993303e-07 0 -3.4788310785819691e-06 6.6439059858877211e-07 0 -4.3604813932543934e-06 3.9379583422911698e-07 0 -5.275627509391378e-06 3.2448866520993303e-07 0 -4.8199651307489151e-06 5.9868840497965973e-07 0 -3.4788310785819691e-06 6.6439059858877211e-07 0 -2.0216772662948013e-06 5.2272008952498045e-07 0 -3.4788310785819691e-06 6.6439059858877211e-07 0 -1.5855856002293547e-06 5.472666254390268e-07 0 -2.7751899399543479e-06 7.6734376944212748e-07 0 -1.5855856002293547e-06 5.472666254390268e-07 0 -3.4788310785819691e-06 6.6439059858877211e-07 0 -2.7751899399543479e-06 7.6734376944212748e-07 0 -3.4788310785819691e-06 6.6439059858877211e-07 0 -4.8199651307489151e-06 5.9868840497965973e-07 0 -2.7751899399543479e-06 7.6734376944212748e-07 0 -4.8199651307489151e-06 5.9868840497965973e-07 0 -3.1057505441777454e-06 8.591006830082789e-07 0 -2.7751899399543479e-06 7.6734376944212748e-07 0 -3.1057505441777454e-06 8.591006830082789e-07 0 -1.4428026095010103e-06 5.9493495974788127e-07 0 -2.7751899399543479e-06 7.6734376944212748e-07 0 -1.4428026095010101e-06 5.9493495974788127e-07 0 -1.5855856002293547e-06 5.472666254390268e-07 0 -1.6049591288248103e-09 3.0368174307286283e-10 0 -1.5855856002293547e-06 5.472666254390268e-07 0 -1.4428026095010103e-06 5.9493495974788127e-07 0 -1.6049591288248103e-09 3.0368174307286283e-10 0 -1.8394371102790928e-09 2.874643229721647e-10 0 -1.5855856002293547e-06 5.472666254390268e-07 0 -1.8394371102790928e-09 2.874643229721647e-10 0 -2.0216772662948013e-06 5.2272008952498045e-07 0 -1.5855856002293547e-06 5.472666254390268e-07 0 -1.8394371102790928e-09 2.874643229721647e-10 0 -2.1680975435414462e-09 2.9249960650587628e-10 0 -2.0216772662948013e-06 5.2272008952498045e-07 0 -2.1680975435414462e-09 2.9249960650587628e-10 0 -2.1050930459908007e-06 3.6354828225788502e-07 0 -2.0216772662948013e-06 5.2272008952498045e-07 0 -1.8890415577146391e-06 7.1760453980032466e-07 0 -2.5063626435836222e-06 8.6414968904990925e-07 0 -1.429119193317972e-06 5.1236968863240328e-07 0 -2.3590029312013227e-06 8.4653057322174551e-07 0 -1.429119193317972e-06 5.1236968863240328e-07 0 -2.5063626435836222e-06 8.6414968904990925e-07 0 -2.5063626435836222e-06 8.6414968904990925e-07 0 -1.8890415577146391e-06 7.1760453980032466e-07 0 -3.4192466885135448e-06 9.5645087207989443e-07 0 -1.8890415577146391e-06 7.1760453980032466e-07 0 -3.1057505441777454e-06 8.591006830082789e-07 0 -3.4192466885135448e-06 9.5645087207989443e-07 0 -1.8890415577146391e-06 7.1760453980032466e-07 0 -1.4428026095010103e-06 5.9493495974788127e-07 0 -3.1057505441777454e-06 8.591006830082789e-07 0 -1.8890415577146391e-06 7.1760453980032466e-07 0 -8.9168230255401104e-07 4.0260457350326816e-07 0 -1.4428026095010103e-06 5.9493495974788127e-07 0 -1.3466748267092101e-09 2.2783435696562127e-10 0 -1.6049591288248103e-09 3.0368174307286283e-10 0 -1.4428026095010103e-06 5.9493495974788127e-07 0 -1.3466748267092101e-09 2.2783435696562127e-10 0 -1.4428026095010103e-06 5.9493495974788127e-07 0 -8.9168230255401126e-07 4.0260457350326816e-07 0 -1.1899771170899162e-09 1.9765486273177131e-10 0 -1.3466748267092101e-09 2.2783435696562127e-10 0 -8.9168230255401126e-07 4.0260457350326816e-07 0 -1.1899771170899162e-09 1.9765486273177131e-10 0 -8.9168230255401136e-07 4.0260457350326821e-07 0 -7.6971748743937232e-07 3.3247030055164131e-07 0 -1.1253917818500443e-09 1.744329825971822e-10 0 -7.6971748743937232e-07 3.3247030055164131e-07 0 -1.429119193317972e-06 5.1236968863240328e-07 0 -1.8890415577146391e-06 7.1760453980032466e-07 0 -1.429119193317972e-06 5.1236968863240328e-07 0 -7.6971748743937232e-07 3.3247030055164131e-07 0 -1.8890415577146391e-06 7.1760453980032466e-07 0 -7.6971748743937232e-07 3.3247030055164131e-07 0 -8.9168230255401126e-07 4.0260457350326816e-07 0 -1.1253917818500443e-09 1.744329825971822e-10 0 -1.1899771170899162e-09 1.9765486273177131e-10 0 -7.6971748743937232e-07 3.3247030055164131e-07 0 -1.1253917818500443e-09 1.744329825971822e-10 0 -1.429119193317972e-06 5.1236968863240328e-07 0 -9.1942069147375625e-07 1.8814028801865222e-07 0 -1.1061510700373623e-09 -4.5774220016811658e-11 0 -1.1253917818500945e-09 1.7443298259719247e-10 0 -9.1942069147375625e-07 1.8814028801865222e-07 0 -1.1061510700373623e-09 -4.5774220016811658e-11 0 -9.1942069147375625e-07 1.8814028801865222e-07 0 -7.4626328618737202e-07 -1.9807878372675603e-08 0 -1.5378395673318925e-06 1.7480559462209993e-07 0 -7.4626328618737202e-07 -1.9807878372675603e-08 0 -9.1942069147375625e-07 1.8814028801865222e-07 0 -1.429119193317972e-06 5.1236968863240328e-07 0 -1.6725046922225003e-06 4.3745103313832506e-07 0 -9.1942069147375625e-07 1.8814028801865222e-07 0 -2.3590029312013227e-06 8.4653057322174551e-07 0 -1.6725046922225003e-06 4.3745103313832506e-07 0 -1.429119193317972e-06 5.1236968863240328e-07 0 -1.5378395673318925e-06 1.7480559462209993e-07 0 -9.1942069147375625e-07 1.8814028801865222e-07 0 -1.6725046922225003e-06 4.3745103313832506e-07 0 -1.5378395673318925e-06 1.7480559462209993e-07 0 -1.6725046922225003e-06 4.3745103313832506e-07 0 -2.1538798885505796e-06 5.0605794022480266e-07 0 -1.6725046922225003e-06 4.3745103313832506e-07 0 -2.3590029312013227e-06 8.4653057322174551e-07 0 -2.1538798885505796e-06 5.0605794022480266e-07 0 -1.5378395673318925e-06 1.7480559462209993e-07 0 -2.1538798885505796e-06 5.0605794022480266e-07 0 -2.1100926869550875e-06 6.568874508324137e-08 0 -2.1410079101125563e-06 -3.6191169628148398e-07 0 -1.1619099680490576e-06 -2.3185957440855298e-07 0 -2.1100926869550875e-06 6.568874508324137e-08 0 -1.5378395673318925e-06 1.7480559462209993e-07 0 -2.1100926869550875e-06 6.568874508324137e-08 0 -1.1619099680490576e-06 -2.3185957440855298e-07 0 -1.5378395673318925e-06 1.7480559462209993e-07 0 -1.1619099680490576e-06 -2.3185957440855298e-07 0 -7.4626328618737202e-07 -1.9807878372675603e-08 0 -1.1296011002646029e-09 2.0917627870880307e-11 0 -1.1061510700372256e-09 -4.5774220016808039e-11 0 -7.4626328618737202e-07 -1.9807878372675603e-08 0 -1.4678940323489468e-09 -2.952902447290853e-10 0 -1.1296011002646029e-09 2.0917627870880307e-11 0 -1.1619099680490576e-06 -2.3185957440855298e-07 0 -1.1296011002646029e-09 2.0917627870880307e-11 0 -7.4626328618737202e-07 -1.9807878372675629e-08 0 -1.1619099680490576e-06 -2.3185957440855298e-07 0 -1.8020968588200307e-09 -3.8547075895209104e-10 0 -1.4678940323489468e-09 -2.952902447290853e-10 0 -1.3648688447706495e-06 -5.3037520127544704e-07 0 -2.1410079101125563e-06 -3.6191169628148398e-07 0 -1.3648688447706495e-06 -5.3037520127544704e-07 0 -1.1619099680490576e-06 -2.3185957440855298e-07 0 -1.4678940323489468e-09 -2.952902447290853e-10 0 -1.1619099680490576e-06 -2.3185957440855298e-07 0 -1.3648688447706495e-06 -5.3037520127544704e-07 0 -2.3207710402288702e-09 -5.6522108158897807e-10 0 -1.8020968588200307e-09 -3.8547075895209104e-10 0 -1.9770425375394612e-06 -8.4020827650216261e-07 0 -1.8020968588200307e-09 -3.8547075895209104e-10 0 -1.3648688447706495e-06 -5.3037520127544704e-07 0 -1.9770425375394612e-06 -8.4020827650216261e-07 0 -2.3207710402288702e-09 -5.6522108158897807e-10 0 -1.9770425375394612e-06 -8.4020827650216261e-07 0 -2.2884470268273268e-06 -8.7316724082550626e-07 0 -1.9770425375394612e-06 -8.4020827650216261e-07 0 -3.2103855497643416e-06 -6.5988381599308692e-07 0 -4.2206361206569999e-06 -1.0108679877144629e-06 0 -4.7123972901337043e-06 -6.0175470528591546e-07 0 -4.2206361206569999e-06 -1.0108679877144629e-06 0 -3.2103855497643416e-06 -6.5988381599308692e-07 0 -1.9770425375394612e-06 -8.4020827650216261e-07 0 -1.3648688447706495e-06 -5.3037520127544704e-07 0 -3.2103855497643416e-06 -6.5988381599308692e-07 0 -4.7123972901337043e-06 -6.0175470528591546e-07 0 -6.5645411815166348e-06 -2.6296893154812658e-07 0 -4.2206361206569999e-06 -1.0108679877144629e-06 0 -2.1410079101125563e-06 -3.6191169628148398e-07 0 -3.2103855497643416e-06 -6.5988381599308692e-07 0 -1.3648688447706495e-06 -5.3037520127544704e-07 0 -2.1410079101125563e-06 -3.6191169628148398e-07 0 -2.8792213202610489e-06 6.0348547219801653e-08 0 -3.2103855497643416e-06 -6.5988381599308692e-07 0 -2.1410079101125563e-06 -3.6191169628148398e-07 0 -2.110092686955088e-06 6.568874508324141e-08 0 -2.8792213202610489e-06 6.0348547219801653e-08 0 -4.0435421417774481e-06 5.6035227576918327e-07 0 -3.2103855497643416e-06 -6.5988381599308692e-07 0 -2.8792213202610489e-06 6.0348547219801653e-08 0 -2.9651661415596371e-06 8.3137395603200193e-07 0 -4.0435421417774481e-06 5.6035227576918327e-07 0 -2.8792213202610489e-06 6.0348547219801653e-08 0 -2.9651661415596371e-06 8.3137395603200193e-07 0 -3.7790750806593726e-06 1.7367880106369308e-06 0 -4.0435421417774481e-06 5.6035227576918327e-07 0 -4.0435421417774481e-06 5.6035227576918327e-07 0 -5.1120374987790677e-06 4.7911008178063935e-08 0 -3.2103855497643416e-06 -6.5988381599308692e-07 0 -4.7123972901337043e-06 -6.0175470528591546e-07 0 -5.1120374987790677e-06 4.7911008178063935e-08 0 -6.5645411815166348e-06 -2.6296893154812658e-07 0 -4.7123972901337043e-06 -6.0175470528591546e-07 0 -3.2103855497643416e-06 -6.5988381599308692e-07 0 -5.1120374987790677e-06 4.7911008178063935e-08 0 -4.0435421417774481e-06 5.6035227576918327e-07 0 -6.0615203275443653e-06 1.0593841382318956e-06 0 -5.1120374987790677e-06 4.7911008178063935e-08 0 -8.3070049143687237e-06 5.86526862622849e-07 0 -6.5645411815166348e-06 -2.6296893154812658e-07 0 -5.1120374987790677e-06 4.7911008178063935e-08 0 -8.3070049143687237e-06 5.86526862622849e-07 0 -5.1120374987790677e-06 4.7911008178063935e-08 0 -6.0615203275443653e-06 1.0593841382318956e-06 0 -8.3070049143687237e-06 5.86526862622849e-07 0 -6.0615203275443653e-06 1.0593841382318956e-06 0 -7.6453184749723025e-06 2.192033860076836e-06 0 -5.2512908530185896e-06 2.3259450116825332e-06 0 -7.6453184749723025e-06 2.192033860076836e-06 0 -6.0615203275443653e-06 1.0593841382318956e-06 0 -5.2512908530185896e-06 2.3259450116825332e-06 0 -7.1723388546766993e-06 4.1752028336519247e-06 0 -7.6453184749723025e-06 2.192033860076836e-06 0 -9.7715545997341606e-06 3.8066309615323713e-06 0 -1.1540919476138599e-05 2.2565005008149021e-06 0 -7.6453184749723025e-06 2.192033860076836e-06 0 -9.7715545997341606e-06 3.8066309615323713e-06 0 -7.6453184749723025e-06 2.192033860076836e-06 0 -7.1723388546766993e-06 4.1752028336519238e-06 0 -5.2512908530185896e-06 2.3259450116825332e-06 0 -4.043542141777449e-06 5.6035227576918327e-07 0 -3.7790750806593726e-06 1.7367880106369308e-06 0 -5.2512908530185896e-06 2.3259450116825332e-06 0 -6.0615203275443661e-06 1.0593841382318958e-06 0 -4.0435421417774481e-06 5.6035227576918327e-07 0 -5.2512908530185896e-06 2.3259450116825332e-06 0 -3.7790750806593726e-06 1.7367880106369308e-06 0 -4.5418391178596425e-06 3.3394188362635292e-06 0 -5.2512908530185896e-06 2.3259450116825332e-06 0 -4.5418391178596425e-06 3.3394188362635292e-06 0 -5.2654034790761932e-06 4.8443537988225216e-06 0 -3.9006875173612249e-06 2.4978413744947151e-06 0 -4.5418391178596425e-06 3.3394188362635292e-06 0 -3.7790750806593726e-06 1.7367880106369308e-06 0 -4.5665215591939021e-06 3.8210353486347244e-06 0 -4.5418391178596425e-06 3.3394188362635292e-06 0 -3.9006875173612249e-06 2.4978413744947151e-06 0 -3.9006875173612249e-06 2.4978413744947151e-06 0 -3.7790750806593726e-06 1.7367880106369308e-06 0 -3.250602034872564e-06 1.4802505189049335e-06 0 -3.687396117357161e-06 1.7343711054434465e-06 0 -3.9006875173612249e-06 2.4978413744947151e-06 0 -3.250602034872564e-06 1.4802505189049335e-06 0 -4.5665215591939021e-06 3.8210353486347244e-06 0 -3.9006875173612249e-06 2.4978413744947151e-06 0 -4.6070259870895217e-06 2.7741458654580035e-06 0 -3.687396117357161e-06 1.7343711054434465e-06 0 -4.6070259870895217e-06 2.7741458654580035e-06 0 -3.9006875173612249e-06 2.4978413744947151e-06 0 -3.687396117357161e-06 1.7343711054434465e-06 0 -5.1013710899508458e-06 1.8355918406716996e-06 0 -4.6070259870895217e-06 2.7741458654580035e-06 0 -3.687396117357161e-06 1.7343711054434465e-06 0 -3.2290059152092759e-06 1.2313237697668987e-06 0 -4.2150779583522721e-06 1.3177490836551022e-06 0 -3.687396117357161e-06 1.7343711054434465e-06 0 -4.2150779583522721e-06 1.3177490836551022e-06 0 -5.1013710899508458e-06 1.8355918406716996e-06 0 -3.687396117357161e-06 1.7343711054434465e-06 0 -3.250602034872564e-06 1.4802505189049335e-06 0 -2.7116799652035038e-06 9.9303883964434307e-07 0 -3.687396117357161e-06 1.7343711054434465e-06 0 -2.7116799652035038e-06 9.9303883964434307e-07 0 -3.2290059152092759e-06 1.2313237697668989e-06 0 -2.3590029312013227e-06 8.4653057322174551e-07 0 -3.2290059152092759e-06 1.2313237697668989e-06 0 -2.7116799652035038e-06 9.9303883964434307e-07 0 -2.1538798885505796e-06 5.0605794022480266e-07 0 -2.3590029312013227e-06 8.4653057322174551e-07 0 -2.7116799652035038e-06 9.9303883964434307e-07 0 -2.9651661415596371e-06 8.3137395603200193e-07 0 -2.1538798885505796e-06 5.0605794022480266e-07 0 -2.7116799652035038e-06 9.9303883964434307e-07 0 -2.9651661415596371e-06 8.3137395603200193e-07 0 -2.1100926869550875e-06 6.568874508324137e-08 0 -2.1538798885505796e-06 5.0605794022480266e-07 0 -2.9651661415596371e-06 8.3137395603200193e-07 0 -2.8792213202610489e-06 6.0348547219801653e-08 0 -2.1100926869550875e-06 6.568874508324137e-08 0 -3.250602034872564e-06 1.4802505189049335e-06 0 -3.7790750806593726e-06 1.7367880106369308e-06 0 -2.9651661415596371e-06 8.3137395603200193e-07 0 -2.9651661415596371e-06 8.3137395603200193e-07 0 -2.7116799652035038e-06 9.9303883964434328e-07 0 -3.250602034872564e-06 1.4802505189049335e-06 0 -2.0875083356841441e-05 5.8906854980956934e-06 0 -1.3755342674787187e-05 4.5255589359153946e-06 0 -1.2450125335431418e-05 2.6299330797042967e-06 0 -8.3867420436213264e-06 6.1604466226814472e-07 0 -1.2450125335431418e-05 2.6299330797042967e-06 0 -5.9832211775497462e-06 1.2244623161254326e-06 0 -7.0852925278837682e-06 3.2358817417975619e-06 0 -5.9832211775497462e-06 1.2244623161254326e-06 0 -1.3755342674787187e-05 4.5255589359153946e-06 0 -1.3755342674787187e-05 4.5255589359153946e-06 0 -5.9832211775497462e-06 1.2244623161254326e-06 0 -1.2450125335431418e-05 2.6299330797042967e-06 0 -7.0852925278837682e-06 3.2358817417975619e-06 0 -2.986782699886929e-06 9.5046214780725888e-07 0 -5.9832211775497462e-06 1.2244623161254326e-06 0 -7.9105954152407918e-09 3.3733975622381698e-09 0 -2.986782699886929e-06 9.5046214780725888e-07 0 -7.0852925278837682e-06 3.2358817417975619e-06 0 -7.9105954152407918e-09 3.3733975622381698e-09 0 -4.5696800395881282e-09 -6.180852969507872e-10 0 -2.986782699886929e-06 9.5046214780725888e-07 0 -4.5696800395881282e-09 -6.180852969507872e-10 0 -5.9832211775497462e-06 1.2244623161254326e-06 0 -2.986782699886929e-06 9.5046214780725888e-07 0 -4.5696800395881282e-09 -6.180852969507872e-10 0 -4.0525707568120032e-06 -7.7982605118690559e-08 0 -5.9832211775497462e-06 1.2244623161254326e-06 0 -8.3867420436213264e-06 6.1604466226814472e-07 0 -5.9832211775497462e-06 1.2244623161254326e-06 0 -4.0525707568120024e-06 -7.7982605118690876e-08 0 -4.5696800395881282e-09 -6.180852969507872e-10 0 -4.8552365344012989e-09 3.2769408502330869e-10 0 -4.0525707568120024e-06 -7.7982605118690876e-08 0 -4.8552365344012228e-09 3.2769408502331024e-10 0 -3.4161358137738989e-09 -8.7625705633601419e-10 0 -4.0525707568120024e-06 -7.7982605118690876e-08 0 -8.3867420436213264e-06 6.1604466226814472e-07 0 -4.0525707568120024e-06 -7.7982605118690876e-08 0 -5.2257092584869695e-06 -5.975837743026415e-07 0 -8.3867420436213264e-06 6.1604466226814472e-07 0 -5.2257092584869695e-06 -5.9758377430264139e-07 0 -9.3069705347337246e-06 3.4937762197022466e-08 0 -8.3867420436213264e-06 6.1604466226814472e-07 0 -1.2777024717405053e-05 1.2428371256584856e-06 0 -1.2450125335431418e-05 2.6299330797042967e-06 0 -1.7255419614334185e-05 3.022275665105434e-06 0 -1.2450125335431418e-05 2.6299330797042967e-06 0 -1.2777024717405053e-05 1.2428371256584856e-06 0 -1.1995501566293914e-05 4.4836717646187469e-07 0 -1.2777024717405052e-05 1.2428371256584854e-06 0 -9.3069705347337246e-06 3.4937762197022466e-08 0 -8.3867420436213264e-06 6.1604466226814472e-07 0 -9.3069705347337246e-06 3.4937762197022466e-08 0 -1.2777024717405053e-05 1.2428371256584856e-06 0 -1.1995501566293914e-05 4.4836717646187469e-07 0 -9.3069705347337246e-06 3.4937762197022466e-08 0 -7.9745209524194696e-06 -5.2360999380610939e-07 0 -5.0913930422402287e-06 -9.6080445001065718e-07 0 -7.9745209524194696e-06 -5.2360999380610939e-07 0 -5.2257092584869695e-06 -5.975837743026415e-07 0 -5.2257092584869695e-06 -5.975837743026415e-07 0 -7.9745209524194696e-06 -5.2360999380610949e-07 0 -9.3069705347337246e-06 3.4937762197022466e-08 0 -3.4161358137738989e-09 -8.7625705633601419e-10 0 -2.5061284785114446e-06 -6.9142797461031202e-07 0 -5.2257092584869695e-06 -5.975837743026415e-07 0 -3.4161358137738989e-09 -8.7625705633601419e-10 0 -5.2257092584869695e-06 -5.975837743026416e-07 0 -4.0525707568120024e-06 -7.7982605118690876e-08 0 -3.4161358137738989e-09 -8.7625705633601419e-10 0 -3.0275391791024442e-09 -3.7482680600201363e-10 0 -2.5061284785114446e-06 -6.9142797461031202e-07 0 -5.0913930422402287e-06 -9.6080445001065718e-07 0 -5.2257092584869704e-06 -5.9758377430264139e-07 0 -2.5061284785114446e-06 -6.9142797461031202e-07 0 -5.0913930422402287e-06 -9.6080445001065718e-07 0 -2.5061284785114446e-06 -6.9142797461031202e-07 0 -2.2884470268273268e-06 -8.7316724082550626e-07 0 -3.0275391791024442e-09 -3.7482680600201363e-10 0 -2.2884470268273268e-06 -8.7316724082550626e-07 0 -2.5061284785114446e-06 -6.9142797461031202e-07 0 -3.0275391791024442e-09 -3.7482680600201363e-10 0 -2.3207710402288702e-09 -5.6522108158897807e-10 0 -2.2884470268273268e-06 -8.7316724082550626e-07 0 -1.9770425375394612e-06 -8.4020827650216261e-07 0 -4.2206361206569999e-06 -1.0108679877144629e-06 0 -2.2884470268273268e-06 -8.7316724082550626e-07 0 -5.0913930422402287e-06 -9.6080445001065718e-07 0 -2.2884470268273268e-06 -8.7316724082550626e-07 0 -4.2206361206569999e-06 -1.0108679877144629e-06 0 -5.0913930422402287e-06 -9.6080445001065718e-07 0 -8.2073728105297173e-06 -4.1516045921084089e-07 0 -7.9745209524194696e-06 -5.2360999380610939e-07 0 -5.0913930422402287e-06 -9.6080445001065718e-07 0 -4.2206361206569999e-06 -1.0108679877144629e-06 0 -8.2073728105297173e-06 -4.1516045921084089e-07 0 -8.2073728105297173e-06 -4.1516045921084089e-07 0 -4.2206361206569999e-06 -1.0108679877144629e-06 0 -6.5645411815166348e-06 -2.6296893154812658e-07 0 -8.3070049143687237e-06 5.86526862622849e-07 0 -8.2073728105297173e-06 -4.1516045921084089e-07 0 -6.5645411815166348e-06 -2.6296893154812658e-07 0 -8.3070049143687237e-06 5.86526862622849e-07 0 -1.2022089791828532e-05 7.5176723264737858e-07 0 -8.2073728105297173e-06 -4.1516045921084089e-07 0 -8.3070049143687237e-06 5.86526862622849e-07 0 -7.6453184749723025e-06 2.192033860076836e-06 0 -1.1540919476138599e-05 2.2565005008149021e-06 0 -1.4895524142679794e-05 2.4580784889656854e-06 0 -1.1540919476138599e-05 2.2565005008149021e-06 0 -1.6969590325077991e-05 4.6073794625549857e-06 0 -1.4895524142679794e-05 2.4580784889656854e-06 0 -1.2022089791828532e-05 7.5176723264737858e-07 0 -1.1540919476138599e-05 2.2565005008149021e-06 0 -8.3070049143687237e-06 5.86526862622849e-07 0 -1.1540919476138599e-05 2.2565005008149021e-06 0 -1.2022089791828532e-05 7.5176723264737858e-07 0 -1.4895524142679794e-05 2.4580784889656854e-06 0 -1.7644331927679701e-05 2.3283286342439613e-06 0 -1.2022089791828532e-05 7.5176723264737858e-07 0 -1.4895524142679794e-05 2.4580784889656854e-06 0 -1.6969590325077991e-05 4.6073794625549857e-06 0 -2.041366352751342e-05 4.2219472457311414e-06 0 -1.4895524142679794e-05 2.4580784889656854e-06 0 -2.041366352751342e-05 4.2219472457311414e-06 0 -1.7644331927679701e-05 2.3283286342439613e-06 0 -1.1995501566293914e-05 4.4836717646187469e-07 0 -1.2022089791828532e-05 7.5176723264737858e-07 0 -1.7644331927679701e-05 2.3283286342439613e-06 0 -1.1995501566293914e-05 4.4836717646187469e-07 0 -1.7644331927679701e-05 2.3283286342439613e-06 0 -1.6406831647864532e-05 2.0073117084251838e-06 0 -1.1995501566293914e-05 4.4836717646187469e-07 0 -8.2073728105297173e-06 -4.1516045921084089e-07 0 -1.2022089791828532e-05 7.5176723264737858e-07 0 -1.1995501566293914e-05 4.4836717646187469e-07 0 -7.9745209524194696e-06 -5.236099938061096e-07 0 -8.2073728105297173e-06 -4.1516045921084089e-07 0 -1.1995501566293914e-05 4.4836717646187469e-07 0 -1.6406831647864532e-05 2.0073117084251838e-06 0 -1.2777024717405053e-05 1.2428371256584856e-06 0 -1.7255419614334185e-05 3.022275665105434e-06 0 -1.2777024717405053e-05 1.2428371256584856e-06 0 -1.6406831647864532e-05 2.0073117084251838e-06 0 -2.2348026202419825e-05 4.0725827706816004e-06 0 -1.7255419614334182e-05 3.0222756651054336e-06 0 -1.6406831647864532e-05 2.0073117084251838e-06 0 -2.2348026202419825e-05 4.0725827706816004e-06 0 -1.6406831647864532e-05 2.0073117084251838e-06 0 -1.7644331927679701e-05 2.3283286342439613e-06 0 -2.2348026202419825e-05 4.0725827706816004e-06 0 -1.7644331927679701e-05 2.3283286342439613e-06 0 -2.6856376540305577e-05 5.9551727720025437e-06 0 -1.7644331927679701e-05 2.3283286342439613e-06 0 -2.0413663527513417e-05 4.2219472457311414e-06 0 -2.6856376540305577e-05 5.9551727720025437e-06 0 -2.2348026202419825e-05 4.0725827706816004e-06 0 -2.6856376540305577e-05 5.9551727720025437e-06 0 -2.9878938613735594e-05 7.1426758799587571e-06 0 -2.2348026202419825e-05 4.0725827706816004e-06 0 -2.9878938613735594e-05 7.1426758799587571e-06 0 -2.3968568834170256e-05 5.3844059462973321e-06 0 -3.6500322136769597e-05 1.0191300671678721e-05 0 -2.9878938613735594e-05 7.1426758799587571e-06 0 -2.6856376540305577e-05 5.9551727720025437e-06 0 -3.735742196403764e-05 1.0935082178190671e-05 0 -2.8701315482564232e-05 7.9273930139495829e-06 0 -2.9878938613735594e-05 7.1426758799587571e-06 0 -2.8701315482564232e-05 7.9273930139495829e-06 0 -2.3968568834170256e-05 5.3844059462973321e-06 0 -2.9878938613735594e-05 7.1426758799587571e-06 0 -2.8701315482564232e-05 7.9273930139495829e-06 0 -2.0875083356841441e-05 5.8906854980956934e-06 0 -2.3968568834170256e-05 5.3844059462973321e-06 0 -2.2348026202419825e-05 4.0725827706816004e-06 0 -2.3968568834170256e-05 5.3844059462973321e-06 0 -1.7255419614334185e-05 3.022275665105434e-06 0 -2.0875083356841441e-05 5.8906854980956934e-06 0 -1.7255419614334185e-05 3.022275665105434e-06 0 -2.3968568834170256e-05 5.3844059462973321e-06 0 -2.0875083356841441e-05 5.8906854980956934e-06 0 -1.2450125335431418e-05 2.6299330797042971e-06 0 -1.7255419614334185e-05 3.022275665105434e-06 0 -5.7355180149408529e-05 2.2288828475629412e-05 0 -4.5202853458587167e-05 1.5723959615352568e-05 0 -5.3451281009446541e-05 2.172876700828401e-05 0 -6.8992141028303435e-05 3.1529229985389818e-05 0 -5.7355180149408529e-05 2.2288828475629412e-05 0 -5.3451281009446541e-05 2.172876700828401e-05 0 -4.3569253013405524e-05 1.8211995376597717e-05 0 -5.3451281009446541e-05 2.172876700828401e-05 0 -4.5202853458587167e-05 1.5723959615352568e-05 0 -4.3569253013405524e-05 1.8211995376597717e-05 0 -5.5203086105798672e-05 2.7014193477530318e-05 0 -5.3451281009446541e-05 2.172876700828401e-05 0 -5.7355180149408529e-05 2.2288828475629412e-05 0 -4.6819793223882737e-05 1.5520005906115969e-05 0 -4.5202853458587167e-05 1.5723959615352568e-05 0 -4.6819793223882737e-05 1.5520005906115969e-05 0 -3.735742196403764e-05 1.0935082178190671e-05 0 -3.6500322136769597e-05 1.0191300671678721e-05 0 -3.735742196403764e-05 1.0935082178190671e-05 0 -2.9878938613735594e-05 7.1426758799587571e-06 0 -3.6500322136769597e-05 1.0191300671678721e-05 0 -4.6819793223882737e-05 1.5520005906115969e-05 0 -3.6500322136769597e-05 1.0191300671678721e-05 0 -4.5202853458587167e-05 1.5723959615352568e-05 0 -3.6500322136769597e-05 1.0191300671678721e-05 0 -3.3513160126556026e-05 1.0829329219517032e-05 0 -4.5202853458587167e-05 1.5723959615352568e-05 0 -2.6184805837381601e-05 6.9486888216448369e-06 0 -3.3513160126556026e-05 1.0829329219517032e-05 0 -2.6856376540305577e-05 5.9551727720025437e-06 0 -3.6500322136769597e-05 1.0191300671678721e-05 0 -2.6856376540305577e-05 5.9551727720025437e-06 0 -3.3513160126556026e-05 1.0829329219517032e-05 0 -2.6184805837381601e-05 6.9486888216448369e-06 0 -2.6856376540305577e-05 5.9551727720025437e-06 0 -2.041366352751342e-05 4.2219472457311414e-06 0 -4.3569253013405524e-05 1.8211995376597717e-05 0 -3.3513160126556026e-05 1.0829329219517032e-05 0 -3.5683729812216842e-05 1.6496327809491401e-05 0 -4.3569253013405524e-05 1.8211995376597717e-05 0 -4.5202853458587167e-05 1.5723959615352568e-05 0 -3.3513160126556026e-05 1.0829329219517032e-05 0 -4.3569253013405524e-05 1.8211995376597717e-05 0 -3.5683729812216842e-05 1.6496327809491397e-05 0 -4.4021478085039823e-05 2.4424416581327317e-05 0 -3.5683729812216842e-05 1.6496327809491401e-05 0 -2.6484360908804313e-05 1.1616623113008355e-05 0 -3.0804682182469122e-05 2.0473808010217232e-05 0 -2.6484360908804313e-05 1.1616623113008355e-05 0 -2.1721902707004728e-05 1.3247253631999743e-05 0 -3.0804682182469122e-05 2.0473808010217232e-05 0 -2.6484360908804313e-05 1.1616623113008355e-05 0 -1.9321045771896652e-05 8.0858794693097167e-06 0 -2.1721902707004728e-05 1.3247253631999743e-05 0 -2.6484360908804313e-05 1.1616623113008355e-05 0 -3.5683729812216842e-05 1.6496327809491401e-05 0 -3.3513160126556026e-05 1.0829329219517032e-05 0 -2.6484360908804313e-05 1.1616623113008355e-05 0 -3.3513160126556026e-05 1.0829329219517032e-05 0 -2.3457872638909784e-05 7.5413024800536763e-06 0 -2.6184805837381601e-05 6.9486888216448369e-06 0 -2.3457872638909784e-05 7.5413024800536763e-06 0 -3.3513160126556026e-05 1.0829329219517032e-05 0 -2.6184805837381601e-05 6.9486888216448369e-06 0 -2.041366352751342e-05 4.2219472457311414e-06 0 -2.3457872638909784e-05 7.5413024800536763e-06 0 -1.6969590325077991e-05 4.6073794625549857e-06 0 -2.3457872638909784e-05 7.5413024800536763e-06 0 -2.041366352751342e-05 4.2219472457311414e-06 0 -1.6969590325077991e-05 4.6073794625549857e-06 0 -1.9321045771896652e-05 8.0858794693097167e-06 0 -2.3457872638909784e-05 7.5413024800536763e-06 0 -2.6484360908804313e-05 1.1616623113008355e-05 0 -2.3457872638909784e-05 7.5413024800536763e-06 0 -1.9321045771896652e-05 8.0858794693097167e-06 0 -1.6969590325077991e-05 4.6073794625549857e-06 0 -1.360106267568847e-05 5.3274532838970675e-06 0 -1.9321045771896652e-05 8.0858794693097167e-06 0 -1.526810246851297e-05 9.567152734340134e-06 0 -1.9321045771896652e-05 8.0858794693097167e-06 0 -1.360106267568847e-05 5.3274532838970683e-06 0 -1.6969590325077991e-05 4.6073794625549857e-06 0 -1.1540919476138599e-05 2.2565005008149021e-06 0 -1.360106267568847e-05 5.3274532838970683e-06 0 -9.7715545997341606e-06 3.8066309615323713e-06 0 -1.0412878682428087e-05 6.4518850676049392e-06 0 -1.360106267568847e-05 5.3274532838970683e-06 0 -9.7715545997341606e-06 3.8066309615323713e-06 0 -1.360106267568847e-05 5.3274532838970683e-06 0 -1.1540919476138599e-05 2.2565005008149021e-06 0 -1.526810246851297e-05 9.567152734340134e-06 0 -1.3601062675688472e-05 5.3274532838970675e-06 0 -1.0412878682428087e-05 6.4518850676049392e-06 0 -1.526810246851297e-05 9.567152734340134e-06 0 -1.0412878682428087e-05 6.4518850676049392e-06 0 -1.0512813310965718e-05 1.110924960017423e-05 0 -1.526810246851297e-05 9.567152734340134e-06 0 -2.1721902707004728e-05 1.3247253631999743e-05 0 -1.9321045771896652e-05 8.0858794693097167e-06 0 -1.526810246851297e-05 9.567152734340134e-06 0 -1.7645125202022809e-05 1.6113249269967636e-05 0 -2.1721902707004728e-05 1.3247253631999743e-05 0 -1.526810246851297e-05 9.567152734340134e-06 0 -1.0512813310965718e-05 1.110924960017423e-05 0 -1.7645125202022813e-05 1.6113249269967636e-05 0 -9.8946176826943083e-06 1.6616627153451762e-05 0 -1.5837819405929066e-05 2.1955744380334352e-05 0 -1.7645125202022813e-05 1.6113249269967636e-05 0 -9.8946176826943083e-06 1.6616627153451762e-05 0 -1.7645125202022813e-05 1.6113249269967636e-05 0 -1.0512813310965718e-05 1.110924960017423e-05 0 -3.0804682182469122e-05 2.0473808010217232e-05 0 -1.7645125202022813e-05 1.6113249269967636e-05 0 -2.4325575529855305e-05 2.462155634892222e-05 0 -3.0804682182469122e-05 2.0473808010217232e-05 0 -2.1721902707004728e-05 1.3247253631999743e-05 0 -1.7645125202022813e-05 1.6113249269967636e-05 0 -1.7645125202022813e-05 1.6113249269967636e-05 0 -1.5837819405929066e-05 2.1955744380334352e-05 0 -2.4325575529855305e-05 2.462155634892222e-05 0 -2.1876031409625089e-05 3.297953442165556e-05 0 -1.5837819405929062e-05 2.1955744380334352e-05 0 -9.6671593979390524e-06 2.46279712822816e-05 0 -2.1876031409625089e-05 3.297953442165556e-05 0 -9.6671593979390524e-06 2.46279712822816e-05 0 -1.5649018045571821e-05 4.3898748848821127e-05 0 -2.1876031409625089e-05 3.297953442165556e-05 0 -1.5649018045571821e-05 4.3898748848821127e-05 0 -2.5672538186722985e-05 4.8298376456061308e-05 0 -2.1876031409625089e-05 3.297953442165556e-05 0 -2.5672538186722985e-05 4.8298376456061308e-05 0 -3.6839944197113315e-05 5.1603272573851653e-05 0 -2.1876031409625089e-05 3.297953442165556e-05 0 -3.6977148918458858e-05 3.5533070999400776e-05 0 -2.4325575529855305e-05 2.462155634892222e-05 0 -2.1876031409625089e-05 3.297953442165556e-05 0 -2.4325575529855302e-05 2.4621556348922217e-05 0 -1.5837819405929066e-05 2.1955744380334352e-05 0 -2.1876031409625089e-05 3.297953442165556e-05 0 -3.6839944197113315e-05 5.1603272573851653e-05 0 -3.6977148918458858e-05 3.5533070999400776e-05 0 -5.2320741304357838e-05 5.3906420135374165e-05 0 -3.6977148918458858e-05 3.5533070999400776e-05 0 -3.6839944197113315e-05 5.1603272573851653e-05 0 -5.2320741304357838e-05 5.3906420135374165e-05 0 -4.5478088819595851e-05 3.3464844854298327e-05 0 -3.6977148918458858e-05 3.5533070999400776e-05 0 -3.0804682182469122e-05 2.0473808010217232e-05 0 -3.6977148918458852e-05 3.5533070999400776e-05 0 -4.5478088819595851e-05 3.3464844854298327e-05 0 -3.0804682182469122e-05 2.0473808010217232e-05 0 -4.5478088819595851e-05 3.3464844854298327e-05 0 -4.4021478085039823e-05 2.4424416581327317e-05 0 -3.0804682182469122e-05 2.0473808010217232e-05 0 -2.4325575529855305e-05 2.462155634892222e-05 0 -3.6977148918458858e-05 3.5533070999400776e-05 0 -3.0804682182469122e-05 2.0473808010217232e-05 0 -4.4021478085039823e-05 2.4424416581327317e-05 0 -3.5683729812216842e-05 1.6496327809491401e-05 0 -4.3569253013405524e-05 1.8211995376597717e-05 0 -4.4021478085039823e-05 2.4424416581327317e-05 0 -5.5203086105798672e-05 2.7014193477530318e-05 0 -5.5828007273945811e-05 3.5248784895153705e-05 0 -5.5203086105798672e-05 2.7014193477530318e-05 0 -4.4021478085039823e-05 2.4424416581327317e-05 0 -5.5828007273945811e-05 3.5248784895153705e-05 0 -4.4021478085039823e-05 2.4424416581327317e-05 0 -4.5478088819595851e-05 3.3464844854298327e-05 0 -5.5828007273945811e-05 3.5248784895153705e-05 0 -4.5478088819595851e-05 3.3464844854298327e-05 0 -5.9835362168077164e-05 4.655849625382867e-05 0 -5.2320741304357838e-05 5.3906420135374165e-05 0 -5.9835362168077164e-05 4.655849625382867e-05 0 -4.5478088819595851e-05 3.3464844854298327e-05 0 -7.5298045953586608e-05 6.5835710065515686e-05 0 -7.1794924865367963e-05 4.8127380696094469e-05 0 -5.9835362168077164e-05 4.655849625382867e-05 0 -5.2320741304357838e-05 5.3906420135374165e-05 0 -7.5298045953586608e-05 6.5835710065515686e-05 0 -5.9835362168077164e-05 4.655849625382867e-05 0 -5.5828007273945811e-05 3.5248784895153705e-05 0 -5.9835362168077164e-05 4.655849625382867e-05 0 -7.1794924865367963e-05 4.8127380696094469e-05 0 -5.5828007273945811e-05 3.5248784895153705e-05 0 -7.1794924865367963e-05 4.8127380696094469e-05 0 -6.6643870475901408e-05 3.6577162869750624e-05 0 -9.3027305875377722e-05 6.1598417552539205e-05 0 -7.1794924865367963e-05 4.8127380696094469e-05 0 -7.5298045953586608e-05 6.5835710065515686e-05 0 -9.3027305875377722e-05 6.1598417552539205e-05 0 -8.1211492860770891e-05 4.4651891037345961e-05 0 -7.1794924865367963e-05 4.8127380696094469e-05 0 -8.1211492860770891e-05 4.4651891037345961e-05 0 -6.6643870475901408e-05 3.6577162869750624e-05 0 -7.1794924865367963e-05 4.8127380696094469e-05 0 -8.1211492860770891e-05 4.4651891037345961e-05 0 -6.8992141028303435e-05 3.1529229985389818e-05 0 -6.6643870475901408e-05 3.6577162869750624e-05 0 -6.8992141028303435e-05 3.1529229985389818e-05 0 -5.5203086105798672e-05 2.7014193477530318e-05 0 -6.6643870475901408e-05 3.6577162869750624e-05 0 -5.5828007273945811e-05 3.5248784895153705e-05 0 -6.6643870475901408e-05 3.6577162869750624e-05 0 -5.5203086105798672e-05 2.7014193477530318e-05 0 -6.8992141028303435e-05 3.1529229985389818e-05 0 -5.3451281009446541e-05 2.172876700828401e-05 0 -5.5203086105798672e-05 2.7014193477530318e-05 0 -6.2662889005666299e-06 5.6554664710525714e-06 0 -6.4467570309821127e-06 7.666544633026467e-06 0 -5.2860260496436585e-06 6.1862498203483025e-06 0 -5.7064987263145738e-06 9.290463612103659e-06 0 -5.2860260496436585e-06 6.1862498203483025e-06 0 -6.4467570309821127e-06 7.666544633026467e-06 0 -5.7064987263145738e-06 9.290463612103659e-06 0 -6.4467570309821127e-06 7.666544633026467e-06 0 -6.7839770477992976e-06 1.0705593705765293e-05 0 -6.2662889005666299e-06 5.6554664710525714e-06 0 -8.1719491544265572e-06 6.023449012308149e-06 0 -6.4467570309821127e-06 7.666544633026467e-06 0 -1.0352458015219098e-05 3.188695368358883e-06 0 -8.1719491544265572e-06 6.023449012308149e-06 0 -7.4674774444889803e-06 3.7154659419966561e-06 0 -6.2662889005666299e-06 5.6554664710525714e-06 0 -7.4674774444889794e-06 3.7154659419966561e-06 0 -8.1719491544265572e-06 6.023449012308149e-06 0 -1.0352458015219098e-05 3.188695368358883e-06 0 -7.4674774444889803e-06 3.7154659419966561e-06 0 -9.5221657194444652e-06 1.7254955019904622e-06 0 -6.2662889005666299e-06 5.6554664710525714e-06 0 -5.3183734273499026e-06 4.1800935892498183e-06 0 -7.4674774444889803e-06 3.7154659419966561e-06 0 -6.1459611183586116e-06 2.479143431771945e-06 0 -7.4674774444889803e-06 3.7154659419966565e-06 0 -5.3183734273499026e-06 4.1800935892498183e-06 0 -7.9402452758800357e-06 1.5310587698049368e-06 0 -7.4674774444889803e-06 3.7154659419966561e-06 0 -6.1459611183586116e-06 2.479143431771945e-06 0 -6.1459611183586116e-06 2.479143431771945e-06 0 -4.6070259870895217e-06 2.7741458654580035e-06 0 -5.1013710899508458e-06 1.8355918406716996e-06 0 -6.1459611183586116e-06 2.479143431771945e-06 0 -5.3183734273499026e-06 4.1800935892498183e-06 0 -4.6070259870895217e-06 2.7741458654580035e-06 0 -4.5665215591939021e-06 3.8210353486347244e-06 0 -4.6070259870895217e-06 2.7741458654580035e-06 0 -5.3183734273499026e-06 4.1800935892498183e-06 0 -6.2662889005666299e-06 5.6554664710525714e-06 0 -5.2860260496436585e-06 6.1862498203483025e-06 0 -5.3183734273499026e-06 4.1800935892498183e-06 0 -4.5665215591939021e-06 3.8210353486347244e-06 0 -5.3183734273499026e-06 4.1800935892498183e-06 0 -5.2860260496436585e-06 6.1862498203483025e-06 0 -4.5665215591939021e-06 3.8210353486347244e-06 0 -5.2860260496436585e-06 6.1862498203483025e-06 0 -5.2654034790761932e-06 4.8443537988225216e-06 0 -4.5665215591939021e-06 3.8210353486347244e-06 0 -5.2654034790761932e-06 4.8443537988225207e-06 0 -4.5418391178596425e-06 3.3394188362635292e-06 0 -5.2512908530185896e-06 2.3259450116825332e-06 0 -5.2654034790761932e-06 4.8443537988225216e-06 0 -7.1723388546766993e-06 4.1752028336519238e-06 0 -7.4048392607680271e-06 7.2641539452468567e-06 0 -5.2654034790761923e-06 4.8443537988225216e-06 0 -5.7625217515637903e-06 7.4673419761464116e-06 0 -7.4048392607680271e-06 7.2641539452468567e-06 0 -7.1723388546766993e-06 4.1752028336519238e-06 0 -5.2654034790761932e-06 4.8443537988225216e-06 0 -5.2654034790761932e-06 4.8443537988225216e-06 0 -5.2860260496436585e-06 6.1862498203483025e-06 0 -5.7625217515637903e-06 7.4673419761464116e-06 0 -9.7715545997341606e-06 3.8066309615323713e-06 0 -7.1723388546766993e-06 4.1752028336519238e-06 0 -1.0412878682428087e-05 6.4518850676049392e-06 0 -7.4048392607680271e-06 7.2641539452468567e-06 0 -1.0412878682428087e-05 6.4518850676049392e-06 0 -7.1723388546766993e-06 4.1752028336519238e-06 0 -7.4048392607680271e-06 7.2641539452468567e-06 0 -1.0512813310965718e-05 1.110924960017423e-05 0 -1.0412878682428087e-05 6.4518850676049392e-06 0 -7.4048392607680271e-06 7.2641539452468567e-06 0 -6.60800708601908e-06 1.1266921022609354e-05 0 -1.0512813310965718e-05 1.110924960017423e-05 0 -9.8946176826943083e-06 1.6616627153451762e-05 0 -1.0512813310965718e-05 1.110924960017423e-05 0 -6.60800708601908e-06 1.1266921022609354e-05 0 -5.7064987263145738e-06 9.290463612103659e-06 0 -5.7625217515637903e-06 7.4673419761464116e-06 0 -5.2860260496436585e-06 6.1862498203483025e-06 0 -7.4048392607680271e-06 7.2641539452468567e-06 0 -5.7625217515637903e-06 7.4673419761464108e-06 0 -6.60800708601908e-06 1.1266921022609354e-05 0 -5.7064987263145738e-06 9.290463612103659e-06 0 -6.60800708601908e-06 1.1266921022609354e-05 0 -5.7625217515637903e-06 7.4673419761464116e-06 0 -5.7064987263145738e-06 9.290463612103659e-06 0 -5.7713057353064576e-06 1.2960758169563605e-05 0 -6.60800708601908e-06 1.1266921022609354e-05 0 -5.7064987263145738e-06 9.290463612103659e-06 0 -6.7839770477992976e-06 1.0705593705765293e-05 0 -5.7713057353064576e-06 1.2960758169563605e-05 0 -6.60800708601908e-06 1.1266921022609354e-05 0 -5.7713057353064576e-06 1.2960758169563605e-05 0 -5.0784926837623572e-06 1.8086416643115065e-05 0 -6.5910896410045921e-06 1.453426598874694e-05 0 -5.0784926837623572e-06 1.8086416643115065e-05 0 -5.7713057353064576e-06 1.2960758169563605e-05 0 -6.5910896410045921e-06 1.453426598874694e-05 0 -6.7839770477992976e-06 1.0705593705765293e-05 0 -9.0359915661210178e-06 1.0571189561286097e-05 0 -6.5910896410045921e-06 1.453426598874694e-05 0 -5.7713057353064576e-06 1.2960758169563604e-05 0 -6.7839770477992976e-06 1.0705593705765293e-05 0 -9.8946176826943083e-06 1.6616627153451762e-05 0 -6.60800708601908e-06 1.1266921022609354e-05 0 -5.0784926837623572e-06 1.8086416643115065e-05 0 -9.8946176826943083e-06 1.6616627153451762e-05 0 -5.0784926837623572e-06 1.8086416643115065e-05 0 -9.6671593979390524e-06 2.46279712822816e-05 0 -9.8946176826943083e-06 1.6616627153451762e-05 0 -9.6671593979390524e-06 2.46279712822816e-05 0 -1.5837819405929066e-05 2.1955744380334352e-05 0 1.7832532111017099e-08 2.7235710962411843e-05 0 -9.6671593979390524e-06 2.46279712822816e-05 0 -5.0784926837623572e-06 1.8086416643115065e-05 0 1.7832532111017099e-08 2.7235710962411843e-05 0 -1.5649018045571821e-05 4.3898748848821127e-05 0 -9.6671593979390524e-06 2.46279712822816e-05 0 1.7832532111017099e-08 2.7235710962411843e-05 0 -5.0784926837623572e-06 1.8086416643115065e-05 0 -6.8445058913241169e-06 1.8535383067095003e-05 0 -6.5910896410045921e-06 1.453426598874694e-05 0 -1.0636088017326832e-05 1.1379861428972204e-05 0 -6.8445058913241169e-06 1.8535383067095003e-05 0 -6.5910896410045921e-06 1.453426598874694e-05 0 -9.0359915661210178e-06 1.0571189561286097e-05 0 -1.0636088017326832e-05 1.1379861428972204e-05 0 -6.5910896410045921e-06 1.453426598874694e-05 0 -6.8445058913241169e-06 1.8535383067095003e-05 0 -5.0784926837623572e-06 1.8086416643115065e-05 0 -1.2435291585164825e-05 8.6195364896004794e-06 0 -6.8445058913241169e-06 1.8535383067095003e-05 0 -1.0636088017326832e-05 1.1379861428972204e-05 0 -1.2435291585164825e-05 8.6195364896004794e-06 0 -1.0636088017326832e-05 1.1379861428972204e-05 0 -1.5611586160668225e-05 3.2485094058463465e-06 0 -1.3207548792363083e-05 6.3900993615218881e-06 0 -1.5611586160668225e-05 3.2485094058463465e-06 0 -1.0636088017326832e-05 1.1379861428972204e-05 0 -1.3207548792363083e-05 6.3900993615218881e-06 0 -1.0636088017326832e-05 1.1379861428972204e-05 0 -9.0359915661210178e-06 1.0571189561286097e-05 0 -8.9409315116202525e-06 8.3789086742866227e-06 0 -9.0359915661210178e-06 1.0571189561286097e-05 0 -6.7839770477992976e-06 1.0705593705765293e-05 0 -9.0359915661210178e-06 1.0571189561286097e-05 0 -8.9409315116202525e-06 8.3789086742866227e-06 0 -1.3207548792363083e-05 6.3900993615218881e-06 0 -8.9409315116202525e-06 8.3789086742866227e-06 0 -1.1881182576769093e-05 4.7827271569324662e-06 0 -1.3207548792363083e-05 6.3900993615218881e-06 0 -8.9409315116202525e-06 8.3789086742866227e-06 0 -8.1719491544265572e-06 6.023449012308149e-06 0 -1.1881182576769094e-05 4.7827271569324662e-06 0 -8.9409315116202525e-06 8.3789086742866227e-06 0 -6.4467570309821127e-06 7.666544633026467e-06 0 -8.1719491544265572e-06 6.023449012308149e-06 0 -8.9409315116202525e-06 8.3789086742866227e-06 0 -6.7839770477992976e-06 1.0705593705765293e-05 0 -6.4467570309821127e-06 7.666544633026467e-06 0 -1.0352458015219098e-05 3.188695368358883e-06 0 -1.1881182576769094e-05 4.7827271569324662e-06 0 -8.1719491544265572e-06 6.023449012308149e-06 0 -1.0352458015219098e-05 3.188695368358883e-06 0 -1.4454758935682708e-05 6.7999420923247625e-07 0 -1.1881182576769094e-05 4.7827271569324662e-06 0 -1.3207548792363083e-05 6.3900993615218881e-06 0 -1.6262486729362758e-05 1.2032519886486384e-06 0 -1.8812792724217739e-05 -2.4225344869245738e-06 0 -1.8567895023537272e-05 -2.5862031315776586e-06 0 -1.6262486729362758e-05 1.2032519886486384e-06 0 -1.4454758935682708e-05 6.7999420923247625e-07 0 -1.4454758935682708e-05 6.7999420923247625e-07 0 -1.6262486729362758e-05 1.2032519886486384e-06 0 -1.1881182576769094e-05 4.7827271569324662e-06 0 -1.3207548792363083e-05 6.3900993615218881e-06 0 -1.1881182576769094e-05 4.7827271569324662e-06 0 -1.6262486729362758e-05 1.2032519886486384e-06 0 -1.8567895023537272e-05 -2.5862031315776586e-06 0 -2.0557955673008465e-05 -5.0375427569921688e-06 0 -1.6262486729362758e-05 1.2032519886486384e-06 0 -1.8812792724217739e-05 -2.4225344869245738e-06 0 -1.6262486729362758e-05 1.2032519886486384e-06 0 -2.0557955673008465e-05 -5.0375427569921688e-06 0 -1.8812792724217739e-05 -2.4225344869245738e-06 0 -2.0557955673008465e-05 -5.0375427569921688e-06 0 -2.1089443840798117e-05 -8.1212141175403e-06 0 -1.9143022739448816e-05 -6.6995829611443375e-06 0 -1.8812792724217736e-05 -2.4225344869245742e-06 0 -2.1089443840798117e-05 -8.1212141175403e-06 0 -2.2998502712682943e-05 -9.6718771856505046e-06 0 -2.1089443840798117e-05 -8.1212141175403e-06 0 -2.0557955673008465e-05 -5.0375427569921688e-06 0 -2.2998502712682943e-05 -9.6718771856505046e-06 0 -2.2782337782952186e-05 -1.3845580783724282e-05 0 -2.1089443840798117e-05 -8.1212141175403e-06 0 -1.9143022739448816e-05 -6.6995829611443375e-06 0 -2.1089443840798113e-05 -8.1212141175403e-06 0 -2.2782337782952189e-05 -1.3845580783724284e-05 0 -2.2998502712682943e-05 -9.6718771856505046e-06 0 -2.5159962110476433e-05 -1.4183807448913124e-05 0 -2.2782337782952189e-05 -1.3845580783724284e-05 0 -1.6164500729938219e-05 -1.5361737471181501e-05 0 -1.5680646709433268e-05 -9.846205028693503e-06 0 -1.9256600200867847e-05 -1.4663362329685037e-05 0 -1.9143022739448816e-05 -6.6995829611443375e-06 0 -1.9256600200867847e-05 -1.4663362329685037e-05 0 -1.5680646709433268e-05 -9.846205028693503e-06 0 -1.9143022739448816e-05 -6.6995829611443375e-06 0 -2.2782337782952189e-05 -1.3845580783724284e-05 0 -1.9256600200867847e-05 -1.4663362329685037e-05 0 -1.9143022739448816e-05 -6.6995829611443375e-06 0 -1.5680646709433268e-05 -9.846205028693503e-06 0 -1.5106387998221665e-05 -2.102994582427199e-07 0 -1.3207548792363083e-05 6.3900993615218881e-06 0 -1.8812792724217739e-05 -2.4225344869245729e-06 0 -1.5611586160668225e-05 3.2485094058463465e-06 0 -1.9143022739448816e-05 -6.6995829611443375e-06 0 -1.5106387998221665e-05 -2.1029945824271834e-07 0 -1.5611586160668225e-05 3.2485094058463465e-06 0 -1.9143022739448816e-05 -6.6995829611443375e-06 0 -1.5611586160668225e-05 3.2485094058463465e-06 0 -1.8812792724217739e-05 -2.4225344869245738e-06 0 -1.2435291585164825e-05 8.6195364896004794e-06 0 -1.5611586160668225e-05 3.2485094058463465e-06 0 -1.5106387998221665e-05 -2.102994582427199e-07 0 -1.2435291585164825e-05 8.6195364896004794e-06 0 -1.0286712390566484e-05 9.2417176122878048e-06 0 -6.8445058913241169e-06 1.8535383067095003e-05 0 -1.2435291585164825e-05 8.6195364896004794e-06 0 -1.5106387998221665e-05 -2.1029945824271995e-07 0 -1.0286712390566484e-05 9.2417176122878048e-06 0 1.7832532111017099e-08 2.7235710962411843e-05 0 -6.844505891324116e-06 1.8535383067095007e-05 0 -1.0286712390566484e-05 9.2417176122878048e-06 0 -1.6805325924864242e-06 1.7684336304567592e-06 0 -1.0286712390566484e-05 9.2417176122878048e-06 0 -1.0397391536496593e-05 -5.0726046170154444e-06 0 -1.0397391536496593e-05 -5.0726046170154444e-06 0 -1.0286712390566484e-05 9.2417176122878048e-06 0 -1.5106387998221665e-05 -2.102994582427199e-07 0 -1.5649018045571821e-05 4.3898748848821127e-05 0 1.7832532111017159e-08 2.7235710962411843e-05 0 -1.0980095055114973e-05 7.0387597508883438e-05 0 1.7832532111017099e-08 2.7235710962411843e-05 0 -1.0286712390566484e-05 9.2417176122878048e-06 0 -1.6805325924864242e-06 1.7684336304567592e-06 0 1.4379421087957914e-06 2.4273074372685585e-05 0 5.3451690555303495e-06 3.7333087507236073e-05 0 1.7832532111017099e-08 2.7235710962411843e-05 0 1.0693070767863375e-05 6.7966438528289832e-05 0 -1.0980095055114973e-05 7.0387597508883438e-05 0 1.3862771376524391e-05 9.7282793082806263e-05 0 -1.5799393901927442e-05 9.5713437224212113e-05 0 -1.0980095055114973e-05 7.0387597508883438e-05 0 5.3451690555303495e-06 3.7333087507236073e-05 0 4.4014340652324124e-06 4.3786162385333984e-05 0 -1.6805325924864242e-06 1.7684336304567592e-06 0 -1.0397391536496593e-05 -5.0726046170154444e-06 0 -5.5747052322100969e-06 -7.5019389092634566e-06 0 1.0693070767863375e-05 6.7966438528289832e-05 0 1.3862771376524391e-05 9.7282793082806263e-05 0 -1.0980095055114973e-05 7.0387597508883438e-05 0 4.4014340652324124e-06 4.3786162385333984e-05 0 3.1920217995493785e-06 5.6114522617597912e-05 0 -5.5747052322100969e-06 -7.5019389092634566e-06 0 -1.1489540731772988e-05 -1.2423054341035669e-05 0 -9.0757997090244997e-06 -1.3037181285878367e-05 0 1.3862771376524391e-05 9.7282793082806263e-05 0 -2.4318859083517576e-06 0.00011607011807962346 0 -1.5799393901927442e-05 9.5713437224212113e-05 0 -1.0397391536496593e-05 -5.0726046170154444e-06 0 -1.5106387998221665e-05 -2.102994582427199e-07 0 -1.5680646709433268e-05 -9.846205028693503e-06 0 -5.5747052322100969e-06 -7.5019389092634566e-06 0 -1.0397391536496593e-05 -5.0726046170154436e-06 0 -1.1489540731772988e-05 -1.2423054341035669e-05 0 -1.0397391536496593e-05 -5.0726046170154444e-06 0 -1.5680646709433264e-05 -9.846205028693503e-06 0 -1.1489540731772988e-05 -1.2423054341035669e-05 0 -1.6164500729938219e-05 -1.5361737471181501e-05 0 -1.1489540731772988e-05 -1.2423054341035669e-05 0 -1.5680646709433268e-05 -9.846205028693503e-06 0 -1.6164500729938219e-05 -1.5361737471181501e-05 0 -1.4605074747119393e-05 -1.8107564037685093e-05 0 -1.1489540731772988e-05 -1.2423054341035669e-05 0 -9.0757997090244997e-06 -1.3037181285878367e-05 0 -1.1489540731772988e-05 -1.2423054341035667e-05 0 -1.4605074747119393e-05 -1.8107564037685093e-05 0 -9.0757997090244997e-06 -1.3037181285878367e-05 0 -1.4605074747119393e-05 -1.8107564037685093e-05 0 -1.1873565912260849e-05 -1.7191305790879619e-05 0 -1.6164500729938219e-05 -1.5361737471181501e-05 0 -1.8722375997075683e-05 -1.9474120829876215e-05 0 -1.4605074747119393e-05 -1.8107564037685093e-05 0 -2.0858803712226325e-05 0.00012530256866181771 0 -2.4318859083517576e-06 0.00011607011807962346 0 -1.0245714968788776e-06 0.00013384559086627136 0 1.5291461371452585e-05 0.00012429317489837468 0 -1.0245714968788776e-06 0.00013384559086627136 0 -2.4318859083517576e-06 0.00011607011807962346 0 1.3862771376524391e-05 9.7282793082806263e-05 0 1.5291461371452585e-05 0.00012429317489837468 0 -2.4318859083517576e-06 0.00011607011807962346 0 3.1920217995493785e-06 5.6114522617597912e-05 0 1.6086439821873834e-06 6.6978960913796119e-05 0 1.5291461371452585e-05 0.00012429317489837468 0 1.5341048217849345e-05 0.00015160568913375789 0 -1.0245714968788776e-06 0.00013384559086627136 0 1.5341048217849345e-05 0.00015160568913375792 0 -1.1690890446847194e-05 0.00014997494106512669 0 -1.0245714968788776e-06 0.00013384559086627136 0 1.5341048217849345e-05 0.00015160568913375792 0 -5.6253287192935899e-06 0.0001682648358993302 0 -1.1690890446847194e-05 0.00014997494106512669 0 1.5341048217849345e-05 0.00015160568913375792 0 1.4566037435372199e-05 0.00017906908658739095 0 -5.6253287192935899e-06 0.0001682648358993302 0 -1.1873565912260849e-05 -1.7191305790879619e-05 0 -1.5923188039039685e-05 -2.1767046693266099e-05 0 -1.4520165381305623e-05 -2.0972030764252672e-05 0 1.6086439821873834e-06 6.6978960913796119e-05 0 -2.9147968673739616e-07 7.9009611098403097e-05 0 1.4566037435372199e-05 0.00017906908658739095 0 -1.298402725598414e-05 0.00018779920893825208 0 -5.6253287192935899e-06 0.0001682648358993302 0 -1.8602789176895937e-05 -2.2720153858791043e-05 0 -1.5923188039039685e-05 -2.1767046693266099e-05 0 -1.4605074747119393e-05 -1.8107564037685093e-05 0 -1.8602789176895937e-05 -2.2720153858791043e-05 0 -1.4605074747119393e-05 -1.8107564037685093e-05 0 -1.8722375997075683e-05 -1.9474120829876215e-05 0 -1.1873565912260849e-05 -1.7191305790879619e-05 0 -1.4605074747119393e-05 -1.8107564037685096e-05 0 -1.5923188039039685e-05 -2.1767046693266099e-05 0 -1.8602789176895937e-05 -2.2720153858791043e-05 0 -2.0373169337508692e-05 -2.6196201465462119e-05 0 -1.5923188039039685e-05 -2.1767046693266099e-05 0 -1.8503690796756514e-05 -2.6181431385312162e-05 0 -1.5923188039039685e-05 -2.1767046693266099e-05 0 -2.0373169337508692e-05 -2.6196201465462119e-05 0 -1.8602789176895937e-05 -2.2720153858791043e-05 0 -2.2699623972173996e-05 -2.4248926523726663e-05 0 -2.0373169337508692e-05 -2.6196201465462119e-05 0 -2.3542368795341463e-05 -2.9079915529007702e-05 0 -2.0373169337508692e-05 -2.6196201465462119e-05 0 -2.2699623972173996e-05 -2.4248926523726663e-05 0 -1.8602789176895937e-05 -2.2720153858791043e-05 0 -1.8722375997075683e-05 -1.9474120829876215e-05 0 -2.2699623972173996e-05 -2.4248926523726663e-05 0 -2.1883883229091e-05 -1.9684436289556921e-05 0 -2.4598139172202223e-05 -2.0114193393348486e-05 0 -2.2699623972173996e-05 -2.4248926523726663e-05 0 -2.1883883229091e-05 -1.9684436289556921e-05 0 -2.2699623972173996e-05 -2.4248926523726663e-05 0 -1.8722375997075683e-05 -1.9474120829876215e-05 0 -2.6293430098878215e-05 -2.40735290430955e-05 0 -2.6553019182778472e-05 -2.9348320846306121e-05 0 -2.2699623972173996e-05 -2.4248926523726663e-05 0 -2.6293430098878215e-05 -2.40735290430955e-05 0 -2.8750018343132959e-05 -2.627547868608575e-05 0 -2.6553019182778472e-05 -2.9348320846306121e-05 0 -2.6293430098878215e-05 -2.40735290430955e-05 0 -2.4598139172202223e-05 -2.0114193393348486e-05 0 -2.78194944570737e-05 -2.2033151968789075e-05 0 -2.6293430098878215e-05 -2.40735290430955e-05 0 -2.2699623972173996e-05 -2.4248926523726663e-05 0 -2.4598139172202223e-05 -2.0114193393348486e-05 0 -2.1883883229091e-05 -1.9684436289556921e-05 0 -2.2782337782952189e-05 -1.3845580783724284e-05 0 -2.4598139172202223e-05 -2.0114193393348486e-05 0 -2.5828702883403276e-05 -1.7960035221279639e-05 0 -2.78194944570737e-05 -2.2033151968789075e-05 0 -2.4598139172202223e-05 -2.0114193393348486e-05 0 -2.5828702883403276e-05 -1.7960035221279639e-05 0 -2.4598139172202223e-05 -2.0114193393348486e-05 0 -2.2782337782952189e-05 -1.3845580783724284e-05 0 -2.5828702883403276e-05 -1.7960035221279639e-05 0 -2.2782337782952189e-05 -1.3845580783724284e-05 0 -2.5159962110476433e-05 -1.4183807448913124e-05 0 -2.1883883229091e-05 -1.9684436289556921e-05 0 -1.9256600200867847e-05 -1.4663362329685037e-05 0 -2.2782337782952189e-05 -1.3845580783724284e-05 0 -1.6164500729938219e-05 -1.5361737471181501e-05 0 -1.9256600200867847e-05 -1.4663362329685037e-05 0 -1.8722375997075683e-05 -1.9474120829876215e-05 0 -2.1883883229091e-05 -1.9684436289556921e-05 0 -1.8722375997075683e-05 -1.9474120829876215e-05 0 -1.9256600200867847e-05 -1.4663362329685037e-05 0 -0.00011326277018443031 0.00010611071928416607 0 -9.21312781781443e-05 9.1094863119972567e-05 0 -9.3780388121668105e-05 0.00011438300501259032 0 -0.00012072452754957864 0.00013204965855610222 0 -0.00011326277018443031 0.00010611071928416607 0 -9.3780388121668105e-05 0.00011438300501259032 0 -7.5905675243751456e-05 9.0610063634060262e-05 0 -9.3780388121668105e-05 0.00011438300501259032 0 -9.21312781781443e-05 9.1094863119972567e-05 0 -0.00011326277018443031 0.00010611071928416607 0 -0.00010353597913731595 8.2129384916408926e-05 0 -9.21312781781443e-05 9.1094863119972567e-05 0 -0.00010353597913731595 8.2129384916408926e-05 0 -9.3027305875377722e-05 6.1598417552539205e-05 0 -7.5298045953586608e-05 6.5835710065515686e-05 0 -7.5905675243751456e-05 9.0610063634060262e-05 0 -9.21312781781443e-05 9.1094863119972567e-05 0 -7.5298045953586608e-05 6.5835710065515686e-05 0 -0.00010353597913731595 8.2129384916408926e-05 0 -7.5298045953586608e-05 6.5835710065515686e-05 0 -9.21312781781443e-05 9.1094863119972567e-05 0 -7.5905675243751456e-05 9.0610063634060262e-05 0 -7.5298045953586608e-05 6.5835710065515686e-05 0 -6.2041553271535057e-05 7.5271149513638047e-05 0 -5.2320741304357838e-05 5.3906420135374165e-05 0 -6.2041553271535057e-05 7.5271149513638047e-05 0 -7.5298045953586608e-05 6.5835710065515686e-05 0 -4.8486794710393402e-05 7.7965629965889244e-05 0 -6.2690377905222453e-05 9.2147584258626963e-05 0 -6.2041553271535057e-05 7.5271149513638047e-05 0 -7.5905675243751456e-05 9.0610063634060262e-05 0 -6.2041553271535057e-05 7.5271149513638047e-05 0 -6.2690377905222453e-05 9.2147584258626963e-05 0 -7.5905675243751456e-05 9.0610063634060262e-05 0 -6.2690377905222453e-05 9.2147584258626963e-05 0 -7.2665334665671487e-05 0.00011162132439054948 0 -7.5905675243751456e-05 9.0610063634060262e-05 0 -7.2665334665671487e-05 0.00011162132439054948 0 -9.3780388121668105e-05 0.00011438300501259032 0 -5.4118383863787449e-05 0.00010740336190540108 0 -7.2665334665671487e-05 0.00011162132439054948 0 -6.2690377905222453e-05 9.2147584258626963e-05 0 -5.4118383863787449e-05 0.00010740336190540108 0 -3.5434569541144762e-05 0.00010032507590935394 0 -4.3577686822686662e-05 0.00012734629801234074 0 -5.4118383863787449e-05 0.00010740336190540108 0 -4.8486794710393402e-05 7.7965629965889244e-05 0 -3.5434569541144762e-05 0.00010032507590935394 0 -2.8768885372373015e-05 6.9158599931923575e-05 0 -3.5434569541144769e-05 0.00010032507590935394 0 -4.8486794710393402e-05 7.7965629965889244e-05 0 -5.4118383863787449e-05 0.00010740336190540108 0 -6.2690377905222453e-05 9.2147584258626963e-05 0 -4.8486794710393402e-05 7.7965629965889244e-05 0 -5.2320741304357838e-05 5.3906420135374165e-05 0 -4.8486794710393402e-05 7.7965629965889244e-05 0 -6.2041553271535057e-05 7.5271149513638047e-05 0 -5.2320741304357838e-05 5.3906420135374165e-05 0 -3.6839944197113315e-05 5.1603272573851653e-05 0 -4.8486794710393402e-05 7.7965629965889244e-05 0 -2.8768885372373015e-05 6.9158599931923575e-05 0 -4.8486794710393402e-05 7.7965629965889244e-05 0 -3.6839944197113315e-05 5.1603272573851653e-05 0 -2.8768885372373015e-05 6.9158599931923575e-05 0 -3.6839944197113315e-05 5.160327257385166e-05 0 -2.5672538186722985e-05 4.8298376456061308e-05 0 -2.8768885372373015e-05 6.9158599931923575e-05 0 -2.5672538186722988e-05 4.8298376456061315e-05 0 -1.5649018045571821e-05 4.3898748848821127e-05 0 -2.8768885372373015e-05 6.9158599931923575e-05 0 -1.5649018045571821e-05 4.3898748848821127e-05 0 -1.0980095055114973e-05 7.0387597508883438e-05 0 -2.8768885372373015e-05 6.9158599931923575e-05 0 -1.0980095055114973e-05 7.0387597508883438e-05 0 -1.5799393901927442e-05 9.5713437224212113e-05 0 -2.8768885372373015e-05 6.9158599931923575e-05 0 -1.5799393901927442e-05 9.5713437224212113e-05 0 -3.5434569541144762e-05 0.00010032507590935394 0 -2.0858803712226325e-05 0.00012530256866181771 0 -3.5434569541144762e-05 0.00010032507590935394 0 -1.5799393901927442e-05 9.5713437224212113e-05 0 -2.0858803712226325e-05 0.00012530256866181771 0 -1.5799393901927442e-05 9.5713437224212113e-05 0 -2.4318859083517576e-06 0.00011607011807962346 0 -2.0858803712226325e-05 0.00012530256866181771 0 -4.3577686822686669e-05 0.00012734629801234074 0 -3.5434569541144762e-05 0.00010032507590935394 0 -2.0858803712226325e-05 0.00012530256866181771 0 -3.2252451249049902e-05 0.00014428524692794304 0 -4.3577686822686662e-05 0.00012734629801234074 0 -2.0858803712226325e-05 0.00012530256866181771 0 -1.1690890446847194e-05 0.00014997494106512669 0 -3.2252451249049902e-05 0.00014428524692794304 0 -2.0858803712226325e-05 0.00012530256866181771 0 -1.0245714968788776e-06 0.00013384559086627136 0 -1.1690890446847194e-05 0.00014997494106512669 0 -1.1690890446847194e-05 0.00014997494106512669 0 -5.6253287192935899e-06 0.0001682648358993302 0 -3.1601359068109384e-05 0.00017006503269999449 0 -5.6253287192935899e-06 0.0001682648358993302 0 -1.298402725598414e-05 0.00018779920893825208 0 -3.1601359068109384e-05 0.00017006503269999449 0 -3.1601359068109384e-05 0.00017006503269999449 0 -3.2252451249049902e-05 0.00014428524692794304 0 -1.1690890446847194e-05 0.00014997494106512669 0 -3.1601359068109384e-05 0.00017006503269999449 0 -5.24439341513849e-05 0.00014869821212887559 0 -3.2252451249049902e-05 0.00014428524692794304 0 -3.1601359068109384e-05 0.00017006503269999449 0 -5.8123396107730254e-05 0.00017299822107634619 0 -5.24439341513849e-05 0.00014869821212887559 0 -3.1601359068109384e-05 0.00017006503269999449 0 -5.4500345167480322e-05 0.0001961434091667 0 -5.8123396107730254e-05 0.00017299822107634619 0 -7.5759570348260622e-05 0.00017135587158671709 0 -5.24439341513849e-05 0.00014869821212887556 0 -5.8123396107730254e-05 0.00017299822107634619 0 -7.5759570348260622e-05 0.00017135587158671709 0 -6.6479949608625076e-05 0.00013622188571327956 0 -5.24439341513849e-05 0.00014869821212887559 0 -5.24439341513849e-05 0.00014869821212887559 0 -6.6479949608625076e-05 0.00013622188571327956 0 -4.3577686822686662e-05 0.00012734629801234074 0 -5.24439341513849e-05 0.00014869821212887559 0 -4.3577686822686662e-05 0.00012734629801234074 0 -3.2252451249049902e-05 0.00014428524692794304 0 -5.4118383863787449e-05 0.00010740336190540108 0 -4.3577686822686662e-05 0.00012734629801234074 0 -6.6479949608625076e-05 0.00013622188571327956 0 -5.4118383863787449e-05 0.00010740336190540108 0 -6.6479949608625076e-05 0.00013622188571327956 0 -7.2665334665671487e-05 0.00011162132439054948 0 -8.4090392676254065e-05 0.00013216746868665184 0 -7.2665334665671487e-05 0.00011162132439054948 0 -6.6479949608625076e-05 0.00013622188571327956 0 -8.4090392676254065e-05 0.00013216746868665184 0 -9.3780388121668105e-05 0.00011438300501259032 0 -7.2665334665671487e-05 0.00011162132439054948 0 -8.4090392676254065e-05 0.00013216746868665184 0 -8.6222680497529734e-05 0.00015170322256357203 0 -0.00010342316045134849 0.0001471715054741644 0 -8.4090392676254065e-05 0.00013216746868665184 0 -6.6479949608625076e-05 0.00013622188571327956 0 -8.6222680497529734e-05 0.00015170322256357203 0 -7.5759570348260622e-05 0.00017135587158671709 0 -8.6222680497529747e-05 0.00015170322256357206 0 -6.6479949608625076e-05 0.00013622188571327956 0 -7.5759570348260622e-05 0.00017135587158671709 0 -5.8123396107730254e-05 0.00017299822107634619 0 -7.5297827157612973e-05 0.00019650643980245668 0 -7.5759570348260622e-05 0.00017135587158671709 0 -9.1460451000567006e-05 0.00019027358587732211 0 -0.00010224654405766655 0.00017234367123597087 0 -7.5759570348260622e-05 0.00017135587158671709 0 -0.00010224654405766655 0.00017234367123597087 0 -8.6222680497529734e-05 0.00015170322256357203 0 -0.00010224654405766655 0.00017234367123597087 0 -0.00010342316045134849 0.0001471715054741644 0 -8.6222680497529734e-05 0.00015170322256357203 0 -0.00013021636766674858 0.00018750210797574343 0 -0.00012641113857196805 0.00015959465979401539 0 -0.00010224654405766655 0.00017234367123597087 0 -0.00013021636766674858 0.00018750210797574343 0 -0.00010224654405766655 0.00017234367123597087 0 -0.00010977955361422141 0.00019850631046174679 0 -0.00012641113857196805 0.00015959465979401539 0 -0.00010342316045134849 0.0001471715054741644 0 -0.00010224654405766655 0.00017234367123597087 0 -0.00012641113857196805 0.00015959465979401539 0 -0.00012072452754957864 0.00013204965855610222 0 -0.00010342316045134849 0.0001471715054741644 0 -8.4090392676254065e-05 0.00013216746868665184 0 -0.00010342316045134849 0.0001471715054741644 0 -9.3780388121668105e-05 0.00011438300501259032 0 -0.00012072452754957864 0.00013204965855610222 0 -9.3780388121668105e-05 0.00011438300501259032 0 -0.00010342316045134849 0.0001471715054741644 0 -0.00013354157250597301 0.00024261590634412861 0 -0.0001006312559300218 0.0002432510657993818 0 -0.00011049179760908941 0.00026847190320763341 0 -0.00013354157250597301 0.00024261590634412861 0 -0.00011363865828328851 0.00022316274318513515 0 -0.0001006312559300218 0.0002432510657993818 0 -9.4629266668000105e-05 0.00021279060116793949 0 -0.0001006312559300218 0.0002432510657993818 0 -0.00011363865828328851 0.00022316274318513515 0 -0.00013354157250597301 0.00024261590634412861 0 -0.00013254408515023678 0.00021530860814237041 0 -0.00011363865828328851 0.00022316274318513515 0 -0.00013254408515023678 0.00021530860814237041 0 -0.00010977955361422141 0.00019850631046174679 0 -0.00011363865828328851 0.00022316274318513515 0 -0.00013254408515023678 0.00021530860814237041 0 -0.00013021636766674858 0.00018750210797574343 0 -0.00010977955361422141 0.00019850631046174679 0 -0.00010224654405766655 0.00017234367123597087 0 -9.1460451000567006e-05 0.00019027358587732211 0 -0.00010977955361422141 0.00019850631046174679 0 -9.4629266668000105e-05 0.00021279060116793949 0 -0.00011363865828328851 0.00022316274318513515 0 -0.00010977955361422141 0.00019850631046174679 0 -9.4629266668000105e-05 0.00021279060116793949 0 -9.1460451000567006e-05 0.00019027358587732211 0 -7.5297827157612973e-05 0.00019650643980245668 0 -9.4629266668000105e-05 0.00021279060116793949 0 -0.00010977955361422141 0.00019850631046174679 0 -9.1460451000567006e-05 0.00019027358587732211 0 -7.5759570348260622e-05 0.00017135587158671709 0 -7.5297827157612973e-05 0.00019650643980245668 0 -9.1460451000567006e-05 0.00019027358587732211 0 -9.4629266668000105e-05 0.00021279060116793949 0 -7.5297827157612973e-05 0.00019650643980245668 0 -7.6654344069152999e-05 0.00022078620629472487 0 -0.0001006312559300218 0.0002432510657993818 0 -7.6654344069152999e-05 0.00022078620629472487 0 -7.6329509842076876e-05 0.00024546508622706498 0 -9.4629266668000105e-05 0.00021279060116793949 0 -7.6654344069152999e-05 0.00022078620629472487 0 -0.0001006312559300218 0.0002432510657993818 0 -8.6182343920770046e-05 0.00027119044642056321 0 -0.0001006312559300218 0.0002432510657993818 0 -7.6329509842076876e-05 0.00024546508622706498 0 -5.9181295393630273e-05 0.00022925188980088429 0 -5.9108671209699214e-05 0.00025887878312576246 0 -7.6329509842076876e-05 0.00024546508622706498 0 -5.9181295393630273e-05 0.00022925188980088429 0 -4.0677716756705736e-05 0.00023994320680237276 0 -5.9108671209699221e-05 0.00025887878312576246 0 -5.9181295393630273e-05 0.00022925188980088429 0 -4.2892963950457781e-05 0.00021364900071239648 0 -4.0677716756705736e-05 0.00023994320680237276 0 -5.9181295393630273e-05 0.00022925188980088429 0 -7.6329509842076876e-05 0.00024546508622706498 0 -7.6654344069152999e-05 0.00022078620629472487 0 -5.4500345167480322e-05 0.0001961434091667 0 -7.6654344069152999e-05 0.00022078620629472487 0 -7.5297827157612973e-05 0.00019650643980245668 0 -5.9181295393630273e-05 0.00022925188980088429 0 -7.6654344069152999e-05 0.00022078620629472487 0 -5.4500345167480322e-05 0.0001961434091667 0 -5.4500345167480322e-05 0.0001961434091667 0 -7.5297827157612973e-05 0.00019650643980245668 0 -5.8123396107730254e-05 0.00017299822107634619 0 -5.4500345167480322e-05 0.0001961434091667 0 -3.3369339327604195e-05 0.00019646238064948817 0 -4.2892963950457774e-05 0.00021364900071239648 0 -5.9181295393630273e-05 0.00022925188980088429 0 -5.4500345167480328e-05 0.0001961434091667 0 -4.2892963950457774e-05 0.00021364900071239648 0 -2.3989259218848443e-05 0.00021340621553683591 0 -4.2892963950457774e-05 0.00021364900071239648 0 -3.3369339327604201e-05 0.00019646238064948817 0 -3.1601359068109384e-05 0.00017006503269999449 0 -1.298402725598414e-05 0.00018779920893825208 0 -3.3369339327604201e-05 0.00019646238064948817 0 -3.1601359068109384e-05 0.00017006503269999449 0 -3.3369339327604201e-05 0.00019646238064948817 0 -5.4500345167480322e-05 0.0001961434091667 0 -2.3989259218848443e-05 0.00021340621553683591 0 -3.3369339327604201e-05 0.00019646238064948817 0 -1.298402725598414e-05 0.00018779920893825208 0 -2.3989259218848443e-05 0.00021340621553683591 0 -1.298402725598414e-05 0.00018779920893825208 0 -3.1754770360319421e-06 0.00020188524220166263 0 -2.3989259218848443e-05 0.00021340621553683591 0 -1.8916417942158254e-05 0.00024245474219016574 0 -4.0677716756705736e-05 0.00023994320680237276 0 -2.3989259218848443e-05 0.00021340621553683591 0 -5.8032410040771146e-06 0.00022054907173009022 0 -1.8916417942158254e-05 0.00024245474219016574 0 -2.3989259218848443e-05 0.00021340621553683591 0 -4.0677716756705736e-05 0.00023994320680237276 0 -4.2892963950457774e-05 0.00021364900071239648 0 -3.6438196892528946e-05 0.00027012456278798321 0 -4.0677716756705736e-05 0.00023994320680237276 0 -1.8916417942158254e-05 0.00024245474219016574 0 -3.6438196892528946e-05 0.00027012456278798321 0 -1.8916417942158254e-05 0.00024245474219016574 0 -1.3605584731134253e-05 0.00026588278263191121 0 -3.6438196892528946e-05 0.00027012456278798321 0 -1.9843233012605338e-05 0.00028929021856545007 0 -4.091224554155534e-05 0.00029601225278137413 0 -3.6438196892528946e-05 0.00027012456278798321 0 -1.3605584731134251e-05 0.00026588278263191121 0 -1.9843233012605335e-05 0.00028929021856545007 0 -1.9843233012605335e-05 0.00028929021856545007 0 -2.8571171774407389e-05 0.00030476842534373378 0 -4.091224554155534e-05 0.00029601225278137413 0 -1.9843233012605335e-05 0.00028929021856545007 0 -1.0709301187553664e-05 0.00030081502480583042 0 -2.8571171774407389e-05 0.00030476842534373378 0 -1.8494470059235916e-05 0.00031462761937610552 0 -2.8571171774407389e-05 0.00030476842534373378 0 -1.0709301187553664e-05 0.00030081502480583042 0 -1.8494470059235916e-05 0.00031462761937610552 0 -3.9437898298272934e-05 0.00031716855400612445 0 -2.8571171774407389e-05 0.00030476842534373378 0 -3.9437898298272934e-05 0.00031716855400612445 0 -4.091224554155534e-05 0.00029601225278137413 0 -2.8571171774407389e-05 0.00030476842534373378 0 -6.1326747148874279e-05 0.00031830901480507385 0 -8.2492165322121372e-05 0.00029645538534942348 0 -6.1208891161215962e-05 0.00028805760405715888 0 -6.1326747148874279e-05 0.00031830901480507385 0 -6.1208891161215962e-05 0.00028805760405715888 0 -4.091224554155534e-05 0.00029601225278137413 0 -3.9437898298272934e-05 0.00031716855400612445 0 -6.1326747148874279e-05 0.00031830901480507385 0 -4.091224554155534e-05 0.00029601225278137413 0 -8.6182343920770046e-05 0.00027119044642056321 0 -5.9108671209699221e-05 0.00025887878312576246 0 -6.1208891161215962e-05 0.00028805760405715888 0 -3.6438196892528946e-05 0.00027012456278798321 0 -4.091224554155534e-05 0.00029601225278137413 0 -6.1208891161215962e-05 0.00028805760405715888 0 -3.6438196892528946e-05 0.00027012456278798321 0 -6.1208891161215962e-05 0.00028805760405715888 0 -5.9108671209699221e-05 0.00025887878312576246 0 -3.6438196892528946e-05 0.00027012456278798321 0 -5.9108671209699221e-05 0.00025887878312576246 0 -4.0677716756705736e-05 0.00023994320680237276 0 -8.6182343920770046e-05 0.00027119044642056321 0 -7.6329509842076876e-05 0.00024546508622706498 0 -5.9108671209699221e-05 0.00025887878312576246 0 -8.6182343920770046e-05 0.00027119044642056321 0 -0.00011049179760908941 0.00026847190320763341 0 -0.0001006312559300218 0.0002432510657993818 0 -8.6182343920770046e-05 0.00027119044642056321 0 -8.2492165322121372e-05 0.00029645538534942348 0 -0.00010580230307917748 0.00029139833687396894 0 -8.6182343920770046e-05 0.00027119044642056321 0 -0.00010580230307917748 0.00029139833687396894 0 -0.00011049179760908941 0.00026847190320763341 0 -8.6182343920770046e-05 0.00027119044642056321 0 -6.1208891161215948e-05 0.00028805760405715882 0 -8.2492165322121372e-05 0.00029645538534942348 0 -6.1326747148874279e-05 0.00031830901480507385 0 -8.4629410260071906e-05 0.0003186958448475511 0 -8.2492165322121372e-05 0.00029645538534942348 0 -8.4629410260071906e-05 0.0003186958448475511 0 -0.00010890084372241115 0.00031914086321491262 0 -9.6603462285194727e-05 0.00030644951279846258 0 -8.4629410260071906e-05 0.0003186958448475511 0 -9.6603462285194727e-05 0.00030644951279846258 0 -8.2492165322121372e-05 0.00029645538534942348 0 -0.00010580230307917748 0.00029139833687396894 0 -8.2492165322121372e-05 0.00029645538534942348 0 -9.6603462285194727e-05 0.00030644951279846258 0 -0.00010580230307917748 0.00029139833687396894 0 -9.6603462285194727e-05 0.00030644951279846258 0 -0.00011712387484744818 0.00030520867103178809 0 -0.00010890084372241115 0.00031914086321491262 0 -0.00011712387484744818 0.00030520867103178809 0 -9.6603462285194727e-05 0.00030644951279846258 0 -0.00013372192265903221 0.00031926174522751966 0 -0.00011712387484744818 0.00030520867103178809 0 -0.00010890084372241115 0.00031914086321491262 0 -0.00013372192265903221 0.00031926174522751966 0 -0.00013382466423545551 0.00029443733632750186 0 -0.00011712387484744818 0.00030520867103178809 0 -0.00013382466423545551 0.00029443733632750186 0 -0.00010580230307917748 0.00029139833687396894 0 -0.00011712387484744818 0.00030520867103178809 0 -0.00013382466423545551 0.00029443733632750186 0 -0.00013387787698979434 0.0002689304881997808 0 -0.00011049179760908941 0.00026847190320763341 0 -0.00013382466423545551 0.00029443733632750186 0 -0.00011049179760908941 0.00026847190320763341 0 -0.00010580230307917748 0.00029139833687396894 0 -0.00013387787698979434 0.0002689304881997808 0 -0.00013354157250597301 0.00024261590634412861 0 -0.00011049179760908941 0.00026847190320763341 0 -2.7245182047103186e-05 -3.7433763457764983e-05 0 -2.491418278631894e-05 -3.3019951497296531e-05 0 -2.7559013135804474e-05 -3.4085688806133133e-05 0 -2.3391521197145562e-05 -3.3582030821723007e-05 0 -2.491418278631894e-05 -3.3019951497296531e-05 0 -2.5421418044507729e-05 -3.7119419722934422e-05 0 -2.3391521197145562e-05 -3.3582030821723007e-05 0 -2.2178893867710336e-05 -3.0410156938164092e-05 0 -2.491418278631894e-05 -3.3019951497296531e-05 0 -2.7245182047103186e-05 -3.7433763457764983e-05 0 -2.5421418044507729e-05 -3.7119419722934422e-05 0 -2.491418278631894e-05 -3.3019951497296531e-05 0 -2.7245182047103186e-05 -3.7433763457764983e-05 0 -2.7559013135804474e-05 -3.4085688806133133e-05 0 -2.9682393502990756e-05 -3.6854734817205256e-05 0 -2.7559013135804474e-05 -3.4085688806133133e-05 0 -2.9321849841235608e-05 -3.2669944922533762e-05 0 -2.9682393502990756e-05 -3.6854734817205256e-05 0 -3.1324317782144763e-05 -3.4786495596574117e-05 0 -2.9682393502990756e-05 -3.6854734817205256e-05 0 -2.9321849841235608e-05 -3.2669944922533762e-05 0 -2.7559013135804474e-05 -3.4085688806133133e-05 0 -2.6553019182778472e-05 -2.9348320846306121e-05 0 -2.9321849841235608e-05 -3.2669944922533762e-05 0 -2.9261286181630521e-05 -2.9685866972643661e-05 0 -2.9321849841235608e-05 -3.2669944922533762e-05 0 -2.6553019182778472e-05 -2.9348320846306121e-05 0 -2.9261286181630521e-05 -2.9685866972643661e-05 0 -2.6553019182778472e-05 -2.9348320846306121e-05 0 -2.8750018343132959e-05 -2.627547868608575e-05 0 -2.3542368795341463e-05 -2.9079915529007702e-05 0 -2.2699623972173996e-05 -2.4248926523726663e-05 0 -2.6553019182778472e-05 -2.9348320846306121e-05 0 -2.491418278631894e-05 -3.3019951497296531e-05 0 -2.3542368795341463e-05 -2.9079915529007702e-05 0 -2.6553019182778472e-05 -2.9348320846306121e-05 0 -2.7559013135804474e-05 -3.4085688806133133e-05 0 -2.491418278631894e-05 -3.3019951497296531e-05 0 -2.6553019182778472e-05 -2.9348320846306121e-05 0 -2.3542368795341463e-05 -2.9079915529007702e-05 0 -2.491418278631894e-05 -3.3019951497296531e-05 0 -2.2178893867710336e-05 -3.0410156938164092e-05 0 -2.3542368795341463e-05 -2.9079915529007702e-05 0 -2.2178893867710336e-05 -3.0410156938164092e-05 0 -2.0373169337508692e-05 -2.6196201465462119e-05 0 -1.8503690796756514e-05 -2.6181431385312162e-05 0 -2.0373169337508692e-05 -2.6196201465462119e-05 0 -2.2178893867710336e-05 -3.0410156938164092e-05 0 -1.4520165381305623e-05 -2.0972030764252672e-05 0 -1.5923188039039685e-05 -2.1767046693266099e-05 0 -1.8503690796756514e-05 -2.6181431385312162e-05 0 -1.6857005785283946e-05 -2.4631471996318866e-05 0 -1.8503690796756514e-05 -2.6181431385312162e-05 0 -2.0450161657921454e-05 -3.0029787578930461e-05 0 -1.8503690796756514e-05 -2.6181431385312162e-05 0 -2.2178893867710336e-05 -3.0410156938164092e-05 0 -2.0450161657921454e-05 -3.0029787578930461e-05 0 1.4566037435372199e-05 0.00017906908658739095 0 -3.1754770360319421e-06 0.00020188524220166263 0 -1.298402725598414e-05 0.00018779920893825208 0 1.4566037435372199e-05 0.00017906908658739095 0 1.3056385396960701e-05 0.00020637527112304631 0 -3.1754770360319421e-06 0.00020188524220166263 0 -1.4520165381305623e-05 -2.0972030764252672e-05 0 -1.8503690796756514e-05 -2.6181431385312162e-05 0 -1.6857005785283946e-05 -2.4631471996318866e-05 0 -2.9147968673739616e-07 7.9009611098403097e-05 0 -2.5062474509590363e-06 9.1163874439064338e-05 0 -2.3989259218848443e-05 0.00021340621553683591 0 -3.1754770360319421e-06 0.00020188524220166263 0 -5.8032410040771146e-06 0.00022054907173009022 0 1.3056385396960701e-05 0.00020637527112304631 0 -5.8032410040771146e-06 0.00022054907173009022 0 -3.1754770360319421e-06 0.00020188524220166263 0 1.069156144700601e-05 0.00023399732051945153 0 -1.8916417942158254e-05 0.00024245474219016574 0 -5.8032410040771146e-06 0.00022054907173009022 0 -2.5062474509590363e-06 9.1163874439064338e-05 0 -4.8660279617871119e-06 0.00010211718400916869 0 -1.6857005785283946e-05 -2.4631471996318866e-05 0 -2.0450161657921454e-05 -3.0029787578930461e-05 0 -1.9204916624440536e-05 -2.844300349302682e-05 0 1.3056385396960701e-05 0.00020637527112304631 0 1.069156144700601e-05 0.00023399732051945153 0 -5.8032410040771146e-06 0.00022054907173009022 0 -4.8660279617871119e-06 0.00010211718400916869 0 -8.6171157672722679e-06 0.00011511335345998113 0 1.069156144700601e-05 0.00023399732051945153 0 -1.3605584731134253e-05 0.00026588278263191121 0 -1.8916417942158254e-05 0.00024245474219016574 0 -2.3391521197145562e-05 -3.3582030821723007e-05 0 -2.0450161657921454e-05 -3.0029787578930461e-05 0 -2.2178893867710336e-05 -3.0410156938164092e-05 0 -1.9204916624440536e-05 -2.844300349302682e-05 0 -2.0450161657921454e-05 -3.0029787578930461e-05 0 -2.3323090597565359e-05 -3.5403117964953554e-05 0 -2.3391521197145562e-05 -3.3582030821723007e-05 0 -2.5421418044507729e-05 -3.7119419722934422e-05 0 -2.3323090597565359e-05 -3.5403117964953554e-05 0 -2.3391521197145562e-05 -3.3582030821723007e-05 0 -2.3323090597565359e-05 -3.5403117964953554e-05 0 -2.0450161657921454e-05 -3.0029787578930461e-05 0 -2.5777538962578076e-05 -4.0215242716900466e-05 0 -2.4277804667360211e-05 -3.7732091834774205e-05 0 -2.3323090597565359e-05 -3.5403117964953554e-05 0 -2.5777538962578076e-05 -4.0215242716900466e-05 0 -2.3323090597565359e-05 -3.5403117964953554e-05 0 -2.5421418044507729e-05 -3.7119419722934422e-05 0 -1.9204916624440536e-05 -2.844300349302682e-05 0 -2.3323090597565359e-05 -3.5403117964953554e-05 0 -2.130856343056002e-05 -3.2005669249265004e-05 0 -2.130856343056002e-05 -3.2005669249265004e-05 0 -2.3323090597565359e-05 -3.5403117964953547e-05 0 -2.4277804667360211e-05 -3.7732091834774205e-05 0 -2.5777538962578076e-05 -4.0215242716900466e-05 0 -2.589848090202473e-05 -4.1252717100112788e-05 0 -2.4277804667360211e-05 -3.7732091834774205e-05 0 1.069156144700601e-05 0.00023399732051945153 0 7.9780809941332893e-06 0.00025983443605221568 0 -1.3605584731134253e-05 0.00026588278263191121 0 -8.6171157672722679e-06 0.00011511335345998113 0 -7.6765544365078155e-06 0.00012385204723983415 0 -2.130856343056002e-05 -3.2005669249265004e-05 0 -2.4277804667360211e-05 -3.7732091834774205e-05 0 -2.3597729838066757e-05 -3.537693186017518e-05 0 7.9780809941332893e-06 0.00025983443605221568 0 5.0299488803016278e-06 0.00028621562931552995 0 -1.3605584731134253e-05 0.00026588278263191121 0 5.0299488803016278e-06 0.00028621562931552995 0 -1.9843233012605335e-05 0.00028929021856545002 0 -1.3605584731134253e-05 0.00026588278263191121 0 5.0299488803016278e-06 0.00028621562931552995 0 -1.0709301187553664e-05 0.00030081502480583042 0 -1.9843233012605335e-05 0.00028929021856545007 0 -7.6765544365078155e-06 0.00012385204723983415 0 -2.5450354526412515e-05 0.00013660587985171117 0 2.1599989894619719e-06 0.00030865718744052854 0 -1.0709301187553663e-05 0.00030081502480583042 0 5.0299488803016278e-06 0.00028621562931552995 0 2.1599989894619719e-06 0.00030865718744052854 0 -1.8494470059235916e-05 0.00031462761937610552 0 -1.0709301187553664e-05 0.00030081502480583042 0 -2.5777538962578076e-05 -4.0215242716900466e-05 0 -2.7183087642790273e-05 -4.3644620660182236e-05 0 -2.589848090202473e-05 -4.1252717100112788e-05 0 -2.3597729838066757e-05 -3.537693186017518e-05 0 -2.4277804667360211e-05 -3.7732091834774205e-05 0 -2.589848090202473e-05 -4.1252717100112788e-05 0 -2.5445573927254972e-05 -3.8360966023575286e-05 0 -2.3597729838066757e-05 -3.537693186017518e-05 0 -2.589848090202473e-05 -4.1252717100112788e-05 0 -2.5445573927254972e-05 -3.8360966023575286e-05 0 -2.589848090202473e-05 -4.1252717100112788e-05 0 -2.6814893125534878e-05 -4.3416671374279622e-05 0 -2.6814893125534878e-05 -4.3416671374279622e-05 0 -2.589848090202473e-05 -4.1252717100112788e-05 0 -2.7183087642790273e-05 -4.3644620660182236e-05 0 -2.8284874222031404e-05 -4.5012825845436614e-05 0 -2.7183087642790273e-05 -4.3644620660182236e-05 0 -2.8324013508627331e-05 -4.2137090794801975e-05 0 -2.739623070504747e-05 -4.4706057446950336e-05 0 -2.6814893125534878e-05 -4.3416671374279622e-05 0 -2.7183087642790273e-05 -4.3644620660182236e-05 0 -2.8284874222031404e-05 -4.5012825845436614e-05 0 -2.739623070504747e-05 -4.4706057446950336e-05 0 -2.7183087642790273e-05 -4.3644620660182236e-05 0 -2.5777538962578076e-05 -4.0215242716900466e-05 0 -2.714706698747145e-05 -4.0568163253313905e-05 0 -2.7183087642790273e-05 -4.3644620660182236e-05 0 -2.8324013508627331e-05 -4.2137090794801975e-05 0 -2.7183087642790273e-05 -4.3644620660182236e-05 0 -2.714706698747145e-05 -4.0568163253313905e-05 0 -2.7245182047103186e-05 -3.7433763457764983e-05 0 -2.9198537867857584e-05 -3.9909796164745236e-05 0 -2.714706698747145e-05 -4.0568163253313905e-05 0 -2.7245182047103186e-05 -3.7433763457764983e-05 0 -2.714706698747145e-05 -4.0568163253313905e-05 0 -2.5421418044507729e-05 -3.7119419722934422e-05 0 -2.5777538962578076e-05 -4.0215242716900466e-05 0 -2.5421418044507729e-05 -3.7119419722934422e-05 0 -2.714706698747145e-05 -4.0568163253313905e-05 0 -3.1114951103057247e-05 -3.9508030246749226e-05 0 -2.9198537867857584e-05 -3.9909796164745236e-05 0 -2.9682393502990756e-05 -3.6854734817205256e-05 0 -2.7245182047103186e-05 -3.7433763457764983e-05 0 -2.9682393502990756e-05 -3.6854734817205256e-05 0 -2.9198537867857584e-05 -3.9909796164745236e-05 0 -2.8324013508627331e-05 -4.2137090794801975e-05 0 -2.9198537867857584e-05 -3.9909796164745236e-05 0 -2.9909533186628208e-05 -4.2330193551332828e-05 0 -2.8324013508627331e-05 -4.2137090794801975e-05 0 -2.714706698747145e-05 -4.0568163253313905e-05 0 -2.9198537867857584e-05 -3.9909796164745236e-05 0 -3.1114951103057247e-05 -3.9508030246749226e-05 0 -2.9909533186628208e-05 -4.2330193551332828e-05 0 -2.9198537867857584e-05 -3.9909796164745236e-05 0 -2.8284874222031404e-05 -4.5012825845436614e-05 0 -2.8324013508627331e-05 -4.2137090794801975e-05 0 -2.9909533186628208e-05 -4.2330193551332828e-05 0 -3.0561652835079514e-05 -4.4237284128445459e-05 0 -2.8284874222031404e-05 -4.5012825845436614e-05 0 -2.9909533186628208e-05 -4.2330193551332828e-05 0 -3.0561652835079514e-05 -4.4237284128445459e-05 0 -2.9909533186628208e-05 -4.2330193551332828e-05 0 -3.1846931388569879e-05 -4.1768527953445329e-05 0 -3.3579047904645303e-05 -4.3303697477555348e-05 0 -3.0561652835079514e-05 -4.4237284128445459e-05 0 -3.1846931388569879e-05 -4.1768527953445329e-05 0 -3.3579047904645303e-05 -4.3303697477555348e-05 0 -3.1846931388569879e-05 -4.1768527953445329e-05 0 -3.4411465871306972e-05 -3.9390391474395937e-05 0 -3.1114951103057247e-05 -3.9508030246749226e-05 0 -3.4411465871306972e-05 -3.9390391474395937e-05 0 -3.1846931388569879e-05 -4.1768527953445329e-05 0 -3.1114951103057247e-05 -3.9508030246749226e-05 0 -3.1846931388569879e-05 -4.1768527953445329e-05 0 -2.9909533186628208e-05 -4.2330193551332828e-05 0 -4.1723116300843379e-05 -4.2633084887641624e-05 0 -3.7609737513690464e-05 -4.2728215673863197e-05 0 -3.7714946289642509e-05 -3.9771607459052795e-05 0 -3.7609737513690464e-05 -4.2728215673863197e-05 0 -3.3579047904645303e-05 -4.3303697477555348e-05 0 -3.7714946289642509e-05 -3.9771607459052795e-05 0 -3.3579047904645303e-05 -4.3303697477555348e-05 0 -3.4411465871306972e-05 -3.9390391474395937e-05 0 -3.7714946289642509e-05 -3.9771607459052795e-05 0 -3.9710618930837752e-05 -3.7907988942646302e-05 0 -3.7714946289642509e-05 -3.9771607459052795e-05 0 -3.6470340300058113e-05 -3.7240373852350996e-05 0 -3.4411465871306972e-05 -3.9390391474395937e-05 0 -3.6470340300058113e-05 -3.7240373852350996e-05 0 -3.7714946289642509e-05 -3.9771607459052795e-05 0 -3.6470340300058113e-05 -3.7240373852350996e-05 0 -3.3164873133614763e-05 -3.6839550557931084e-05 0 -3.5357145735226967e-05 -3.5178597184068094e-05 0 -3.5357145735226967e-05 -3.5178597184068094e-05 0 -3.7914312860882217e-05 -3.5563310687081834e-05 0 -3.6470340300058113e-05 -3.7240373852350996e-05 0 -3.9710618930837752e-05 -3.7907988942646302e-05 0 -3.6470340300058113e-05 -3.7240373852350996e-05 0 -3.7914312860882217e-05 -3.5563310687081834e-05 0 -3.1114951103057247e-05 -3.9508030246749226e-05 0 -3.3164873133614763e-05 -3.6839550557931084e-05 0 -3.4411465871306972e-05 -3.9390391474395937e-05 0 -3.4411465871306972e-05 -3.9390391474395937e-05 0 -3.3164873133614763e-05 -3.6839550557931084e-05 0 -3.6470340300058113e-05 -3.7240373852350996e-05 0 -3.1114951103057247e-05 -3.9508030246749226e-05 0 -2.9682393502990756e-05 -3.6854734817205256e-05 0 -3.3164873133614763e-05 -3.6839550557931084e-05 0 -3.1324317782144763e-05 -3.4786495596574117e-05 0 -3.3164873133614763e-05 -3.6839550557931084e-05 0 -2.9682393502990756e-05 -3.6854734817205256e-05 0 -3.1324317782144763e-05 -3.4786495596574117e-05 0 -2.9321849841235608e-05 -3.2669944922533762e-05 0 -3.1453459304616915e-05 -3.2290225732023084e-05 0 -3.1324317782144763e-05 -3.4786495596574117e-05 0 -3.1453459304616915e-05 -3.2290225732023084e-05 0 -3.3226839879855615e-05 -3.448556841227865e-05 0 -3.3807815471818812e-05 -3.2480586507487048e-05 0 -3.3226839879855615e-05 -3.448556841227865e-05 0 -3.1453459304616915e-05 -3.2290225732023084e-05 0 -3.1324317782144763e-05 -3.4786495596574117e-05 0 -3.3226839879855615e-05 -3.448556841227865e-05 0 -3.3164873133614763e-05 -3.6839550557931084e-05 0 -3.5357145735226967e-05 -3.5178597184068094e-05 0 -3.3226839879855615e-05 -3.448556841227865e-05 0 -3.3807815471818812e-05 -3.2480586507487048e-05 0 -3.5357145735226967e-05 -3.5178597184068094e-05 0 -3.3164873133614763e-05 -3.6839550557931084e-05 0 -3.3226839879855615e-05 -3.448556841227865e-05 0 -3.5357145735226967e-05 -3.5178597184068094e-05 0 -3.5913569158270874e-05 -3.2222786996772469e-05 0 -3.7914312860882217e-05 -3.5563310687081834e-05 0 -3.8299431168179834e-05 -3.4172979347673701e-05 0 -3.7914312860882217e-05 -3.5563310687081834e-05 0 -3.5913569158270874e-05 -3.2222786996772469e-05 0 -3.5357145735226967e-05 -3.5178597184068094e-05 0 -3.3807815471818812e-05 -3.2480586507487048e-05 0 -3.5913569158270874e-05 -3.2222786996772469e-05 0 -3.432919307462053e-05 -2.9378302288618923e-05 0 -3.3807815471818812e-05 -3.2480586507487048e-05 0 -3.1695440964048297e-05 -2.9616085182334458e-05 0 -3.432919307462053e-05 -2.9378302288618923e-05 0 -3.5913569158270874e-05 -3.2222786996772469e-05 0 -3.3807815471818812e-05 -3.2480586507487048e-05 0 -3.432919307462053e-05 -2.9378302288618923e-05 0 -3.7609197682958597e-05 -3.1301110504841386e-05 0 -3.5913569158270874e-05 -3.2222786996772469e-05 0 -3.432919307462053e-05 -2.9378302288618923e-05 0 -3.1695440964048297e-05 -2.9616085182334458e-05 0 -3.0797865221308394e-05 -2.5889116033210373e-05 0 -3.0797865221308394e-05 -2.5889116033210373e-05 0 -3.1695440964048297e-05 -2.9616085182334458e-05 0 -2.8750018343132959e-05 -2.627547868608575e-05 0 -2.9261286181630521e-05 -2.9685866972643661e-05 0 -2.8750018343132959e-05 -2.627547868608575e-05 0 -3.1695440964048297e-05 -2.9616085182334458e-05 0 -2.9261286181630521e-05 -2.9685866972643661e-05 0 -3.1695440964048297e-05 -2.9616085182334458e-05 0 -3.1453459304616915e-05 -3.2290225732023084e-05 0 -2.9261286181630521e-05 -2.9685866972643661e-05 0 -3.1453459304616915e-05 -3.2290225732023084e-05 0 -2.9321849841235608e-05 -3.2669944922533762e-05 0 -3.3807815471818812e-05 -3.2480586507487048e-05 0 -3.1453459304616915e-05 -3.2290225732023084e-05 0 -3.1695440964048297e-05 -2.9616085182334458e-05 0 -1.6871763629324326e-05 -9.6083607651750825e-05 0 -2.5013816227365281e-05 -9.0562730612017491e-05 0 -2.5551062539761327e-05 -0.00010230581018859147 0 -2.7338608431880278e-05 -5.7168137083974352e-05 0 -2.8922007784620833e-05 -6.5675379944573806e-05 0 -1.5329991380723748e-05 -8.2946736203419694e-05 0 -2.5013816227365281e-05 -9.0562730612017491e-05 0 -1.6871763629324326e-05 -9.6083607651750825e-05 0 -3.917217978945286e-05 -3.1378316535460762e-05 0 -4.0690958478594072e-05 -3.52154581932876e-05 0 -3.7609197682958597e-05 -3.1301110504841386e-05 0 -3.917217978945286e-05 -3.1378316535460762e-05 0 -3.7609197682958597e-05 -3.1301110504841386e-05 0 -3.6286820619271914e-05 -2.7874596333285386e-05 0 -3.432919307462053e-05 -2.9378302288618923e-05 0 -3.5150870843697962e-05 -2.7984438790038038e-05 0 -3.7609197682958597e-05 -3.1301110504841386e-05 0 -3.7609197682958597e-05 -3.1301110504841386e-05 0 -3.5150870843697962e-05 -2.7984438790038038e-05 0 -3.6286820619271914e-05 -2.7874596333285386e-05 0 -3.8299431168179834e-05 -3.4172979347673701e-05 0 -3.5913569158270874e-05 -3.2222786996772469e-05 0 -3.7609197682958597e-05 -3.1301110504841386e-05 0 -4.0690958478594072e-05 -3.52154581932876e-05 0 -3.9964681988243336e-05 -3.4965166449686521e-05 0 -3.7609197682958597e-05 -3.1301110504841386e-05 0 -3.8299431168179834e-05 -3.4172979347673701e-05 0 -3.7609197682958597e-05 -3.1301110504841386e-05 0 -3.9964681988243336e-05 -3.4965166449686521e-05 0 -3.8299431168179834e-05 -3.4172979347673701e-05 0 -3.9964681988243336e-05 -3.4965166449686521e-05 0 -4.0695296820250456e-05 -3.6990091156925571e-05 0 -3.8299431168179834e-05 -3.4172979347673701e-05 0 -4.0695296820250456e-05 -3.6990091156925571e-05 0 -3.7914312860882217e-05 -3.5563310687081834e-05 0 -4.193841999706024e-05 -3.8271979861018564e-05 0 -4.0695296820250456e-05 -3.6990091156925571e-05 0 -3.9964681988243336e-05 -3.4965166449686521e-05 0 -4.193841999706024e-05 -3.8271979861018564e-05 0 -4.2917664441053287e-05 -4.0795667324868377e-05 0 -4.0695296820250456e-05 -3.6990091156925571e-05 0 -1.8899005525324552e-05 -0.00010939931898746025 0 -2.5551062539761327e-05 -0.00010230581018859147 0 -3.2391005551435256e-05 -0.00011335554295204571 0 -1.8899005525324552e-05 -0.00010939931898746025 0 -3.2391005551435256e-05 -0.00011335554295204571 0 -3.0192798853173395e-05 -0.00012492466818225578 0 -3.0584882237038094e-05 -7.3676172621411147e-05 0 -3.2309785280233938e-05 -8.1564331869602458e-05 0 -4.0690958478594072e-05 -3.52154581932876e-05 0 -4.193841999706024e-05 -3.8271979861018564e-05 0 -3.9964681988243336e-05 -3.4965166449686521e-05 0 -1.6871763629324326e-05 -9.6083607651750825e-05 0 -2.5551062539761327e-05 -0.00010230581018859147 0 -1.8899005525324552e-05 -0.00010939931898746025 0 -2.8922007784620833e-05 -6.5675379944573806e-05 0 -3.0584882237038094e-05 -7.3676172621411147e-05 0 -1.8899005525324552e-05 -0.00010939931898746025 0 -3.0192798853173395e-05 -0.00012492466818225578 0 -2.0920848845479939e-05 -0.00012164077329765206 0 -3.2309785280233938e-05 -8.1564331869602458e-05 0 -3.3429310140192582e-05 -8.7945510930052579e-05 0 -4.2917664441053287e-05 -4.0795667324868377e-05 0 -4.3940459168817839e-05 -4.2875085348665776e-05 0 -4.207779082718409e-05 -3.9401917826815307e-05 0 -2.0920848845479939e-05 -0.00012164077329765206 0 -3.0192798853173395e-05 -0.00012492466818225578 0 -2.3027822305818827e-05 -0.00013414808135831833 0 -2.3027822305818827e-05 -0.00013414808135831833 0 -3.0192798853173395e-05 -0.00012492466818225581 0 -3.3000895349154066e-05 -0.0001360646112395352 0 -3.9710618930837752e-05 -3.7907988942646302e-05 0 -3.7914312860882217e-05 -3.5563310687081834e-05 0 -4.0695296820250456e-05 -3.6990091156925571e-05 0 -3.9710618930837752e-05 -3.7907988942646302e-05 0 -4.0695296820250456e-05 -3.6990091156925571e-05 0 -4.207779082718409e-05 -3.9401917826815307e-05 0 -4.2917664441053287e-05 -4.0795667324868377e-05 0 -4.207779082718409e-05 -3.9401917826815307e-05 0 -4.0695296820250456e-05 -3.6990091156925571e-05 0 -3.9710618930837752e-05 -3.7907988942646302e-05 0 -4.207779082718409e-05 -3.9401917826815307e-05 0 -4.2074966603463758e-05 -4.0376344072732316e-05 0 -3.9710618930837752e-05 -3.7907988942646302e-05 0 -4.2074966603463758e-05 -4.0376344072732316e-05 0 -3.7714946289642509e-05 -3.9771607459052795e-05 0 -4.3940459168817839e-05 -4.2875085348665776e-05 0 -4.2074966603463758e-05 -4.0376344072732316e-05 0 -4.207779082718409e-05 -3.9401917826815307e-05 0 -4.471467185776262e-05 -4.4920440003098867e-05 0 -4.2074966603463758e-05 -4.0376344072732316e-05 0 -4.3940459168817839e-05 -4.2875085348665776e-05 0 -4.471467185776262e-05 -4.4920440003098867e-05 0 -4.1723116300843379e-05 -4.2633084887641624e-05 0 -4.2074966603463758e-05 -4.0376344072732316e-05 0 -4.1723116300843379e-05 -4.2633084887641624e-05 0 -3.7714946289642509e-05 -3.9771607459052795e-05 0 -4.2074966603463758e-05 -4.0376344072732316e-05 0 -2.3027822305818827e-05 -0.00013414808135831833 0 -3.3000895349154066e-05 -0.00013606461123953517 0 -2.9529054073952542e-05 -0.00014104657621640885 0 -3.3429310140192582e-05 -8.7945510930052579e-05 0 -3.6934372585477305e-05 -9.4915113632795022e-05 0 -2.4717132458344549e-05 -0.00014371616671658192 0 -2.3027822305818827e-05 -0.00013414808135831833 0 -2.9529054073952542e-05 -0.00014104657621640885 0 -2.4717132458344549e-05 -0.00014371616671658192 0 -2.9529054073952542e-05 -0.00014104657621640885 0 -3.2622315500902117e-05 -0.00014680439477630569 0 -3.2622315500902117e-05 -0.00014680439477630569 0 -2.9529054073952542e-05 -0.00014104657621640885 0 -3.6482714580289045e-05 -0.00014285557410711631 0 -4.0676521365433839e-05 -0.00014794822103338963 0 -3.2622315500902117e-05 -0.00014680439477630569 0 -3.6482714580289045e-05 -0.00014285557410711631 0 -3.3000895349154066e-05 -0.0001360646112395352 0 -4.1264010073062261e-05 -0.00013908072289461017 0 -3.6482714580289045e-05 -0.00014285557410711631 0 -3.3000895349154066e-05 -0.0001360646112395352 0 -3.6482714580289045e-05 -0.00014285557410711631 0 -2.9529054073952542e-05 -0.00014104657621640885 0 -4.0676521365433839e-05 -0.00014794822103338963 0 -3.6482714580289045e-05 -0.00014285557410711631 0 -4.1264010073062261e-05 -0.00013908072289461017 0 -4.9382678279105817e-05 -0.00014841127963033686 0 -4.1264010073062261e-05 -0.00013908072289461017 0 -4.9361017824369155e-05 -0.00013543897067358417 0 -4.9382678279105817e-05 -0.00014841127963033686 0 -4.9361017824369155e-05 -0.00013543897067358417 0 -5.8157072246145555e-05 -0.00013897872904707929 0 -4.9382678279105817e-05 -0.00014841127963033686 0 -4.0676521365433839e-05 -0.00014794822103338963 0 -4.1264010073062261e-05 -0.00013908072289461017 0 -3.93392779381357e-05 -0.00012762687957077967 0 -4.9361017824369155e-05 -0.00013543897067358417 0 -4.1264010073062261e-05 -0.00013908072289461017 0 -3.93392779381357e-05 -0.00012762687957077967 0 -4.947141704727371e-05 -0.00012209910073492582 0 -4.9361017824369155e-05 -0.00013543897067358417 0 -5.9659150176469966e-05 -0.00012746751057733394 0 -4.9361017824369155e-05 -0.00013543897067358417 0 -4.947141704727371e-05 -0.00012209910073492582 0 -3.93392779381357e-05 -0.00012762687957077967 0 -4.1999365876439018e-05 -0.00011544145055564323 0 -4.947141704727371e-05 -0.00012209910073492582 0 -3.93392779381357e-05 -0.00012762687957077967 0 -3.0192798853173395e-05 -0.00012492466818225578 0 -3.2391005551435256e-05 -0.00011335554295204571 0 -3.93392779381357e-05 -0.00012762687957077967 0 -3.3000895349154066e-05 -0.0001360646112395352 0 -3.0192798853173395e-05 -0.00012492466818225578 0 -3.93392779381357e-05 -0.00012762687957077967 0 -4.1264010073062261e-05 -0.00013908072289461014 0 -3.3000895349154066e-05 -0.0001360646112395352 0 -8.0378834895688766e-05 -0.00013804742070471494 0 -7.3067001354746498e-05 -0.00014275250472918651 0 -6.8105379255982047e-05 -0.00013669640474939116 0 -8.0310550694567931e-05 -0.0001488769887282119 0 -7.3067001354746512e-05 -0.00014275250472918651 0 -8.0378834895688766e-05 -0.00013804742070471494 0 -8.0310550694567931e-05 -0.0001488769887282119 0 -6.9493378328629919e-05 -0.00014879696329521907 0 -7.3067001354746512e-05 -0.00014275250472918651 0 -6.9493378328629919e-05 -0.00014879696329521907 0 -6.4174881390558831e-05 -0.00014328396701413973 0 -7.3067001354746512e-05 -0.00014275250472918651 0 -6.8105379255982047e-05 -0.00013669640474939116 0 -7.3067001354746512e-05 -0.00014275250472918651 0 -6.4174881390558831e-05 -0.00014328396701413973 0 -6.8105379255982047e-05 -0.00013669640474939116 0 -6.4174881390558831e-05 -0.00014328396701413973 0 -5.8157072246145555e-05 -0.00013897872904707929 0 -5.907504525636292e-05 -0.00014853920841235958 0 -5.8157072246145555e-05 -0.00013897872904707929 0 -6.4174881390558831e-05 -0.00014328396701413973 0 -6.9493378328629919e-05 -0.00014879696329521907 0 -5.907504525636292e-05 -0.00014853920841235958 0 -6.4174881390558831e-05 -0.00014328396701413973 0 -5.907504525636292e-05 -0.00014853920841235958 0 -4.9382678279105817e-05 -0.00014841127963033686 0 -5.8157072246145555e-05 -0.00013897872904707929 0 -5.9659150176469966e-05 -0.00012746751057733394 0 -5.8157072246145555e-05 -0.00013897872904707929 0 -4.9361017824369155e-05 -0.00013543897067358417 0 -5.9659150176469966e-05 -0.00012746751057733394 0 -4.947141704727371e-05 -0.00012209910073492582 0 -5.6477856567477932e-05 -0.00011369623721218806 0 -5.9659150176469966e-05 -0.00012746751057733394 0 -6.6459169470998075e-05 -0.00011577782464016162 0 -7.0219928573277379e-05 -0.00012673354029328309 0 -5.9659150176469966e-05 -0.00012746751057733394 0 -6.8105379255982047e-05 -0.00013669640474939116 0 -5.8157072246145555e-05 -0.00013897872904707929 0 -5.9659150176469966e-05 -0.00012746751057733394 0 -7.0219928573277379e-05 -0.00012673354029328309 0 -6.8105379255982047e-05 -0.00013669640474939116 0 -8.0378834895688766e-05 -0.00013804742070471494 0 -6.8105379255982047e-05 -0.00013669640474939116 0 -7.0219928573277379e-05 -0.00012673354029328309 0 -8.0116020445834956e-05 -0.00011477944334093834 0 -8.0398174930400418e-05 -0.00012670002492241419 0 -7.0219928573277379e-05 -0.00012673354029328309 0 -8.0398174930400418e-05 -0.00012670002492241419 0 -8.0378834895688766e-05 -0.00013804742070471494 0 -7.0219928573277379e-05 -0.00012673354029328309 0 -7.9302372139514781e-05 -0.00010228676573749707 0 -8.0116020445834956e-05 -0.00011477944334093834 0 -7.1214538943846568e-05 -0.00010671174002835538 0 -8.0116020445834956e-05 -0.00011477944334093834 0 -7.0219928573277379e-05 -0.00012673354029328309 0 -6.6459169470998075e-05 -0.00011577782464016162 0 -6.225424201247937e-05 -0.00010214338058645432 0 -7.1214538943846568e-05 -0.00010671174002835538 0 -6.6459169470998075e-05 -0.00011577782464016162 0 -8.0116020445834956e-05 -0.00011477944334093834 0 -6.6459169470998075e-05 -0.00011577782464016162 0 -7.1214538943846568e-05 -0.00010671174002835538 0 -6.225424201247937e-05 -0.00010214338058645432 0 -6.6459169470998062e-05 -0.00011577782464016162 0 -5.6477856567477932e-05 -0.00011369623721218806 0 -5.9659150176469966e-05 -0.00012746751057733394 0 -5.6477856567477932e-05 -0.00011369623721218806 0 -6.6459169470998075e-05 -0.00011577782464016162 0 -6.225424201247937e-05 -0.00010214338058645432 0 -5.6477856567477932e-05 -0.00011369623721218806 0 -5.3885780384639617e-05 -0.00010153176708524758 0 -4.7969935619292166e-05 -0.00010823349446137834 0 -5.3885780384639623e-05 -0.00010153176708524758 0 -5.6477856567477932e-05 -0.00011369623721218806 0 -6.225424201247937e-05 -0.00010214338058645432 0 -5.3885780384639617e-05 -0.00010153176708524758 0 -5.654513296330769e-05 -9.3227388543840284e-05 0 -5.3709872297400033e-05 -8.146212875794807e-05 0 -5.654513296330769e-05 -9.3227388543840284e-05 0 -4.7659620214533023e-05 -9.3392404244673695e-05 0 -4.7659620214533023e-05 -9.3392404244673695e-05 0 -5.654513296330769e-05 -9.3227388543840284e-05 0 -5.3885780384639617e-05 -0.00010153176708524758 0 -6.225424201247937e-05 -0.00010214338058645432 0 -5.654513296330769e-05 -9.3227388543840284e-05 0 -6.5192527159930924e-05 -8.9454344765785149e-05 0 -6.225424201247937e-05 -0.00010214338058645432 0 -7.1149570553777922e-05 -9.7863252058612055e-05 0 -7.1214538943846568e-05 -0.00010671174002835538 0 -6.225424201247937e-05 -0.00010214338058645432 0 -6.5192527159930924e-05 -8.9454344765785136e-05 0 -7.1149570553777922e-05 -9.7863252058612055e-05 0 -7.7599012018371243e-05 -8.9416658764528075e-05 0 -7.1149570553777922e-05 -9.7863252058612068e-05 0 -6.5192527159930924e-05 -8.9454344765785149e-05 0 -7.7599012018371243e-05 -8.9416658764528075e-05 0 -7.9302372139514781e-05 -0.00010228676573749707 0 -7.1149570553777922e-05 -9.7863252058612055e-05 0 -7.9302372139514781e-05 -0.00010228676573749707 0 -7.1214538943846554e-05 -0.00010671174002835538 0 -7.1149570553777922e-05 -9.7863252058612055e-05 0 -3.2486513099958734e-05 -9.8773027471868175e-05 0 -4.0323087635084316e-05 -0.00010398613375255622 0 -3.2391005551435256e-05 -0.00011335554295204571 0 -3.2391005551435256e-05 -0.00011335554295204571 0 -4.0323087635084316e-05 -0.00010398613375255622 0 -4.1999365876439018e-05 -0.00011544145055564323 0 -3.2486513099958734e-05 -9.8773027471868175e-05 0 -3.2391005551435256e-05 -0.00011335554295204572 0 -2.5551062539761327e-05 -0.00010230581018859147 0 -3.93392779381357e-05 -0.00012762687957077967 0 -3.2391005551435256e-05 -0.00011335554295204571 0 -4.1999365876439018e-05 -0.00011544145055564323 0 -4.7969935619292166e-05 -0.00010823349446137834 0 -4.947141704727371e-05 -0.00012209910073492582 0 -4.1999365876439018e-05 -0.00011544145055564323 0 -4.7969935619292166e-05 -0.00010823349446137834 0 -5.6477856567477932e-05 -0.00011369623721218806 0 -4.947141704727371e-05 -0.00012209910073492582 0 -4.7969935619292166e-05 -0.00010823349446137834 0 -4.1999365876439018e-05 -0.00011544145055564323 0 -4.0323087635084316e-05 -0.00010398613375255622 0 -4.7659620214533023e-05 -9.3392404244673695e-05 0 -4.0323087635084316e-05 -0.00010398613375255622 0 -3.8813765409299482e-05 -9.1182759532905654e-05 0 -4.7969935619292166e-05 -0.00010823349446137834 0 -4.0323087635084316e-05 -0.00010398613375255622 0 -4.7659620214533023e-05 -9.3392404244673695e-05 0 -4.7969935619292166e-05 -0.00010823349446137834 0 -4.7659620214533023e-05 -9.3392404244673695e-05 0 -5.3885780384639617e-05 -0.00010153176708524758 0 -4.7659620214533023e-05 -9.3392404244673695e-05 0 -3.8813765409299482e-05 -9.1182759532905654e-05 0 -4.2739575393159807e-05 -8.0924850553365925e-05 0 -3.2486513099958734e-05 -9.8773027471868175e-05 0 -3.1652328569799103e-05 -8.7881465733024718e-05 0 -3.8813765409299482e-05 -9.1182759532905654e-05 0 -3.2486513099958734e-05 -9.8773027471868175e-05 0 -3.8813765409299482e-05 -9.1182759532905654e-05 0 -4.0323087635084316e-05 -0.00010398613375255622 0 -3.2486513099958734e-05 -9.8773027471868175e-05 0 -2.5551062539761327e-05 -0.00010230581018859147 0 -2.5013816227365281e-05 -9.0562730612017491e-05 0 -3.2486513099958734e-05 -9.8773027471868175e-05 0 -2.5013816227365281e-05 -9.0562730612017491e-05 0 -3.1652328569799103e-05 -8.7881465733024718e-05 0 -2.5704445417497983e-05 -7.8622020355338705e-05 0 -3.1652328569799103e-05 -8.7881465733024718e-05 0 -2.5013816227365281e-05 -9.0562730612017491e-05 0 -3.5867601124454529e-05 -7.9925558964161257e-05 0 -3.1652328569799103e-05 -8.7881465733024718e-05 0 -2.5704445417497983e-05 -7.8622020355338705e-05 0 -3.5867601124454529e-05 -7.9925558964161257e-05 0 -2.5704445417497983e-05 -7.8622020355338692e-05 0 -2.9872318650158974e-05 -7.1042344637302056e-05 0 -2.5704445417497983e-05 -7.8622020355338705e-05 0 -2.2645160029173033e-05 -6.6247752198594486e-05 0 -2.9872318650158974e-05 -7.1042344637302056e-05 0 -3.5867601124454529e-05 -7.9925558964161257e-05 0 -2.9872318650158974e-05 -7.1042344637302056e-05 0 -3.6268859164077921e-05 -6.9786653562271182e-05 0 -3.5867601124454529e-05 -7.9925558964161257e-05 0 -3.8813765409299482e-05 -9.1182759532905654e-05 0 -3.1652328569799103e-05 -8.7881465733024718e-05 0 -3.5867601124454529e-05 -7.9925558964161257e-05 0 -4.2739575393159807e-05 -8.0924850553365925e-05 0 -3.8813765409299482e-05 -9.1182759532905654e-05 0 -5.3709872297400033e-05 -8.146212875794807e-05 0 -4.7659620214533023e-05 -9.3392404244673695e-05 0 -4.2739575393159807e-05 -8.0924850553365925e-05 0 -5.3709872297400033e-05 -8.146212875794807e-05 0 -4.2739575393159807e-05 -8.0924850553365925e-05 0 -4.4263308088454494e-05 -6.9814210491047179e-05 0 -3.5867601124454529e-05 -7.9925558964161257e-05 0 -3.6268859164077921e-05 -6.9786653562271182e-05 0 -4.2739575393159807e-05 -8.0924850553365925e-05 0 -4.4263308088454494e-05 -6.9814210491047179e-05 0 -4.2739575393159807e-05 -8.0924850553365925e-05 0 -3.6268859164077921e-05 -6.9786653562271182e-05 0 -4.4263308088454494e-05 -6.9814210491047179e-05 0 -3.6268859164077921e-05 -6.9786653562271182e-05 0 -3.4993138926184943e-05 -5.7614587194098765e-05 0 -4.0979333967370701e-05 -5.4246627782397588e-05 0 -4.8293571134273867e-05 -6.2365642669835186e-05 0 -4.4263308088454494e-05 -6.9814210491047179e-05 0 -4.0979333967370701e-05 -5.4246627782397588e-05 0 -4.4263308088454494e-05 -6.9814210491047179e-05 0 -3.4993138926184943e-05 -5.7614587194098765e-05 0 -2.851388292337486e-05 -6.045652063670802e-05 0 -2.6259137043902797e-05 -4.6016904914022128e-05 0 -3.4993138926184943e-05 -5.7614587194098765e-05 0 -2.851388292337486e-05 -6.045652063670802e-05 0 -2.0692487496281127e-05 -5.2610371072167906e-05 0 -2.6259137043902797e-05 -4.6016904914022128e-05 0 -2.851388292337486e-05 -6.045652063670802e-05 0 -2.9872318650158974e-05 -7.1042344637302056e-05 0 -2.2645160029173033e-05 -6.6247752198594486e-05 0 -2.851388292337486e-05 -6.045652063670802e-05 0 -3.4993138926184943e-05 -5.7614587194098765e-05 0 -3.6268859164077921e-05 -6.9786653562271182e-05 0 -2.851388292337486e-05 -6.045652063670802e-05 0 -3.6268859164077921e-05 -6.9786653562271182e-05 0 -2.9872318650158974e-05 -7.1042344637302056e-05 0 -7.4929666318689244e-05 -7.6675966194615167e-05 0 -6.9940654718099042e-05 -8.3009782499459872e-05 0 -6.2022350332458474e-05 -7.5837177744624723e-05 0 -7.4929666318689244e-05 -7.6675966194615167e-05 0 -6.2022350332458474e-05 -7.5837177744624723e-05 0 -6.4266580459958214e-05 -6.6736782602524621e-05 0 -7.7599012018371243e-05 -8.9416658764528075e-05 0 -6.5192527159930924e-05 -8.9454344765785149e-05 0 -6.9940654718099042e-05 -8.3009782499459872e-05 0 -7.4929666318689244e-05 -7.6675966194615167e-05 0 -7.7599012018371243e-05 -8.9416658764528075e-05 0 -6.9940654718099042e-05 -8.3009782499459872e-05 0 -6.5192527159930924e-05 -8.9454344765785149e-05 0 -6.2022350332458474e-05 -7.5837177744624723e-05 0 -6.9940654718099042e-05 -8.3009782499459872e-05 0 -5.3709872297400033e-05 -8.146212875794807e-05 0 -5.2382542348407152e-05 -7.044950960588416e-05 0 -6.2022350332458474e-05 -7.5837177744624723e-05 0 -5.3709872297400033e-05 -8.146212875794807e-05 0 -6.2022350332458474e-05 -7.5837177744624723e-05 0 -6.5192527159930924e-05 -8.9454344765785149e-05 0 -5.3709872297400033e-05 -8.146212875794807e-05 0 -6.5192527159930924e-05 -8.9454344765785149e-05 0 -5.654513296330769e-05 -9.3227388543840284e-05 0 -5.3709872297400033e-05 -8.146212875794807e-05 0 -4.4263308088454494e-05 -6.9814210491047165e-05 0 -5.2382542348407152e-05 -7.044950960588416e-05 0 -5.5945866417183204e-05 -6.348343968001645e-05 0 -5.2382542348407152e-05 -7.044950960588416e-05 0 -4.8293571134273867e-05 -6.2365642669835186e-05 0 -4.4263308088454494e-05 -6.9814210491047179e-05 0 -4.8293571134273867e-05 -6.2365642669835186e-05 0 -5.2382542348407152e-05 -7.044950960588416e-05 0 -4.0979333967370701e-05 -5.4246627782397588e-05 0 -4.8227216932959718e-05 -5.4311128611240746e-05 0 -4.8293571134273867e-05 -6.2365642669835186e-05 0 -5.5945866417183204e-05 -6.348343968001645e-05 0 -4.8293571134273867e-05 -6.2365642669835186e-05 0 -4.8227216932959718e-05 -5.4311128611240746e-05 0 -5.5945866417183204e-05 -6.348343968001645e-05 0 -4.8227216932959718e-05 -5.4311128611240746e-05 0 -5.8752382783443617e-05 -5.5685914618077109e-05 0 -5.5945866417183204e-05 -6.348343968001645e-05 0 -6.2022350332458474e-05 -7.5837177744624723e-05 0 -5.2382542348407152e-05 -7.044950960588416e-05 0 -5.5945866417183204e-05 -6.348343968001645e-05 0 -6.4266580459958214e-05 -6.6736782602524621e-05 0 -6.2022350332458474e-05 -7.5837177744624723e-05 0 -5.5945866417183204e-05 -6.348343968001645e-05 0 -5.8752382783443617e-05 -5.5685914618077109e-05 0 -6.4266580459958214e-05 -6.6736782602524621e-05 0 -7.1393842470548983e-05 -6.4229274750312844e-05 0 -6.4266580459958214e-05 -6.6736782602524621e-05 0 -5.8752382783443617e-05 -5.5685914618077109e-05 0 -7.1393842470548983e-05 -6.4229274750312844e-05 0 -7.4929666318689244e-05 -7.6675966194615167e-05 0 -6.4266580459958214e-05 -6.6736782602524621e-05 0 -6.1466923440521977e-05 -4.2065571122691713e-05 0 -6.693973159167677e-05 -5.2646540405349183e-05 0 -5.7003272264004029e-05 -4.574736290276549e-05 0 -6.693973159167677e-05 -5.2646540405349183e-05 0 -7.1393842470548983e-05 -6.4229274750312844e-05 0 -5.8752382783443617e-05 -5.5685914618077109e-05 0 -6.693973159167677e-05 -5.2646540405349183e-05 0 -5.8752382783443617e-05 -5.5685914618077109e-05 0 -5.7003272264004029e-05 -4.574736290276549e-05 0 -4.9875501338806629e-05 -4.5043877776497283e-05 0 -5.7003272264004029e-05 -4.574736290276549e-05 0 -5.8752382783443617e-05 -5.5685914618077109e-05 0 -4.9875501338806629e-05 -4.5043877776497283e-05 0 -5.8752382783443617e-05 -5.5685914618077109e-05 0 -4.8227216932959718e-05 -5.4311128611240746e-05 0 -4.0979333967370701e-05 -5.4246627782397588e-05 0 -4.4168744657068451e-05 -4.5935450863498201e-05 0 -4.8227216932959718e-05 -5.4311128611240746e-05 0 -4.9875501338806629e-05 -4.5043877776497283e-05 0 -4.8227216932959718e-05 -5.4311128611240746e-05 0 -4.4168744657068451e-05 -4.5935450863498201e-05 0 -3.7632728369446159e-05 -3.9654031729729782e-05 0 -4.3461526391830951e-05 -3.8629141820505161e-05 0 -4.4168744657068451e-05 -4.5935450863498201e-05 0 -4.9875501338806629e-05 -4.5043877776497283e-05 0 -4.4168744657068451e-05 -4.5935450863498201e-05 0 -4.3461526391830951e-05 -3.8629141820505161e-05 0 -3.8569730028478027e-05 -3.0467082422525952e-05 0 -4.853679090140952e-05 -3.4913239896639692e-05 0 -4.3461526391830951e-05 -3.8629141820505161e-05 0 -3.8569730028478027e-05 -3.0467082422525952e-05 0 -3.9645043218149082e-05 -2.6117518592864677e-05 0 -4.853679090140952e-05 -3.4913239896639692e-05 0 -4.9875501338806629e-05 -4.5043877776497283e-05 0 -4.3461526391830951e-05 -3.8629141820505161e-05 0 -4.853679090140952e-05 -3.4913239896639692e-05 0 -6.1466923440521977e-05 -4.2065571122691713e-05 0 -5.7003272264004029e-05 -4.574736290276549e-05 0 -4.853679090140952e-05 -3.4913239896639692e-05 0 -4.9875501338806629e-05 -4.5043877776497283e-05 0 -4.853679090140952e-05 -3.4913239896639686e-05 0 -5.7003272264004029e-05 -4.574736290276549e-05 0 -5.5708045565357899e-05 -3.3029431324910811e-05 0 -6.1466923440521977e-05 -4.2065571122691713e-05 0 -4.853679090140952e-05 -3.4913239896639692e-05 0 -2.9933695855282846e-05 -3.5929915364267201e-05 0 -3.4034731496621257e-05 -4.6326520610244798e-05 0 -2.6259137043902797e-05 -4.6016904914022128e-05 0 -2.9933695855282846e-05 -3.5929915364267201e-05 0 -2.6259137043902797e-05 -4.6016904914022128e-05 0 -2.3164186377809406e-05 -3.1675024149751132e-05 0 -2.6259137043902797e-05 -4.6016904914022128e-05 0 -3.4034731496621257e-05 -4.6326520610244798e-05 0 -3.4993138926184943e-05 -5.7614587194098765e-05 0 -4.0979333967370701e-05 -5.4246627782397588e-05 0 -3.4993138926184943e-05 -5.7614587194098772e-05 0 -3.4034731496621257e-05 -4.6326520610244798e-05 0 -4.0979333967370701e-05 -5.4246627782397588e-05 0 -3.7632728369446159e-05 -3.9654031729729782e-05 0 -4.4168744657068451e-05 -4.5935450863498201e-05 0 -4.0979333967370701e-05 -5.4246627782397588e-05 0 -3.4034731496621257e-05 -4.6326520610244798e-05 0 -3.7632728369446159e-05 -3.9654031729729782e-05 0 -2.9933695855282846e-05 -3.5929915364267201e-05 0 -3.7632728369446159e-05 -3.9654031729729782e-05 0 -3.4034731496621257e-05 -4.6326520610244798e-05 0 -2.9933695855282846e-05 -3.5929915364267201e-05 0 -3.2655417724891676e-05 -2.9860218740338677e-05 0 -3.7632728369446159e-05 -3.9654031729729782e-05 0 -3.8569730028478027e-05 -3.0467082422525952e-05 0 -4.3461526391830951e-05 -3.8629141820505161e-05 0 -3.7632728369446159e-05 -3.9654031729729782e-05 0 -3.8569730028478027e-05 -3.0467082422525952e-05 0 -3.2655417724891676e-05 -2.9860218740338677e-05 0 -3.3906877461601863e-05 -2.5312115835050235e-05 0 -3.8569730028478027e-05 -3.0467082422525952e-05 0 -3.7632728369446159e-05 -3.9654031729729782e-05 0 -3.2655417724891676e-05 -2.9860218740338677e-05 0 -2.9933695855282846e-05 -3.5929915364267201e-05 0 -2.7465660534507833e-05 -2.6316981925158188e-05 0 -3.2655417724891676e-05 -2.9860218740338677e-05 0 -2.7465660534507833e-05 -2.6316981925158188e-05 0 -2.9933695855282846e-05 -3.5929915364267201e-05 0 -2.3164186377809406e-05 -3.1675024149751132e-05 0 -2.2227628434545212e-05 -2.1912552247206951e-05 0 -2.7465660534507833e-05 -2.6316981925158188e-05 0 -2.3164186377809406e-05 -3.1675024149751132e-05 0 -1.8913013196506527e-05 -1.8092421659581873e-05 0 -2.2227628434545212e-05 -2.1912552247206951e-05 0 -2.3164186377809406e-05 -3.1675024149751132e-05 0 -1.8913013196506527e-05 -1.8092421659581873e-05 0 -2.5663038217686277e-05 -1.4827309474875238e-05 0 -2.4111447467551629e-05 -1.3489654128669629e-05 0 -1.8913013196506527e-05 -1.8092421659581873e-05 0 -2.3164186377809406e-05 -3.1675024149751132e-05 0 -1.48960439465978e-05 -3.3378460247089604e-05 0 -1.8714128360061313e-05 -1.7921626942639564e-05 0 -2.0177208381084157e-05 -2.4274060735167307e-05 0 -1.48960439465978e-05 -3.3378460247089604e-05 0 -2.3164186377809406e-05 -3.1675024149751132e-05 0 -1.9475065880931233e-05 -4.0708807363456638e-05 0 -2.6259137043902797e-05 -4.6016904914022128e-05 0 -1.9475065880931233e-05 -4.0708807363456638e-05 0 -2.3164186377809406e-05 -3.1675024149751132e-05 0 -2.0177208381084157e-05 -2.4274060735167307e-05 0 -2.1906482228583976e-05 -3.153789160838938e-05 0 -1.48960439465978e-05 -3.3378460247089604e-05 0 -1.9475065880931233e-05 -4.0708807363456638e-05 0 -1.3458901184698514e-05 -4.5231269792791672e-05 0 -2.1906482228583976e-05 -3.153789160838938e-05 0 -2.3874520742759141e-05 -3.9896735207111898e-05 0 -1.3458901184698514e-05 -4.5231269792791672e-05 0 -1.9475065880931233e-05 -4.0708807363456638e-05 0 -2.0692487496281124e-05 -5.2610371072167906e-05 0 -2.6259137043902797e-05 -4.6016904914022128e-05 0 -2.0692487496281124e-05 -5.2610371072167906e-05 0 -1.9475065880931233e-05 -4.0708807363456638e-05 0 -2.8436887478292173e-05 -1.5635964129107275e-05 0 -2.6768501957612535e-05 -1.3618882636828088e-05 0 -3.039864429694242e-05 -1.780894846483227e-05 0 -3.0363219936196619e-05 -1.7930884688528767e-05 0 -3.4224333240094803e-05 -2.2258132154434957e-05 0 -3.039864429694242e-05 -1.780894846483227e-05 0 -3.0363219936196619e-05 -1.7930884688528767e-05 0 -3.039864429694242e-05 -1.780894846483227e-05 0 -2.6768501957612535e-05 -1.3618882636828088e-05 0 -2.5663038217686277e-05 -1.4827309474875238e-05 0 -3.0363219936196619e-05 -1.7930884688528767e-05 0 -2.6768501957612535e-05 -1.3618882636828088e-05 0 -2.6768501957612535e-05 -1.3618882636828088e-05 0 -2.3454155674693344e-05 -1.0232873390284943e-05 0 -2.4111447467551629e-05 -1.3489654128669629e-05 0 -2.5663038217686277e-05 -1.4827309474875238e-05 0 -2.6768501957612535e-05 -1.3618882636828088e-05 0 -2.4111447467551629e-05 -1.3489654128669629e-05 0 -1.8913013196506527e-05 -1.8092421659581873e-05 0 -2.4111447467551629e-05 -1.3489654128669629e-05 0 -2.1445640437684624e-05 -1.220750286101181e-05 0 -2.4111447467551629e-05 -1.3489654128669629e-05 0 -2.3454155674693347e-05 -1.0232873390284943e-05 0 -2.1445640437684624e-05 -1.220750286101181e-05 0 -2.3454155674693344e-05 -1.0232873390284943e-05 0 -2.6768501957612535e-05 -1.3618882636828088e-05 0 -2.5979900205733659e-05 -1.2304619539644758e-05 0 -2.3454155674693344e-05 -1.0232873390284943e-05 0 -2.5979900205733659e-05 -1.2304619539644758e-05 0 -2.2613505314726279e-05 -7.954377785914958e-06 0 -2.3454155674693344e-05 -1.0232873390284943e-05 0 -2.2613505314726279e-05 -7.954377785914958e-06 0 -1.9957269876782995e-05 -5.8404154312910098e-06 0 -1.8567895023537272e-05 -2.5862031315776586e-06 0 -2.2613505314726279e-05 -7.954377785914958e-06 0 -2.0557955673008465e-05 -5.0375427569921688e-06 0 -1.8567895023537272e-05 -2.5862031315776586e-06 0 -1.9957269876782995e-05 -5.8404154312910098e-06 0 -2.2613505314726279e-05 -7.954377785914958e-06 0 -2.2998502712682943e-05 -9.6718771856505046e-06 0 -2.0557955673008465e-05 -5.0375427569921688e-06 0 -2.2613505314726279e-05 -7.954377785914958e-06 0 -2.2998502712682943e-05 -9.6718771856505046e-06 0 -2.4505912929771977e-05 -1.1225202707908317e-05 0 -2.5159962110476433e-05 -1.4183807448913124e-05 0 -2.2998502712682943e-05 -9.6718771856505046e-06 0 -2.2613505314726279e-05 -7.954377785914958e-06 0 -2.4505912929771977e-05 -1.1225202707908317e-05 0 -2.6469194830129582e-05 -1.4557532069671557e-05 0 -2.4505912929771977e-05 -1.1225202707908315e-05 0 -2.5979900205733659e-05 -1.2304619539644758e-05 0 -2.2613505314726279e-05 -7.954377785914958e-06 0 -2.5979900205733656e-05 -1.2304619539644758e-05 0 -2.4505912929771977e-05 -1.1225202707908317e-05 0 -2.6469194830129582e-05 -1.4557532069671557e-05 0 -2.5159962110476433e-05 -1.4183807448913124e-05 0 -2.4505912929771977e-05 -1.1225202707908317e-05 0 -2.8436887478292173e-05 -1.5635964129107275e-05 0 -2.5979900205733659e-05 -1.2304619539644758e-05 0 -2.6768501957612535e-05 -1.3618882636828088e-05 0 -2.6469194830129582e-05 -1.4557532069671557e-05 0 -2.5979900205733659e-05 -1.2304619539644758e-05 0 -2.8861532160170063e-05 -1.7596235380549296e-05 0 -2.8436887478292173e-05 -1.5635964129107275e-05 0 -2.8861532160170063e-05 -1.7596235380549296e-05 0 -2.5979900205733659e-05 -1.2304619539644758e-05 0 -2.8436887478292173e-05 -1.5635964129107275e-05 0 -3.1630116501256356e-05 -2.0320272914208734e-05 0 -2.8861532160170063e-05 -1.7596235380549296e-05 0 -3.0041133753708612e-05 -2.1815545342863956e-05 0 -2.7535203588100957e-05 -1.8092487570223489e-05 0 -2.8861532160170063e-05 -1.7596235380549296e-05 0 -3.0041133753708612e-05 -2.1815545342863956e-05 0 -2.8861532160170063e-05 -1.7596235380549296e-05 0 -3.1661946248330113e-05 -2.1930712914708253e-05 0 -3.1630116501256356e-05 -2.0320272914208734e-05 0 -3.1661946248330113e-05 -2.1930712914708253e-05 0 -2.8861532160170063e-05 -1.7596235380549296e-05 0 -2.5828702883403276e-05 -1.7960035221279639e-05 0 -2.5159962110476433e-05 -1.4183807448913124e-05 0 -2.7535203588100957e-05 -1.8092487570223489e-05 0 -2.6469194830129582e-05 -1.4557532069671557e-05 0 -2.7535203588100957e-05 -1.8092487570223489e-05 0 -2.5159962110476433e-05 -1.4183807448913124e-05 0 -2.6469194830129582e-05 -1.4557532069671557e-05 0 -2.8861532160170063e-05 -1.7596235380549296e-05 0 -2.7535203588100957e-05 -1.8092487570223489e-05 0 -3.0041133753708612e-05 -2.1815545342863956e-05 0 -2.78194944570737e-05 -2.2033151968789075e-05 0 -2.7535203588100957e-05 -1.8092487570223489e-05 0 -2.5828702883403276e-05 -1.7960035221279639e-05 0 -2.7535203588100957e-05 -1.8092487570223489e-05 0 -2.78194944570737e-05 -2.2033151968789075e-05 0 -2.6293430098878215e-05 -2.40735290430955e-05 0 -2.78194944570737e-05 -2.2033151968789075e-05 0 -2.8750018343132959e-05 -2.627547868608575e-05 0 -3.0041133753708612e-05 -2.1815545342863956e-05 0 -3.0797865221308394e-05 -2.5889116033210373e-05 0 -2.78194944570737e-05 -2.2033151968789075e-05 0 -3.0797865221308394e-05 -2.5889116033210373e-05 0 -2.8750018343132959e-05 -2.627547868608575e-05 0 -2.78194944570737e-05 -2.2033151968789075e-05 0 -3.411243881942653e-05 -2.5467678727337183e-05 0 -3.2757406389058708e-05 -2.5608620716061476e-05 0 -3.1661946248330113e-05 -2.1930712914708253e-05 0 -3.0041133753708612e-05 -2.1815545342863956e-05 0 -3.2757406389058708e-05 -2.5608620716061476e-05 0 -3.0797865221308394e-05 -2.5889116033210373e-05 0 -3.0041133753708612e-05 -2.1815545342863956e-05 0 -3.1661946248330113e-05 -2.1930712914708253e-05 0 -3.2757406389058708e-05 -2.5608620716061476e-05 0 -3.432919307462053e-05 -2.9378302288618923e-05 0 -3.0797865221308394e-05 -2.5889116033210373e-05 0 -3.2757406389058708e-05 -2.5608620716061476e-05 0 -3.411243881942653e-05 -2.5467678727337183e-05 0 -3.5150870843697962e-05 -2.7984438790038038e-05 0 -3.2757406389058708e-05 -2.5608620716061476e-05 0 -3.432919307462053e-05 -2.9378302288618923e-05 0 -3.2757406389058708e-05 -2.5608620716061476e-05 0 -3.5150870843697962e-05 -2.7984438790038038e-05 0 -3.411243881942653e-05 -2.5467678727337183e-05 0 -3.6286820619271914e-05 -2.7874596333285386e-05 0 -3.5150870843697962e-05 -2.7984438790038038e-05 0 -3.411243881942653e-05 -2.5467678727337183e-05 0 -3.4370674968029756e-05 -2.4165309650253762e-05 0 -3.6286820619271914e-05 -2.7874596333285386e-05 0 -3.411243881942653e-05 -2.5467678727337183e-05 0 -3.1661946248330113e-05 -2.1930712914708253e-05 0 -3.4370674968029756e-05 -2.4165309650253762e-05 0 -3.7105791734905763e-05 -2.7027146831894944e-05 0 -3.6286820619271914e-05 -2.7874596333285386e-05 0 -3.4370674968029756e-05 -2.4165309650253762e-05 0 -1.4187899193081271e-05 -7.0037056492570001e-05 0 -2.5704445417497983e-05 -7.8622020355338705e-05 0 -1.5329991380723748e-05 -8.2946736203419694e-05 0 -2.5701898005757974e-05 -4.8541259910166917e-05 0 -2.7338608431880278e-05 -5.7168137083974352e-05 0 -3.7105791734905763e-05 -2.7027146831894944e-05 0 -3.917217978945286e-05 -3.1378316535460762e-05 0 -3.6286820619271914e-05 -2.7874596333285386e-05 0 -1.5329991380723748e-05 -8.2946736203419694e-05 0 -2.5704445417497983e-05 -7.8622020355338705e-05 0 -2.5013816227365281e-05 -9.0562730612017491e-05 0 -1.4187899193081271e-05 -7.0037056492570001e-05 0 -2.2645160029173033e-05 -6.6247752198594486e-05 0 -2.5704445417497983e-05 -7.8622020355338705e-05 0 -1.3489679752014212e-05 -5.7473015581341091e-05 0 -2.2645160029173033e-05 -6.6247752198594486e-05 0 -1.4187899193081271e-05 -7.0037056492570001e-05 0 -3.4224333240094803e-05 -2.2258132154434957e-05 0 -3.7105791734905763e-05 -2.7027146831894944e-05 0 -3.4370674968029756e-05 -2.4165309650253762e-05 0 -2.3874520742759141e-05 -3.9896735207111898e-05 0 -2.5701898005757974e-05 -4.8541259910166917e-05 0 -1.3489679752014212e-05 -5.7473015581341091e-05 0 -2.0692487496281124e-05 -5.2610371072167906e-05 0 -2.2645160029173033e-05 -6.6247752198594486e-05 0 -2.851388292337486e-05 -6.045652063670802e-05 0 -2.2645160029173033e-05 -6.6247752198594486e-05 0 -2.0692487496281124e-05 -5.2610371072167906e-05 0 -1.3458901184698514e-05 -4.5231269792791672e-05 0 -2.0692487496281124e-05 -5.2610371072167906e-05 0 -1.3489679752014212e-05 -5.7473015581341091e-05 0 -3.4224333240094803e-05 -2.2258132154434957e-05 0 -3.1630116501256349e-05 -2.0320272914208734e-05 0 -3.039864429694242e-05 -1.780894846483227e-05 0 -2.8436887478292173e-05 -1.5635964129107275e-05 0 -3.039864429694242e-05 -1.780894846483227e-05 0 -3.1630116501256356e-05 -2.0320272914208734e-05 0 -3.1630116501256356e-05 -2.0320272914208734e-05 0 -3.4370674968029756e-05 -2.4165309650253762e-05 0 -3.1661946248330113e-05 -2.1930712914708253e-05 0 -3.4224333240094803e-05 -2.2258132154434957e-05 0 -3.4370674968029756e-05 -2.4165309650253762e-05 0 -3.1630116501256356e-05 -2.0320272914208734e-05 0 
</DataArray>
</PointData>
<CellData Scalars="region_id,cross_section_updated,displacement_divergence," Vectors="" Tensors="stress,">
<DataArray type="Float64" Name="region_id" format="ascii">
1 1 1 1 1 1 1 1 1 1 1 1 1 1 1 1 1 1 1 1 1 1 1 1 1 1 1 1 1 1 1 1 1 1 1 1 1 1 1 1 1 1 1 1 1 1 1 1 1 1 1 1 1 1 1 1 1 1 1 1 1 1 1 1 1 1 1 1 1 1 1 1 1 1 1 1 1 1 1 1 1 1 1 1 1 1 1 1 1 1 1 1 1 1 1 1 1 1 1 1 1 1 1 1 1 1 1 1 1 1 1 1 1 1 1 1 1 1 1 1 1 1 1 1 1 1 1 1 1 1 1 1 1 1 1 1 1 1 1 1 1 1 1 1 1 1 1 1 1 1 1 1 1 1 1 1 1 1 1 1 1 1 1 1 1 1 1 1 1 1 1 1 1 1 1 1 1 1 1 1 1 1 1 1 1 1 1 1 1 1 1 1 1 1 1 1 1 1 1 1 1 1 1 1 1 1 1 1 1 1 1 1 1 1 1 1 1 1 1 1 1 1 1 1 1 1 1 1 1 1 1 1 1 1 1 1 1 1 1 1 1 1 1 1 1 1 1 1 1 1 1 1 1 1 1 1 1 1 1 1 1 1 1 1 1 1 1 1 1 1 1 1 1 1 1 1 1 1 1 1 1 1 1 1 1 1 1 1 1 1 1 1 1 1 1 1 1 1 1 1 1 1 1 1 1 1 1 1 1 1 1 1 1 1 1 1 1 1 1 1 1 1 1 1 1 1 1 1 1 1 1 1 1 1 1 1 1 1 1 1 1 1 1 1 1 1 1 1 1 1 1 1 1 1 1 1 1 1 1 1 1 1 1 1 1 1 1 1 1 1 1 1 1 1 1 1 1 1 1 1 1 1 1 1 1 1 1 1 1 1 1 1 1 1 1 1 1 1 1 1 1 1 1 1 1 1 1 1 1 1 1 1 1 1 1 1 1 1 1 1 1 1 1 1 1 1 1 1 1 1 1 1 1 1 1 1 1 1 1 1 1 1 1 1 1 1 1 1 1 1 1 1 1 1 1 1 1 1 1 1 1 1 1 1 1 1 1 1 1 1 1 1 1 1 1 1 1 1 1 1 1 1 1 1 1 1 1 1 1 1 1 1 1 1 1 1 1 1 1 1 1 1 1 1 1 1 1 1 1 1 1 1 1 1 1 1 1 1 1 1 1 1 1 1 1 1 1 1 1 1 1 1 1 1 1 1 1 1 3 1 1 3 1 1 3 1 1 1 1 1 1 1 1 1 1 1 1 1 3 1 1 1 1 1 3 1 1 1 1 1 1 1 1 1 1 1 1 1 1 1 1 1 1 1 1 1 1 1 1 1 1 1 1 1 1 1 1 1 1 1 1 1 1 1 1 1 1 1 1 1 1 1 1 1 1 1 1 1 1 1 1 1 1 1 1 1 1 1 1 1 1 1 1 1 1 1 1 1 1 1 1 1 1 1 1 1 1 1 1 1 1 1 1 1 1 1 1 1 1 1 1 1 1 1 1 1 1 1 1 1 1 1 1 1 1 1 1 1 1 1 1 1 1 1 1 1 1 1 1 1 1 1 1 1 1 1 1 1 1 1 1 1 1 1 1 1 1 1 1 1 1 1 1 1 1 1 1 1 1 1 1 1 1 1 1 1 1 1 1 1 1 1 1 3 1 1 1 3 1 1 3 1 1 1 1 1 1 1 1 1 1 1 3 1 1 1 1 3 1 1 1 1 1 1 1 1 1 1 1 1 1 1 1 1 1 1 1 1 1 1 1 1 1 1 1 1 1 1 1 1 1 1 1 1 1 1 1 1 1 1 1 1 1 1 1 1 1 1 1 1 1 1 1 1 1 1 2 1 1 1 1 1 1 1 1 1 1 1 1 1 1 2 1 1 2 1 2 1 1 1 1 1 1 1 1 1 1 1 1 1 2 1 1 1 1 1 1 1 1 1 1 1 1 1 1 1 1 1 1 1 1 1 1 1 1 1 1 1 1 1 1 1 1 1 1 1 1 1 1 1 1 1 1 1 1 1 1 1 1 1 1 1 1 1 1 1 1 1 1 1 1 1 1 1 1 1 1 1 1 1 1 1 1 1 1 1 1 1 1 1 1 1 1 1 1 1 1 1 1 1 1 1 1 1 1 1 1 1 1 1 1 1 1 1 1 1 1 1 1 1 1 1 1 1 1 1 1 1 1 1 1 1 1 1 1 1 1 1 1 1 1 1 1 1 1 1 1 2 1 1 2 1 2 1 1 1 1 1 1 1 1 1 1 1 1 1 1 1 1 1 1 1 1 1 1 1 1 1 1 1 1 1 1 1 1 1 1 1 1 1 1 1 1 1 1 1 1 1 1 1 2 1 1 1 1 1 2 1 1 1 1 1 1 1 
</DataArray>
<DataArray type="Float64" Name="stress" NumberOfComponents="9" format="ascii">
-0.11841692580349776 -0.014403279113881512 0 -0.014403279113881512 -0.016395548406307206 0 0 0 -0.033703118552451249 -0.10296869371917518 -0.014615652069303556 0 -0.014615652069303556 -0.034260735309777766 0 0 0 -0.034307357257238234 -0.10845182975398099 -0.0083169825030508064 0 -0.0083169825030508064 -0.0021229658938819547 0 0 0 -0.027643698911965737 -0.094606273752729328 -0.0093528092116543105 0 -0.0093528092116543105 -0.021469803982156872 0 0 0 -0.029019019433721559 -0.082210627099583627 -0.0040803998816864306 0 -0.0040803998816864306 -0.027418138583511498 0 0 0 -0.027407191420773781 -0.082199912063957256 -0.0040704487392016053 0 -0.0040704487392016053 -0.027383360588027102 0 0 0 -0.027395818162996095 -0.086975176408501415 -0.002239177955479562 0 -0.002239177955479562 -0.011751122169477247 0 0 0 -0.024681574644494664 -0.092227700580123265 -0.0063046659803040698 0 -0.0063046659803040698 -0.01517222860285165 0 0 0 -0.026849982295743736 -0.087563051293647109 -0.0022117340128600706 0 -0.0022117340128600706 -0.014182203915563945 0 0 0 -0.025436313802302768 -0.078354993850773824 0.00059086530528655481 0 0.00059086530528655481 -0.0094867190454038259 0 0 0 -0.021960428224044416 -0.091745846434334366 0.00019675970261737608 0 0.00019675970261737608 -0.0091023314266841931 0 0 0 -0.025212044465254636 -0.07823707501250847 0.003136445003233115 0 0.003136445003233115 -0.0038892068617233794 0 0 0 -0.020531570468557959 -0.096896102799688966 0.0017444976420711716 0 0.0017444976420711716 -0.0041254079723726522 0 0 0 -0.025255377693015425 -0.089936572523528005 0.0010907166649612131 0 0.0010907166649612131 -0.0021516991912294385 0 0 0 -0.023022067928689376 -0.10237642773653786 0.001328745679278363 0 0.001328745679278363 -0.0019150892415205484 0 0 0 -0.026072879244514614 -0.10041837579694514 -0.00068722943429041952 0 -0.00068722943429041952 -0.00077147884648019055 0 0 0 -0.025297463660856334 -0.09709795821377544 0.00030184789037876469 0 0.00030184789037876469 -8.1342019396780062e-06 0 0 0 -0.024276523103928783 -0.10028049662315586 -0.002426738808010101 0 -0.002426738808010101 -0.0080772775230268795 0 0 0 -0.027089443536545681 -0.057239643455706063 0.0033003414050190001 0 0.0033003414050190001 -0.019075853742768413 0 0 0 -0.019078874299618617 -0.060530362879221693 0.0049615535108748082 0 0.0049615535108748082 -0.01568022267886128 0 0 0 -0.019052646389520745 -0.064301900033487819 0.0019059959347443724 0 0.0019059959347443724 -0.015810985587219932 0 0 0 -0.020028221405176939 -0.071761181390495574 0.002332706424151071 0 0.002332706424151071 -0.015815601690640835 0 0 0 -0.021894195770284106 -0.07244863069730012 0.00099572934400089515 0 0.00099572934400089515 -0.017060659246280998 0 0 0 -0.022377322485895277 -0.065579618027014369 0.0036212740809488568 0 0.0036212740809488568 -0.013994716807643047 0 0 0 -0.019893583708664345 -0.065495887693794108 0.0015789133896946413 0 0.0015789133896946413 -0.021837550145143984 0 0 0 -0.021833359459734525 -0.075185721760273758 0.0032775533294684711 0 0.0032775533294684711 -0.0088542718447731684 0 0 0 -0.021009998401261724 -0.077006877380668914 0.0015783652230296815 0 0.0015783652230296815 -0.0092600960241145322 0 0 0 -0.021566743351195846 -0.073065094893154325 0.0012988052881670173 0 0.0012988052881670173 -0.013717860965688552 0 0 0 -0.021695738964710724 -0.062862539041132509 0.0024005957023027795 0 0.0024005957023027795 -0.011497627368890904 0 0 0 -0.018590041602505856 -0.062601673180317396 0.0036847168995739997 0 0.0036847168995739997 -0.010123444892017542 0 0 0 -0.018181279518083737 -0.056970807578774825 0.0055253813992150935 0 0.0055253813992150935 -0.01221635026380373 0 0 0 -0.01729678946064463 -0.05456285658906998 0.0026216912909555437 0 0.0026216912909555437 -0.014581300480134927 0 0 0 -0.017286039267301219 -0.055471985429638576 0.0049235975622074716 0 0.0049235975622074716 -0.0087172194855701258 0 0 0 -0.016047301228802172 -0.056729443785395517 0.0025025453490273575 0 0.0025025453490273575 -0.0080935477156761203 0 0 0 -0.016205747875267903 -0.064668815147061409 0.0054154860582709633 0 0.0054154860582709633 -0.005977483309666673 0 0 0 -0.017661574614182024 -0.077007903605661274 0.0054525106997470665 0 0.0054525106997470665 -0.0050982938856170348 0 0 0 -0.020526549372819565 -0.072918882909503435 0.0042193638910057781 0 0.0042193638910057781 -0.0077735979243682305 0 0 0 -0.020173120208467923 -0.066414581941218839 0.0035750224754306143 0 0.0035750224754306143 -0.0058470025665383714 0 0 0 -0.01806539612693929 -0.076379642705849016 0.0045510833293142886 0 0.0045510833293142886 -0.0024511062100081929 0 0 0 -0.019707687228964297 -0.079184576597579354 0.0067459217797755863 0 0.0067459217797755863 -0.002931992337149969 0 0 0 -0.020529142233682324 -0.07092753902126489 0.0053771615813430346 0 0.0053771615813430346 -0.0013838010205460063 0 0 0 -0.018077835010452709 -0.067016286293551358 0.0076248332971592322 0 0.0076248332971592322 -0.00027052162196306018 0 0 0 -0.016821701978878612 -0.067249874217200162 0.0045759634492276418 0 0.0045759634492276418 -0.0022269477764466777 0 0 0 -0.017369205498411706 -0.058454217285264683 0.0035392611062549373 0 0.0035392611062549373 -0.0041175245135642979 0 0 0 -0.015642935449707254 -0.066476654307020613 0.0064470563880186169 0 0.0064470563880186169 -0.0031494547732189822 0 0 0 -0.017406527270059886 -0.063559434841674464 0.003078443446297382 0 0.003078443446297382 -0.0009119868814437132 0 0 0 -0.016117855430779541 -0.050999941271856405 0.003190677209164018 0 0.003190677209164018 -0.0024732025280225084 0 0 0 -0.013368285949969722 -0.057322413364785225 0.0045754668728230736 0 0.0045754668728230736 -0.0028758594981058636 0 0 0 -0.015049568215722774 -0.10093178843665022 0.0021716737317173489 0 0.0021716737317173489 -0.0012926555253920183 0 0 0 -0.025556110990510583 -0.094451871461559644 0.0056795410857817738 0 0.0056795410857817738 -0.00072480638863486879 0 0 0 -0.023794169462548635 -0.10811425221961687 0.0033601223284900547 0 0.0033601223284900547 -0.00067932859207042728 0 0 0 -0.027198395202921843 -0.097660752159468206 0.0030605989762450755 0 0.0030605989762450755 -6.7350073848928584e-05 0 0 0 -0.024432025558329282 -0.086773714996103216 0.003670155158776018 0 0.003670155158776018 -0.0014175570742073068 0 0 0 -0.022047818017577638 -0.087806074109412338 0.0032514008092250565 0 0.0032514008092250565 -0.0058264142079541004 0 0 0 -0.02340812207934163 -0.087965191108450289 0.005808852918614979 0 0.005808852918614979 -0.0035463228611195274 0 0 0 -0.022877878492392433 -0.091411565380994195 0.0031856052459928626 0 0.0031856052459928626 -0.0019044887232259056 0 0 0 -0.023329013526055018 -0.079845481896264392 0.0053480212556831566 0 0.0053480212556831566 -0.0015068016638151716 0 0 0 -0.020338070890019884 -0.092126021421523652 0.0065986838514478846 0 0.0065986838514478846 -0.0020388672310644729 0 0 0 -0.023541222163147038 -0.082743675508653525 0.0053870082982049802 0 0.0053870082982049802 -0.00070321092064662416 0 0 0 -0.020861721607325051 -0.091220972730959374 0.0058280132916172997 0 0.0058280132916172997 0.00026193128498008811 0 0 0 -0.022739760361494818 -0.10248598907012391 0.0044216221844127143 0 0.0044216221844127143 -0.00073400538141005223 0 0 0 -0.025804998612883462 -0.1015770046594637 0.0043374194941509792 0 0.0043374194941509792 -0.0012912297324705335 0 0 0 -0.025717058597983587 -0.10049481699424329 0.0031148464821838875 0 0.0031148464821838875 0.00042663755123657776 0 0 0 -0.025017044860751663 -0.11421379020485634 0.0037326664630681953 0 0.0037326664630681953 -0.00057737629350618214 0 0 0 -0.028697791624590605 -0.1176770348242267 0.0033258559330646004 0 0.0033258559330646004 -0.00042364623743876284 0 0 0 -0.029525170265416387 -0.10185763884640515 0.0042498534508931263 0 0.0042498534508931263 0.0012030969669642039 0 0 0 -0.0251636354698603 -0.10729806442932485 0.0028528411703211895 0 0.0028528411703211895 0.00079984296775097163 0 0 0 -0.026624555365393439 -0.12689508610584133 0.0022043987169333445 0 0.0022043987169333445 0.0011833202036853896 0 0 0 -0.03142794147553897 -0.10906647082991675 0.005876144493521418 0 0.005876144493521418 0.0019670412616356603 0 0 0 -0.026774857392070278 -0.10575802742586539 9.7913174844560524e-05 0 9.7913174844560524e-05 0.00030230515846471628 0 0 0 -0.026363930566850175 -0.11170816801348711 0.0024012006367378769 0 0.0024012006367378769 0.0023356090915983563 0 0 0 -0.027343139730472157 -0.13461381524836291 -0.00058622850223851754 0 -0.00058622850223851754 -0.00042382940774965405 0 0 0 -0.033759411164028114 -0.084872262266305634 0.00042536247786987419 0 0.00042536247786987419 0.005235614097910124 0 0 0 -0.01990916204209886 -0.08150400263115655 0.0072072615574157728 0 0.0072072615574157728 0.0031709223785325522 0 0 0 -0.019583270063155984 -0.094943727806131042 0.005266540516697683 0 0.005266540516697683 0.00032693531709193646 0 0 0 -0.023654198122259787 -0.094248246386708298 0.0048491874445812655 0 0.0048491874445812655 0.0024545297759311913 0 0 0 -0.02294842915269428 -0.082267823771664611 0.0083492667769667628 0 0.0083492667769667628 0.0018083833902609592 0 0 0 -0.020114860095350906 -0.10275771534258336 0.0082711723704521796 0 0.0082711723704521796 0.0022978941630532601 0 0 0 -0.025114955294882516 -0.093763331242278342 0.0046799606283722192 0 0.0046799606283722192 -0.0001120959665194543 0 0 0 -0.023468856802199484 -0.092024645466255439 0.0079903474088573109 0 0.0079903474088573109 0.0005062457807671546 0 0 0 -0.022879599921372045 -0.081443879939655822 0.0070576344354698062 0 0.0070576344354698062 -0.00025982952523916775 0 0 0 -0.020425927366223767 -0.071414748373878983 0.0069243227213087871 0 0.0069243227213087871 0.00074543838688438668 0 0 0 -0.017667327496748646 -0.071363890008368347 0.004304677339398183 0 0.004304677339398183 0.00080289493992695415 0 0 0 -0.017640248767110355 -0.068870772280268222 0.0035500847240573855 0 0.0035500847240573855 0.0040563566229986636 0 0 0 -0.016203603914317362 -0.062372254141921345 0.0059858814805992325 0 0.0059858814805992325 0.0013333701529081449 0 0 0 -0.015259720997253305 -0.081660123976223714 0.0051698132412739519 0 0.0051698132412739519 0.0016787329899531356 0 0 0 -0.019995347746567631 -0.055235480525990074 0.0019159251563590617 0 0.0019159251563590617 0.0017325867864291591 0 0 0 -0.013375723434890224 -0.057489585584589921 0.0057227548510568067 0 0.0057227548510568067 -0.00049563353972775434 0 0 0 -0.014496304781079406 -0.060315916957547469 0.001726346566335143 0 0.001726346566335143 0.0040072517860673396 0 0 0 -0.014077166292870015 -0.048869094338480794 -0.0019030917212809577 0 -0.0019030917212809577 0.0066616238063718358 0 0 0 -0.010551867633027248 -0.051879236957872568 0.0037865202001572777 0 0.0037865202001572777 0.003751803476265192 0 0 0 -0.012031858370401841 -0.058129036296355796 0.0012045074688737112 0 0.0012045074688737112 0.0091700456255335294 0 0 0 -0.012239747667705532 -0.045588739432758672 -0.00076914187290495761 0 -0.00076914187290495761 0.0094712724243532082 0 0 0 -0.0090293667521013574 -0.047099572104668794 -0.0033340617742927993 0 -0.0033340617742927993 0.015754918277050278 0 0 0 -0.0078361634569046323 -0.070235888121830653 0.0070996397924331725 0 0.0070996397924331725 0.0028211740709547239 0 0 0 -0.016853678512718975 -0.075139937653424249 0.0023524378086526021 0 0.0023524378086526021 0.0041174264906917307 0 0 0 -0.017755627790683171 -0.058081199940245312 0.0032322733455292796 0 0.0032322733455292796 0.0044332596967428251 0 0 0 -0.013411985060875611 -0.062711776017154747 4.7827014930321154e-05 0 4.7827014930321154e-05 0.0080152996836557189 0 0 0 -0.01367411908337475 -0.068642970252227195 0.0054971122885737883 0 0.0054971122885737883 0.0077157907831825745 0 0 0 -0.015231794867261131 -0.074838691939488791 0.0048090422547946987 0 0.0048090422547946987 0.0096941622771452574 0 0 0 -0.016286132415585866 -0.065462807019158603 -0.0012223677601011784 0 -0.0012223677601011784 0.020581683736508816 0 0 0 -0.011220280820662426 -0.071039491783954578 -0.0044388233384627385 0 -0.0044388233384627385 0.010861034864766275 0 0 0 -0.015044614229797087 -0.031356117523795732 -0.0070257513659870707 0 -0.0070257513659870707 0.018646016668248444 0 0 0 -0.0031775252138867977 -0.060055723998704208 0.001493476501917626 0 0.001493476501917626 0.014380018638230449 0 0 0 -0.011418926340118481 -0.047924499783029581 -0.0035554028853623243 0 -0.0035554028853623243 0.015534620707078034 0 0 0 -0.008097469768987911 -0.046909827343965732 -0.0037025447424825636 0 -0.0037025447424825636 0.025562611384774836 0 0 0 -0.0053368039897976755 -0.033684160361529443 -0.011329594283081668 0 -0.011329594283081668 0.027741758506481085 0 0 0 -0.0014856004637621087 -0.048338799853570188 -0.0078256921463717155 0 -0.0078256921463717155 0.038726673576323895 0 0 0 -0.0024030315693115839 -0.049385574570045609 -0.017950894012736529 0 -0.017950894012736529 0.037281976506143955 0 0 0 -0.0030258995159753721 -0.043131380154481591 -0.021562983087603294 0 -0.021562983087603294 0.031869733733677519 0 0 0 -0.0028154116052010181 -0.032751539172530958 -0.016090412653216354 0 -0.016090412653216354 0.058608048352116637 0 0 0 0.0064641272948964545 -0.068070117561202265 -0.010997662929399743 0 -0.010997662929399743 0.024653589917457197 0 0 0 -0.010854131910936343 -0.054454447583326848 -0.0089747485144068551 0 -0.0089747485144068551 0.018729862463532587 0 0 0 -0.008931146279948482 -0.054198021686080872 -0.020003929784602748 0 -0.020003929784602748 0.022505887620515086 0 0 0 -0.0079230335163914811 -0.072543883967595563 -0.006779597499858292 0 -0.006779597499858292 0.012007029458977247 0 0 0 -0.015134213627154586 -0.07214664072851773 -0.01594090054668082 0 -0.01594090054668082 0.015094466925316796 0 0 0 -0.014263043450800289 -0.086279661012251346 -0.0090037291223477381 0 -0.0090037291223477381 0.01049667657229475 0 0 0 -0.018945746109989142 -0.094513197393555737 -0.0013289000625416603 0 -0.0013289000625416603 0.0040152137703322044 0 0 0 -0.022624495905805869 -0.097511673036552671 -0.012178042054272031 0 -0.012178042054272031 0.0080618796052126518 0 0 0 -0.022362448357835074 -0.10745549582397329 -0.0017360594120554296 0 -0.0017360594120554296 0.0011083807053846595 0 0 0 -0.026586778779647213 -0.13361549525806027 -0.0024937271083442045 0 -0.0024937271083442045 0.0030928005320165486 0 0 0 -0.032630673681510902 -0.11296561136748323 0.00054020772705873354 0 0.00054020772705873354 0.0017284598286528285 0 0 0 -0.027809287884707712 -0.10993880247552411 -0.0047095714406356626 0 -0.0047095714406356626 0.0035128770531798192 0 0 0 -0.02660648135558609 -0.11550013701326362 -0.0019247624152801679 0 -0.0019247624152801679 0.0001566452777396754 0 0 0 -0.028835872933881027 -0.10613700461894759 0.00386180696613031 0 0.00386180696613031 0.0020785874932393034 0 0 0 -0.026014604281427073 -0.13737578930114669 0.0017266898648945885 0 0.0017266898648945885 0.00067848884307220025 0 0 0 -0.034174325114518622 -0.11555806032764483 0.0052724726449090709 0 0.0052724726449090709 0.0015147254069311292 0 0 0 -0.028510833730178389 -0.094555877273690039 0.0058455274028605397 0 0.0058455274028605397 0.0046661388576343388 0 0 0 -0.022472434604013894 -0.083640971802171893 0.0018089970121452359 0 0.0018089970121452359 0.0085450008589009752 0 0 0 -0.018773992735817702 -0.094862242570779381 -0.0027240991393156361 0 -0.0027240991393156361 0.0055323280396472052 0 0 0 -0.022332478632783065 -0.050949962969232807 -0.0088472006567775069 0 -0.0088472006567775069 0.053374232158812471 0 0 0 0.00060606729739490217 -0.050348674822436046 -0.010086029664119554 0 -0.010086029664119554 0.043723650912874182 0 0 0 -0.0016562559773904938 -0.049812145520714737 -0.013045286808201252 0 -0.013045286808201252 0.038916200996950437 0 0 0 -0.0027239861309410647 -0.05692473641414577 -0.0046185654018217649 0 -0.0046185654018217649 0.045262199744470058 0 0 0 -0.0029156341674189262 -0.054404188783510082 0.0026584785083014462 0 0.0026584785083014462 0.049772661422161746 0 0 0 -0.0011578818403370939 -0.049721726029591372 -9.2608562426062528e-05 0 -9.2608562426062528e-05 0.059511240058682635 0 0 0 0.002447378507272815 -0.058950256384105303 -0.0073831613620635502 0 -0.0073831613620635502 0.057320387647395339 0 0 0 -0.00040746718417746138 -0.058622140564954829 -0.0068159695266391271 0 -0.0068159695266391271 0.05447909998254527 0 0 0 -0.0010357601456023949 -0.056877617863612791 -0.0079934181405870511 0 -0.0079934181405870511 0.0542951979869888 0 0 0 -0.00064560496915603421 -0.057107904921612607 -0.0073644533099751705 0 -0.0073644533099751705 0.050690198618566634 0 0 0 -0.001604426575761507 -0.063445491665338721 -0.0073888113271522171 0 -0.0073888113271522171 0.049511820242201438 0 0 0 -0.0034834178557843348 -0.058560617002859083 -0.010488428979689997 0 -0.010488428979689997 0.054523457048934562 0 0 0 -0.0010092899884811407 -0.058862718057379249 -0.011197587341001757 0 -0.011197587341001757 0.052735082021430804 0 0 0 -0.0015319090089871111 -0.057124554023764235 -0.016296023803810296 0 -0.016296023803810296 0.056540290562727205 0 0 0 -0.00014606586525928167 -0.059481151150337544 -0.01102034890008451 0 -0.01102034890008451 0.063220060447797988 0 0 0 0.00093472732436510053 -0.016292806125166332 -0.051447835282111609 0 -0.051447835282111609 0.10106442862568456 0 0 0 0.021192905625129554 -0.064994333716063446 -0.030223291736230395 0 -0.030223291736230395 0.062700137616619744 0 0 0 -0.00057354902486094622 -0.019705070929336932 -0.034960555343769184 0 -0.034960555343769184 0.056151902152904581 0 0 0 0.0091117078058919193 -0.063214928127030473 -0.015556678998483127 0 -0.015556678998483127 0.055716315177545633 0 0 0 -0.0018746532373712377 -0.0092362695976167808 -0.017280791657963465 0 -0.017280791657963465 0.08594352059037863 0 0 0 0.019176812748190469 -0.014533695657154511 -0.024365853989735148 0 -0.024365853989735148 0.047195298015672793 0 0 0 0.0081654005896295567 0.010993566346168659 -0.030471824964646274 0 -0.030471824964646274 0.060474922979304735 0 0 0 0.01786712233136839 -0.030208478947474304 -0.024721398955891802 0 -0.024721398955891802 0.046133698244649302 0 0 0 0.0039813048242937632 -0.032604224609051172 -0.01100991157136659 0 -0.01100991157136659 0.044008694466000198 0 0 0 0.0028511174642372461 -0.013353488191078837 -0.01782587527990577 0 -0.01782587527990577 0.035010311038598224 0 0 0 0.005414205711879852 -0.035941019387171327 -0.011922113799088266 0 -0.011922113799088266 0.028926377508147492 0 0 0 -0.0017536604697559579 -0.032046974072242412 -0.011564251891647462 0 -0.011564251891647462 0.020829932057484096 0 0 0 -0.002804260503689579 -0.045770094386620809 -0.021414013775958335 0 -0.021414013775958335 0.049665399499620511 0 0 0 0.00097382627824990631 -0.047908820752081166 -0.022877452267436069 0 -0.022877452267436069 0.036907324486818605 0 0 0 -0.0027503740663156057 -0.03069965757845089 -0.021216360387016034 0 -0.021216360387016034 0.041229043785300457 0 0 0 0.0026323465517123917 -0.045152697625196109 -0.013125098828499597 0 -0.013125098828499597 0.022185469365515992 0 0 0 -0.0057418070649200015 -0.040939140490999906 -0.013489311655060341 0 -0.013489311655060341 0.03901572844536294 0 0 0 -0.0004808530114092241 -0.038632736232127159 -0.011656009618915143 0 -0.011656009618915143 0.02427386505015254 0 0 0 -0.0035897177954936424 -0.040270784507405656 -0.0042223197238766448 0 -0.0042223197238766448 0.021015861869805114 0 0 0 -0.0048137306594001339 -0.038160652326881095 -0.006156190770845428 0 -0.006156190770845428 0.011903446783262703 0 0 0 -0.0065643013859045807 -0.040361292010447802 -0.0093342811089998853 0 -0.0093342811089998853 0.020363511656687344 0 0 0 -0.0049994450884400937 -0.039260297820652788 -0.0087084818411086139 0 -0.0087084818411086139 0.015031646408567273 0 0 0 -0.0060571628530213598 -0.041118225734409583 -0.0038998360368942275 0 -0.0038998360368942275 0.016740096804242349 0 0 0 -0.006094532232541805 -0.046293508917638407 -0.00044227639225380422 0 -0.00044227639225380422 0.010299457545440663 0 0 0 -0.0089985128430494082 -0.042027138867387355 -0.0045477610670365681 0 -0.0045477610670365681 0.0083453735154275736 0 0 0 -0.0084204413379899423 -0.04413796006207369 0.00087069257290939631 0 0.00087069257290939631 0.0068953171344747766 0 0 0 -0.0093106607318997267 -0.046216376512694599 -0.00036344077067093465 0 -0.00036344077067093465 0.0019867825748531159 0 0 0 -0.011057398484460367 -0.04969428006106924 0.0035172454655233928 0 0.0035172454655233928 0.0025424841336604692 0 0 0 -0.011787948981852203 -0.042460207347805215 -0.0034528951859000706 0 -0.0034528951859000706 0.01342588287851363 0 0 0 -0.0072585811173229032 -0.040616572723714758 -0.0053793111756768857 0 -0.0053793111756768857 0.011742642602942263 0 0 0 -0.007218482530193103 -0.042111364956325989 -0.0012858816545553847 0 -0.0012858816545553847 0.010344185143804304 0 0 0 -0.0079417949531304412 -0.042122595667984451 -0.0019531126702923337 0 -0.0019531126702923337 0.0068843812223391143 0 0 0 -0.0088095536114113342 -0.040167102749767924 -0.0028468696868416445 0 -0.0028468696868416445 0.014513092724609836 0 0 0 -0.0064135025062895101 -0.037940358615880666 0.002062084760371099 0 0.002062084760371099 0.008187162291691287 0 0 0 -0.0074382990810473518 -0.035211732192112884 0.0035923549694527597 0 0.0035923549694527597 0.01540267937786392 0 0 0 -0.004952263203562241 -0.036686075605406779 0.0042236088022754173 0 0.0042236088022754173 0.011184423982843486 0 0 0 -0.0063754129056408215 -0.041300185717960701 -0.0012481345812124015 0 -0.0012481345812124015 0.017108839859984362 0 0 0 -0.0060478364644940873 -0.039118687846463204 -0.002440402964138489 0 -0.002440402964138489 0.024495990109975822 0 0 0 -0.003655674434121842 -0.045821843054842736 -0.0039535176479655355 0 -0.0039535176479655355 0.02155060934352377 0 0 0 -0.0060678084278297309 -0.041168571113298177 -0.0026152765767735731 0 -0.0026152765767735731 0.035170285735222892 0 0 0 -0.0014995713445188144 -0.039548380685398864 0.0016763705403464021 0 0.0016763705403464021 0.026492798906961074 0 0 0 -0.003263895444609444 -0.050685129435049193 -0.0040413945676477138 0 -0.0040413945676477138 0.031564655761961373 0 0 0 -0.0047801184182719534 -0.045020425201419183 -0.0072064676744599543 0 -0.0072064676744599543 0.044083460171911844 0 0 0 -0.00023424125737686076 -0.047547263388047635 -0.0094059578064552771 0 -0.0094059578064552771 0.028976295811470029 0 0 0 -0.0046427418941443858 -0.041252419822090762 0.0069034705636105888 0 0.0069034705636105888 0.055844609723673402 0 0 0 0.0036480474753956527 -0.049888171799429955 0.0023454751969598977 0 0.0023454751969598977 0.036703160982791666 0 0 0 -0.0032962527041595739 -0.044301782183276656 -0.00080013341799013043 0 -0.00080013341799013043 0.048575323060178324 0 0 0 0.0010683852192254198 -0.040388010275814547 0.003233722356529984 0 0.003233722356529984 0.02672916380131931 0 0 0 -0.0034147116186238041 -0.039554661488540227 0.0083952152323606508 0 0.0083952152323606508 0.035297441428272146 0 0 0 -0.0010643050150670299 -0.037487013196700121 0.0067350687462685577 0 0.0067350687462685577 0.038315867459889741 0 0 0 0.00020721356579740191 -0.034629560152084571 0.0082157434033607868 0 0.0082157434033607868 0.017330208393448416 0 0 0 -0.0043248379396590413 -0.0328321186038062 0.0074847155475621808 0 0.0074847155475621808 0.02206123369505297 0 0 0 -0.0026927212271883232 -0.027184348483010504 0.010937928341594204 0 0.010937928341594204 0.014124583899335227 0 0 0 -0.0032649411459188243 -0.026317478469048861 0.0090704758650866652 0 0.0090704758650866652 0.0058805768470554711 0 0 0 -0.0051092254054983478 -0.030514630854832574 0.0058696561335405432 0 0.0058696561335405432 -0.0019192217015797375 0 0 0 -0.0081084631391030865 -0.031633753793161766 0.0074408269658271459 0 0.0074408269658271459 0.0084766155567438783 0 0 0 -0.0057892845591044724 -0.031464339546539405 0.0069158014272569634 0 0.0069158014272569634 0.0069957970552648671 0 0 0 -0.0061171356228186327 -0.037961571020455984 0.0014844559046875343 0 0.0014844559046875343 0.0066967538224006447 0 0 0 -0.0078162042995138289 -0.034962596440424688 0.0037760793122759515 0 0.0037760793122759515 0.00020007900378745183 0 0 0 -0.0086906293591593135 -0.033395883063833134 0.0051353904465905363 0 0.0051353904465905363 0.0023447857439157322 0 0 0 -0.0077627743299793477 -0.03205847944175122 0.0056699519499601257 0 0.0056699519499601257 0.0058714826054037036 0 0 0 -0.0065467492090868825 -0.030594490711357177 0.004960868481808876 0 0.004960868481808876 -0.0054764711060490533 0 0 0 -0.0090177404543515492 -0.030450374686026276 0.005601825925082511 0 0.005601825925082511 -0.0049980207097790972 0 0 0 -0.0088620988489513421 -0.034297177419909494 0.0043014727984622171 0 0.0043014727984622171 -0.0071338297317395348 0 0 0 -0.010357751787912262 -0.025915023451870484 0.0062187400874569821 0 0.0062187400874569821 -0.0076575838708699447 0 0 0 -0.0083931518306851055 -0.026976248010898641 0.0049869136885121821 0 0.0049869136885121821 -0.010412434177845712 0 0 0 -0.0093471705471860865 -0.022890891983575391 0.0071701560938154506 0 0.0071701560938154506 -0.0061121043206765133 0 0 0 -0.0072507490760629744 -0.02729835060097785 0.0059496913805132208 0 0.0059496913805132208 -0.0068797895399100029 0 0 0 -0.0085445350352219684 -0.027700020627242427 0.0067716876227270715 0 0.0067716876227270715 -0.0011845667114365951 0 0 0 -0.0072211468346697651 -0.049867034258920875 0.0027881166444099735 0 0.0027881166444099735 0.002431894689649816 0 0 0 -0.011858784892317772 -0.044398467231327378 0.0023708902022634305 0 0.0023708902022634305 -0.002486646700597903 0 0 0 -0.01172127848298132 -0.049330310322495352 0.0033834951519458867 0 0.0033834951519458867 -0.0028948563925408899 0 0 0 -0.01305629167875905 -0.04133045308910855 0.0022902824757784065 0 0.0022902824757784065 -0.0047565202220126498 0 0 0 -0.011521743327780311 -0.042962568540272271 0.0025664700428739374 0 0.0025664700428739374 0.0025589649976543762 0 0 0 -0.010100900885654476 -0.040881767977427014 0.0025585109392502999 0 0.0025585109392502999 0.0026551977736119989 0 0 0 -0.0095566425509537416 -0.039909469607425405 0.00068917638413873612 0 0.00068917638413873612 0.0012140864080755157 0 0 0 -0.0096738457998374709 -0.037820084136776039 0.0040983736779665811 0 0.0040983736779665811 0.0033834420204992416 0 0 0 -0.0086091605290692062 -0.036827263416271128 0.0028416533505404421 0 0.0028416533505404421 -0.0041427110505280014 0 0 0 -0.010242493616699778 -0.038925537524712221 0.0024039528167890587 0 0.0024039528167890587 -0.0049385428755095899 0 0 0 -0.010966020100055445 -0.034402789933297075 0.0051461480022336132 0 0.0051461480022336132 -0.0075014363284187403 0 0 0 -0.010476056565428951 -0.040855547686601497 0.0042915028576527483 0 0.0042915028576527483 -0.0028146461182582318 0 0 0 -0.010917548451214936 -0.042430436727695531 0.0034579401035668379 0 0.0034579401035668379 -0.0062843957537681485 0 0 0 -0.012178708120365912 -0.048087280136950961 0.002873615287426932 0 0.002873615287426932 -0.0077002776350103656 0 0 0 -0.013946889442990322 -0.049044856632455697 0.0048169577759639374 0 0.0048169577759639374 -0.0074516962968728586 0 0 0 -0.014124138232332146 -0.049743408116078906 0.0036614817606732885 0 0.0036614817606732885 -0.0053192067658127846 0 0 0 -0.013765653720472927 -0.054725841789534595 0.0045787952920519123 0 0.0045787952920519123 -0.0061149812330570505 0 0 0 -0.015210205755647931 -0.04911460185669355 0.005474299860423526 0 0.005474299860423526 -0.011580475005736881 0 0 0 -0.015173769215607608 -0.055486817185405699 0.0038461636350454035 0 0.0038461636350454035 -0.0085224781433779276 0 0 0 -0.016002323832195908 -0.0501740456399088 0.0029290337614284573 0 0.0029290337614284573 -0.012099081338596003 0 0 0 -0.015568281744626204 -0.043692633108647252 0.0053440131710628279 0 0.0053440131710628279 -0.0084503225831164715 0 0 0 -0.013035738922940925 -0.044400038900180135 0.0035320937282001842 0 0.0035320937282001842 -0.014101716379453197 0 0 0 -0.014625438819908335 -0.041160224367189538 0.0057176528819899188 0 0.0057176528819899188 -0.010754750110882002 0 0 0 -0.012978743619517886 -0.040071979495019894 0.0033138410264420392 0 0.0033138410264420392 -0.011306911174013848 0 0 0 -0.012844722667258432 -0.038576458697029116 0.0043668845456000163 0 0.0043668845456000163 -0.0088832715273715959 0 0 0 -0.011864932556100181 -0.033301644636512175 0.0053716836374096558 0 0.0053716836374096558 -0.011476505554985018 0 0 0 -0.011194537547874302 -0.037864468981808938 0.0039096119401685319 0 0.0039096119401685319 -0.0121428837124022 0 0 0 -0.012501838173552786 -0.038152138329057374 0.0065903527745474607 0 0.0065903527745474607 -0.012748773971916346 0 0 0 -0.012725228075243431 -0.040971656981490523 0.0047182435885311669 0 0.0047182435885311669 -0.013656873022201364 0 0 0 -0.013657132500922972 -0.044667234575885201 0.0068614346373086429 0 0.0068614346373086429 -0.013616592735190836 0 0 0 -0.014570956827769013 -0.048758016143287834 0.0042067109274025287 0 0.0042067109274025287 -0.016252779467144665 0 0 0 -0.016252698902608127 -0.052067123936349546 0.0065120720733316522 0 0.0065120720733316522 -0.014998149787172845 0 0 0 -0.016766318430880594 -0.026617343858556582 0.0043773419187081129 0 0.0043773419187081129 -0.011684412655575155 0 0 0 -0.0095754391285329307 -0.024584468769993602 0.0055351694598774898 0 0.0055351694598774898 -0.0099559138259948526 0 0 0 -0.0086350956489971153 -0.029355414160647741 0.0050655812001082863 0 0.0050655812001082863 -0.0096257618295903201 0 0 0 -0.0097452939975595128 -0.029451253921303364 0.005129465209312593 0 0.005129465209312593 -0.010010543565336271 0 0 0 -0.0098654493716599113 -0.032997178050677839 0.0043658933777716812 0 0.0043658933777716812 -0.010939164016395385 0 0 0 -0.010984085516768306 -0.029527450112116316 0.0048822307948910024 0 0.0048822307948910024 -0.011825025153522177 0 0 0 -0.010338118816409624 -0.034194430717127487 0.0047046303496172505 0 0.0047046303496172505 -0.01139976164994611 0 0 0 -0.011398548091768402 -0.033228775251821739 0.0059591003778474818 0 0.0059591003778474818 -0.0114965547894513 0 0 0 -0.011181332510318262 -0.0301302497157106 0.0045399763900118573 0 0.0045399763900118573 -0.010044060401113849 0 0 0 -0.010043577529206109 -0.029006555695833717 0.0050278348414635361 0 0.0050278348414635361 -0.011166602162269687 0 0 0 -0.010043289464525849 -0.025509817753878117 0.0037061433667589468 0 0.0037061433667589468 -0.011253377172554939 0 0 0 -0.0091907987316082636 -0.027500145735734061 0.0045949547209320242 0 0.0045949547209320242 -0.011851633692911626 0 0 0 -0.0098379448571614247 -0.028939234815278922 0.0038974372676407131 0 0.0038974372676407131 -0.011305804503541867 0 0 0 -0.010061259829705198 -0.027488913732066918 0.0039620838735147934 0 0.0039620838735147934 -0.0091634666441318419 0 0 0 -0.0091630950940496912 -0.026247522421131753 0.0028265149706394699 0 0.0028265149706394699 -0.012365582523263299 0 0 0 -0.0096532762360987644 -0.024722864401414191 0.0016882366566045336 0 0.0016882366566045336 -0.0082456525541271929 0 0 0 -0.0082421292388853429 -0.027013749727834879 0.00064385738296539319 0 0.00064385738296539319 -0.013998111765019096 0 0 0 -0.010252965373213492 -0.023699293659441491 0.0014819975005620804 0 0.0014819975005620804 -0.012499543739475634 0 0 0 -0.0090497093497292833 -0.023501248652336697 0.0029454506896783809 0 0.0029454506896783809 -0.011992131314638887 0 0 0 -0.0088733449917438954 -0.023518760315373685 0.00370232660022982 0 0.00370232660022982 -0.012794006243786241 0 0 0 -0.0090781916397899825 -0.024438798158836872 0.0022052148502129387 0 0.0022052148502129387 -0.014563584948388176 0 0 0 -0.009750595776806259 -0.021721336511306484 0.0034527020301458665 0 0.0034527020301458665 -0.013031999377491506 0 0 0 -0.0086883339721994992 -0.023404060070113857 0.0037339014268052187 0 0.0037339014268052187 -0.012926304088576134 0 0 0 -0.0090825910396724937 -0.023111609783365197 0.0016306873467793138 0 0.0016306873467793138 -0.016461839206997345 0 0 0 -0.0098933622475906348 -0.026421909459986986 -0.0016056491287360882 0 -0.0016056491287360882 -0.018449856451558829 0 0 0 -0.011217941477886455 -0.024541393320662429 0.00080886017870416952 0 0.00080886017870416952 -0.014687311079712015 0 0 0 -0.009807176100093613 -0.025075443833250496 0.00025745319471182489 0 0.00025745319471182489 -0.015717532215686295 0 0 0 -0.010198244012234197 -0.026006644047576893 -0.00023046892085762768 0 -0.00023046892085762768 -0.0086674585897706866 0 0 0 -0.0086685256593368974 -0.027820436501596345 -0.0018545122299152849 0 -0.0018545122299152849 -0.0092802246018142964 0 0 0 -0.0092751652758526603 -0.028939381049934227 -0.0020285675250872456 0 -0.0020285675250872456 -0.01386366897574039 0 0 0 -0.010700762506418656 -0.035079968149192918 -0.0045490010527790897 0 -0.0045490010527790897 -0.011695246567367744 0 0 0 -0.011693803679140165 -0.029217905842715684 -0.0014968806516381158 0 -0.0014968806516381158 -0.015130593514536297 0 0 0 -0.011087124839312994 -0.034545810968250816 -0.0055371165475823821 0 -0.0055371165475823821 -0.017525269151451535 0 0 0 -0.013017770029925589 -0.047680493424076903 -0.0067616257100482132 0 -0.0067616257100482132 -0.015897332481575245 0 0 0 -0.015894456476413035 -0.044020346598464634 -0.0095487840136812916 0 -0.0095487840136812916 -0.019982261352542829 0 0 0 -0.016000651987751871 -0.056000103989326679 -0.012057260880250345 0 -0.012057260880250345 -0.021682491689660174 0 0 0 -0.019420648919746715 -0.046677328684232293 -0.0089859710732077512 0 -0.0089859710732077512 -0.021484819391331574 0 0 0 -0.017040537018890967 -0.044575335384765311 -0.0049534540930534126 0 -0.0049534540930534126 -0.018925292794468522 0 0 0 -0.015875157044808449 -0.03759965118116642 -0.0039208552025665018 0 -0.0039208552025665018 -0.018726111703318078 0 0 0 -0.014081440721121127 -0.053859318172904493 -0.0074692260155073071 0 -0.0074692260155073071 -0.016852211985357989 0 0 0 -0.017677882539565627 -0.036166326366398049 -0.0052238660609907808 0 -0.0052238660609907808 -0.018889365370670649 0 0 0 -0.013763922934267175 -0.02857147940024924 -0.0021348388893202338 0 -0.0021348388893202338 -0.020046602703329669 0 0 0 -0.012154520525894726 -0.026714358939438715 0.00058718835582267633 0 0.00058718835582267633 -0.015892704793319234 0 0 0 -0.010651765933189488 -0.026947256613978929 0.00024888342706129533 0 0.00024888342706129533 -0.016784276946044691 0 0 0 -0.010932883390005903 -0.026725165728905795 0.00013179069292710449 0 0.00013179069292710449 -0.015985780882051815 0 0 0 -0.01067773665273941 -0.018784951846489709 0.0032701516591275665 0 0.0032701516591275665 -0.014565617022063958 0 0 0 -0.0083376422171384176 -0.034348518112299845 -0.0054583291250123282 0 -0.0054583291250123282 -0.018929557696632859 0 0 0 -0.013319518952233171 -0.043333232232687764 -0.0089621366934860246 0 -0.0089621366934860246 -0.017434841984546205 0 0 0 -0.015192018554308481 -0.035748893827970078 -0.0042300618459252476 0 -0.0042300618459252476 -0.019712263608997634 0 0 0 -0.013865289359241932 -0.033885337480325801 -0.0012924279576942027 0 -0.0012924279576942027 -0.015912835355476131 0 0 0 -0.012449543208950477 -0.04959607977410898 -0.0083087568497111387 0 -0.0083087568497111387 -0.01882180362476938 0 0 0 -0.017104470849719593 -0.03539938494998883 -0.00950374824238308 0 -0.00950374824238308 -0.017452975993948277 0 0 0 -0.013213090235984278 -0.029910729667506113 -0.0060011311837157265 0 -0.0060011311837157265 -0.01421124696424165 0 0 0 -0.01103049415793694 -0.03213318508516623 -0.0043052642827056693 0 -0.0043052642827056693 -0.014318828392994816 0 0 0 -0.011613003369540261 -0.016327141430755802 0.0010090512842771508 0 0.0010090512842771508 -0.0093888270117624267 0 0 0 -0.0064289921106295556 -0.030253690539035122 -0.0093989378658424268 0 -0.0093989378658424268 -0.0094510179145340101 0 0 0 -0.0099261771133922743 -0.031514517938389622 -0.0086503606550405628 0 -0.0086503606550405628 -0.010050829459753496 0 0 0 -0.010391336849535786 -0.022765277263411311 0.0040931070232330079 0 0.0040931070232330079 -0.010924704231330337 0 0 0 -0.0084224953736854093 -0.021646295707739325 -0.0022131470878599705 0 -0.0022131470878599705 -0.014369313858223636 0 0 0 -0.0090039023914907403 -0.01598313083407963 0.0047995104670725645 0 0.0047995104670725645 -0.011164650880352012 0 0 0 -0.0067869454286079087 -0.0087596283076801715 0.010062964572269989 0 0.010062964572269989 -0.0024471390559263478 0 0 0 -0.0028016918409016281 -0.016529915681883698 0.010616537736561939 0 0.010616537736561939 -0.0020682500403853034 0 0 0 -0.0046495414305672521 -0.015175866677783513 0.0096340426351390444 0 0.0096340426351390444 -0.000660337485634932 0 0 0 -0.0039590510408546095 -0.018495938535883945 0.0072308774146158158 0 0.0072308774146158158 -0.0091085338307266873 0 0 0 -0.0069011180916526572 -0.018160497001430156 0.011031314186178299 0 0.011031314186178299 -0.0026472232590097379 0 0 0 -0.005201930065109976 -0.017440077740665621 0.013914591395872691 0 0.013914591395872691 0.0073151175738837004 0 0 0 -0.0025312400416954775 -0.021420789578951258 0.0097093560311418674 0 0.0097093560311418674 -0.0011758079018474032 0 0 0 -0.0056491493701996617 -0.021024575568850633 0.012255761195521825 0 0.012255761195521825 0.0082882869887121111 0 0 0 -0.0031840721450346297 -0.023689125813169579 0.0083728914313456401 0 0.0083728914313456401 -0.00058264631234475686 0 0 0 -0.0060679430313785847 -0.02699859910296146 0.0083503549343954889 0 0.0083503549343954889 -0.0016612924236742129 0 0 0 -0.0071649728816589207 -0.021748827928584631 0.0069570798738590334 0 0.0069570798738590334 -0.0075840827709190532 0 0 0 -0.0073332276748759176 -0.020656589362670268 0.0078835668376443305 0 0.0078835668376443305 -0.0067246081263075616 0 0 0 -0.0068452993722444601 -0.024284647304675069 0.0051730865857403082 0 0.0051730865857403082 -0.010350152703333039 0 0 0 -0.0086587000020020254 -0.020432689111715321 0.0056024003153432294 0 0.0056024003153432294 -0.011460620064198287 0 0 0 -0.0079733272939783977 -0.022830946776321359 0.0040154279930481734 0 0.0040154279930481734 -0.012480028273837158 0 0 0 -0.0088277437625396294 -0.021398992077094513 0.0039472848145592982 0 0.0039472848145592982 -0.013986944289769779 0 0 0 -0.0088464840917160757 -0.022380418561779712 0.00082311987671853802 0 0.00082311987671853802 -0.016446733378817139 0 0 0 -0.0097067879851492189 -0.02131128890607685 0.0065702271490293562 0 0.0065702271490293562 -0.0091247047461171602 0 0 0 -0.0076089984130485039 -0.018457413847624893 0.0063364451655203956 0 0.0063364451655203956 -0.011968566918351251 0 0 0 -0.0076064951914940355 -0.15318683196658867 -0.0042206694513279765 0 -0.0042206694513279765 -0.0038970922501903038 0 0 0 -0.039270981054194742 -0.13993024716313829 -0.0038311445073771766 0 -0.0038311445073771766 -0.010869471117252982 0 0 0 -0.03769992957009783 -0.14270819880396876 -0.0022392680187362027 0 -0.0022392680187362027 -0.0012413870118636672 0 0 0 -0.035987396453958126 -0.13557941020642547 -0.0047397495350841833 0 -0.0047397495350841833 0.001832670675485773 0 0 0 -0.033436684882734921 -0.14656670602993491 0.0068898180139763086 0 0.0068898180139763086 -0.00096135183878190422 0 0 0 -0.036882014467179203 -0.15813898641415455 0.014964062203490355 0 0.014964062203490355 -0.021464515566362169 0 0 0 -0.044900875495129181 -0.13877822382895716 0.014706470486056248 0 0.014706470486056248 -0.046174256308656694 0 0 0 -0.046238120034403453 -0.12926204779423822 0.0077401375506655698 0 0.0077401375506655698 -0.027615845261605078 0 0 0 -0.039219473263960816 -0.12613819457489486 0.0018113386670017559 0 0.0018113386670017559 -0.019889478951725881 0 0 0 -0.036506918381655186 -0.11714462453000457 -0.0031954707433272558 0 -0.0031954707433272558 -0.014895763126491525 0 0 0 -0.033010096914124022 -0.10962582539680604 -0.00070487860437261156 0 -0.00070487860437261156 -0.03656211842575071 0 0 0 -0.036546985955639183 -0.10960994702612892 -0.00071812763480150373 0 -0.00071812763480150373 -0.036510964717693939 0 0 0 -0.036530227935955714 -0.11744976842413933 -0.0043838469158061014 0 -0.0043838469158061014 -0.020007829945054255 0 0 0 -0.034364399592298388 -0.10036282686386848 -0.0079963214608600296 0 -0.0079963214608600296 -0.012729792872962787 0 0 0 -0.02827315493420781 -0.12209845324364521 -0.0084092981659935149 0 -0.0084092981659935149 -0.0024517259268070357 0 0 0 -0.031137544792613055 -0.14076206159233906 -0.0097124223079119217 0 -0.0097124223079119217 -0.0071001402374324049 0 0 0 -0.036965550457442854 -0.099309750688089726 -0.013235810607229538 0 -0.013235810607229538 -0.0066215141427834051 0 0 0 -0.026482816207718276 -0.12607808648055938 -0.0089021243737632798 0 -0.0089021243737632798 -0.014471804481823135 0 0 0 -0.035137472740595636 -0.096503016633012847 -0.0096660907124579282 0 -0.0096660907124579282 -0.014588058173094699 0 0 0 -0.027772768701526875 -0.090377621144044781 -0.0087540250771543614 0 -0.0087540250771543614 -0.021170631542962219 0 0 0 -0.027887063171751759 -0.095059241655621574 -0.012914659118097782 0 -0.012914659118097782 -0.014546210961555606 0 0 0 -0.027401363154294294 -0.090797654046595802 -0.010066497461220741 0 -0.010066497461220741 -0.020602908192527754 0 0 0 -0.027850140559780884 -0.091898454765077048 -0.0083942841361494807 0 -0.0083942841361494807 -0.02289508563726202 0 0 0 -0.028698385100584759 -0.077994073628615004 -0.0071789674553761522 0 -0.0071789674553761522 -0.026008721721545541 0 0 0 -0.026000698837540137 -0.077482688729173008 -0.011177049844774901 0 -0.011177049844774901 -0.020247590596623677 0 0 0 -0.024432569831449171 -0.073708513955223182 -0.0072136066777608657 0 -0.0072136066777608657 -0.020691526748980969 0 0 0 -0.023600010176051033 -0.071002721581501213 -0.012630933220139426 0 -0.012630933220139426 -0.021726100781735751 0 0 0 -0.023182205590809243 -0.062223182612122702 -0.0079245105488265199 0 -0.0079245105488265199 -0.020736999126161684 0 0 0 -0.020740045434571096 -0.054854402492333816 -0.0060349174697733486 0 -0.0060349174697733486 -0.019428624200864292 0 0 0 -0.018570756673299531 -0.061552286511655001 -0.012812599835678853 0 -0.012812599835678853 -0.019810031712907974 0 0 0 -0.020340579556140749 -0.068677309985574905 -0.012132515099723202 0 -0.012132515099723202 -0.01725755206076485 0 0 0 -0.021483715511584935 -0.068860274119461232 -0.0081960703993544052 0 -0.0081960703993544052 -0.01978546018211667 0 0 0 -0.022161433575394476 -0.055287784280039734 -0.012648405897871758 0 -0.012648405897871758 -0.020513104741562184 0 0 0 -0.018950222255400481 -0.048870024253308934 -0.0094212135187406055 0 -0.0094212135187406055 -0.017386490013509143 0 0 0 -0.016564128566704514 -0.069080296761561757 -0.016330006062700922 0 -0.016330006062700922 -0.0176817551781174 0 0 0 -0.021690512984919787 -0.050414286410855269 -0.014000911558440471 0 -0.014000911558440471 -0.016013999112777393 0 0 0 -0.016607071380908171 -0.068062720861137543 -0.015519592673805406 0 -0.015519592673805406 -0.0080746264423613816 0 0 0 -0.019034336825874715 -0.075738703799962004 -0.020352665439267979 0 -0.020352665439267979 -0.012627948862083758 0 0 0 -0.022091663165511432 -0.052265267772170082 -0.012046797467636055 0 -0.012046797467636055 -0.011229534507729585 0 0 0 -0.015873700569974926 -0.074456372781938729 -0.018450053341733927 0 -0.018450053341733927 -0.0082135763467755547 0 0 0 -0.020667487282178577 -0.070247659489219863 -0.023916991186204738 0 -0.023916991186204738 -0.0052828566516868181 0 0 0 -0.018882629035226681 -0.10049001976877815 -0.019286620787253315 0 -0.019286620787253315 -0.013082623820194532 0 0 0 -0.028393160897243155 -0.098769352236546176 -0.019054822055177511 0 -0.019054822055177511 -0.012006100986000239 0 0 0 -0.027693863305636605 -0.099610200373526914 -0.015262252742607608 0 -0.015262252742607608 -0.0064862943427983627 0 0 0 -0.026524123679081309 -0.073013179321825272 -0.01380981915156026 0 -0.01380981915156026 -0.011338356159416772 0 0 0 -0.021087883870310506 -0.089060457864006889 -0.014560673613833813 0 -0.014560673613833813 -0.016292062591488934 0 0 0 -0.026338130113873964 -0.1189329666944898 -0.014181853926012698 0 -0.014181853926012698 -0.01104167662476702 0 0 0 -0.032493660829814197 -0.11591877187593178 -0.014022163022098251 0 -0.014022163022098251 -0.0011591193621977233 0 0 0 -0.029269472809532373 -0.13210994367733681 -0.013312070665339288 0 -0.013312070665339288 -0.0035378109848547834 0 0 0 -0.033911938665547897 -0.11858756354924729 -0.021418286920597947 0 -0.021418286920597947 -0.003579251798831104 0 0 0 -0.030541703837019585 -0.12797484458228967 -0.016850994481408449 0 -0.016850994481408449 -0.0070898740970592412 0 0 0 -0.0337661796698372 -0.10281615828749513 -0.026291148896685379 0 -0.026291148896685379 -0.0034281342000025972 0 0 0 -0.026561073121874446 -0.12826765398697881 -0.021350925420020227 0 -0.021350925420020227 0.0015413345278874335 0 0 0 -0.03168157986477281 -0.15889378539214788 -0.014613137510415306 0 -0.014613137510415306 -0.0058492858950289078 0 0 0 -0.041185767821794214 -0.16501977040548721 -0.017826753478368589 0 -0.017826753478368589 -0.00329822639605995 0 0 0 -0.042079499200386783 -0.18505084620629147 -0.010059403869414313 0 -0.010059403869414313 -0.0011617238068812874 0 0 0 -0.046553142503293156 -0.15439156019257877 -0.0079002350738738916 0 -0.0079002350738738916 0.00012414241305409857 0 0 0 -0.038566854444881185 -0.1674349342041144 -0.0085888401249036954 0 -0.0085888401249036954 -0.0014259465681692729 0 0 0 -0.042215220193070911 -0.13498637968449378 -0.016291462416774434 0 -0.016291462416774434 -0.0015955898702972662 0 0 0 -0.034145492388697768 -0.15375285110319378 -0.0064767333460378843 0 -0.0064767333460378843 -0.004041768735229408 0 0 0 -0.039448654959605797 -0.13886365519418281 -0.0094013770787730634 0 -0.0094013770787730634 0.0013532752929387368 0 0 0 -0.034377594975310989 -0.19214151744845692 -0.0089775009351308888 0 -0.0089775009351308888 0.005280961994625577 0 0 0 -0.046715138863457864 -0.24836932275656576 -0.00099233609077356566 0 -0.00099233609077356566 -0.00034247202352155615 0 0 0 -0.062177948695021745 -0.18404044513634651 -0.020169682559480262 0 -0.020169682559480262 0.0054811183065463162 0 0 0 -0.044639831707450055 -0.1816436471624534 -0.004303924874043602 0 -0.004303924874043602 0.0022677599421667693 0 0 0 -0.044843971805071686 -0.22413226880301712 -0.0076851518501188437 0 -0.0076851518501188437 0.0018679568217937481 0 0 0 -0.055566077995305857 -0.20204297141908931 -0.0096128839753332612 0 -0.0096128839753332612 -0.00053715362970202518 0 0 0 -0.050645031262197861 -0.16089246755056266 -0.010139233812276757 0 -0.010139233812276757 0.0014540127185183743 0 0 0 -0.039859613708011075 -0.17402563273740684 -0.0085780721675566274 0 -0.0085780721675566274 0.0012403504317529124 0 0 0 -0.04319632057641342 -0.16998961017618242 -0.021893956759168567 0 -0.021893956759168567 0.0026887935230319182 0 0 0 -0.04182520416328761 -0.12975092544844111 -0.021443568426487682 0 -0.021443568426487682 0.0022357520320820112 0 0 0 -0.031878793354089746 -0.13098995693982365 -0.022030006007199204 0 -0.022030006007199204 -0.0010256189679639649 0 0 0 -0.033003893976946898 -0.11106171762410466 -0.020364174316932208 0 -0.020364174316932208 -0.0077392031167087816 0 0 0 -0.029700230185203357 -0.12909492620645754 -0.029715044317113345 0 -0.029715044317113345 0.0080693044880579823 0 0 0 -0.030256405429599897 -0.14748676082048701 -0.014314211388620393 0 -0.014314211388620393 0.0020399796785440794 0 0 0 -0.036361695285485739 -0.13378522931268003 -0.009486355033044791 0 -0.009486355033044791 0.0080686133063997759 0 0 0 -0.031429154001570064 -0.083371796874300519 -0.022278732153161424 0 -0.022278732153161424 0.010466620064876198 0 0 0 -0.018226294202356108 -0.077602397290579592 -0.018330170671337381 0 -0.018330170671337381 0.026179932837167547 0 0 0 -0.012855616113353022 -0.055582174553799782 -0.026761360147918647 0 -0.026761360147918647 0.0063944465535775707 0 0 0 -0.012296932000055535 -0.11751615242831684 -0.019476638477255476 0 -0.019476638477255476 0.010189900955337172 0 0 0 -0.026831562868244931 -0.088872366153846416 -0.026886646217219985 0 -0.026886646217219985 0.00409236883620058 0 0 0 -0.021194999329411483 -0.11587643926952454 -0.029036678393400087 0 -0.029036678393400087 -0.00049047948859282098 0 0 0 -0.029091729689529285 -0.091641197758169868 -0.030213787299469434 0 -0.030213787299469434 -0.0049063326107887939 0 0 0 -0.024136882592239672 -0.086456922618479815 -0.020935798837066734 0 -0.020935798837066734 -0.0026219528580559426 0 0 0 -0.022269718869133929 -0.062518142445245589 -0.026687578918283585 0 -0.026687578918283585 -0.00073206359492683504 0 0 0 -0.015812551510043127 -0.088139643830367875 -0.021260274487662212 0 -0.021260274487662212 0.0029085239030247068 0 0 0 -0.021307779981835778 -0.06150743623182308 -0.017479133428674867 0 -0.017479133428674867 -0.0023732022444721418 0 0 0 -0.015970159619073825 -0.035409604991483587 -0.022635708626093796 0 -0.022635708626093796 -0.00043757097385047072 0 0 0 -0.0089617939913335248 -0.046738282843653361 -0.021271155158233697 0 -0.021271155158233697 -0.0062172723819575865 0 0 0 -0.013238888806402727 -0.023685516988106323 -0.015654062015219083 0 -0.015654062015219083 -0.0044281686996236191 0 0 0 -0.007028421421932482 -0.046614741409903002 -0.012247647935693905 0 -0.012247647935693905 -0.0081583657201572332 0 0 0 -0.013693276782515054 -0.033878943996840695 -0.010751878348158371 0 -0.010751878348158371 0.003492913526639968 0 0 0 -0.00759650761755018 -0.0091997851295876759 -0.017304209362231676 0 -0.017304209362231676 0.0082310466332047583 0 0 0 -0.00024218462409571206 -0.053040299914402532 -0.017280154671831027 0 -0.017280154671831027 0.012322831491632186 0 0 0 -0.010179367105692581 -0.021216127211162533 -0.022290794287196866 0 -0.022290794287196866 0.015723769880437444 0 0 0 -0.0013730893326812654 -0.022613960284631723 -0.0088226075045825803 0 -0.0088226075045825803 0.02344872049070118 0 0 0 0.00020869005151734343 0.0020275262247411441 -0.0018564078437016684 0 -0.0018564078437016684 0.050318818116834862 0 0 0 0.013086586085394009 0.012398305397051355 -0.017777220493354909 0 -0.017777220493354909 0.036723933006650333 0 0 0 0.01228055960092541 -0.043184730856291098 -0.011458907247351657 0 -0.011458907247351657 0.032553154834268239 0 0 0 -0.002657894005505701 -0.056180422587764428 -0.027687201747663426 0 -0.027687201747663426 0.035614236410723032 0 0 0 -0.0051415465442603558 -0.01670804811536214 -0.026782100186997254 0 -0.026782100186997254 0.077052002433372957 0 0 0 0.015085988579502663 0.0034396818272604268 -0.013008166543178365 0 -0.013008166543178365 0.14363113972068886 0 0 0 0.036767705386987343 0.0019705737075511875 0.027379580656601232 0 0.027379580656601232 0.11972375720398548 0 0 0 0.030423582727884174 -0.010892324418140809 0.024134396737834296 0 0.024134396737834296 0.1539773355333991 0 0 0 0.035771252778814655 -0.028070982508802023 0.020546893498723129 0 0.020546893498723129 0.097244938847639295 0 0 0 0.01729348908470929 -0.046829218609394437 -0.0088848098382390273 0 -0.0088848098382390273 0.072974577663751705 0 0 0 0.0065363397635892981 -0.028634888424584559 0.00435583766259863 0 0.00435583766259863 0.074632534007164075 0 0 0 0.011499411395644782 -0.064677143613556504 0.03259161167470509 0 0.03259161167470509 0.084657602535721188 0 0 0 0.0049951147305411503 -0.086196711880394461 0.018265846618266746 0 0.018265846618266746 0.048090466928957909 0 0 0 -0.0095265612378591102 -0.10661018782331555 0.02374025588186433 0 0.02374025588186433 0.061716452353161033 0 0 0 -0.011223433867538657 -0.090244375284668332 -0.0072569338933231066 0 -0.0072569338933231066 0.025750989587417505 0 0 0 -0.016123346424312734 -0.11567413390600761 0.00015020455338574101 0 0.00015020455338574101 0.027344255899228287 0 0 0 -0.022082469501694874 -0.075885033363712995 -0.0036996708935477518 0 -0.0036996708935477518 0.069788803917045894 0 0 0 -0.0015240573616667752 -0.11366817404932041 -0.02332913262515568 0 -0.02332913262515568 0.030634998048986357 0 0 0 -0.020758294000083485 -0.15142397817373124 -0.019980188673200089 0 -0.019980188673200089 0.012725439557089158 0 0 0 -0.034674634654160513 -0.1568281562846098 0.00013458000189844888 0 0.00013458000189844888 0.012346488506922326 0 0 0 -0.036120416944421918 -0.13002279670883043 -0.014106359147192493 0 -0.014106359147192493 0.025536499637653698 0 0 0 -0.026121574267794156 -0.14760889785767423 0.01631635662631431 0 0.01631635662631431 0.026553982564690687 0 0 0 -0.030263728823245843 -0.12275690206178941 0.012959822741973936 0 0.012959822741973936 0.015940386594966216 0 0 0 -0.026704128866705867 -0.16740871250837169 0.026481153786706513 0 0.026481153786706513 0.012095684352878999 0 0 0 -0.03882825703887316 -0.15066532863836204 0.016643597734296856 0 0.016643597734296856 0.034415738873428248 0 0 0 -0.029062397441233373 -0.15809153620225436 0.0019680423975435291 0 0.0019680423975435291 0.010840506750295686 0 0 0 -0.036812757362989723 -0.19268469015243911 0.010269073090553804 0 0.010269073090553804 0.011634350015095274 0 0 0 -0.045262585034336 -0.18768036157390952 0.0039307730487370685 0 0.0039307730487370685 0.0039969011592065895 0 0 0 -0.04592086510367574 -0.24971976662270734 0.0053737026572996819 0 0.0053737026572996819 0.0070527330638956442 0 0 0 -0.060666758389702924 -0.20208264596750236 -0.0016977393152660669 0 -0.0016977393152660669 0.0025207127260860052 0 0 0 -0.049890483310354061 -0.25928809065991421 -0.004882273888685203 0 -0.004882273888685203 0.0041742452949229403 0 0 0 -0.063778461341247761 -0.20755534443321869 0.0028064892927995855 0 0.0028064892927995855 -6.1551799292111631e-05 0 0 0 -0.051904224058127592 -0.17932646259262644 -0.013084397679592019 0 -0.013084397679592019 0.0074313916623440224 0 0 0 -0.042973767732570646 -0.20201399897432415 -0.01536354436942125 0 -0.01536354436942125 0.0048509139471420992 0 0 0 -0.049290771256795485 -0.012951586480997507 0.024763975128402678 0 0.024763975128402678 0.031551860601088125 0 0 0 0.004650068530022658 -0.0091015093707351169 0.026803631057268233 0 0.026803631057268233 0.040134969780617646 0 0 0 0.0077583651024706324 -0.008093029142318733 0.028676076377548168 0 0.028676076377548168 0.040343733789191774 0 0 0 0.0080626761617182494 -0.020996024084366918 0.023271669561054142 0 0.023271669561054142 0.050308260857852949 0 0 0 0.0073280591933714972 -0.033822802679195921 0.016130514779935077 0 0.016130514779935077 0.055978065712228763 0 0 0 0.0055388157582582087 -0.029315019245484041 0.018591232277315267 0 0.018591232277315267 0.033018437842452689 0 0 0 0.00092585464924215813 -0.042005830275816211 0.010910778957831293 0 0.010910778957831293 0.038210178467982629 0 0 0 -0.00094891295195840761 -0.019536460221321286 0.020394073028277292 0 0.020394073028277292 0.036343207245847275 0 0 0 0.0042016867561315147 -0.030571199023738428 0.013442527543826353 0 0.013442527543826353 0.018948522732309875 0 0 0 -0.0029056690728571366 -0.028708154896371987 0.013790900085315503 0 0.013790900085315503 0.030945829378629965 0 0 0 0.00055941862056448771 -0.028369127276732894 0.010319474830840124 0 0.010319474830840124 0.0072943519309166399 0 0 0 -0.0052686938364540619 -0.020951641183896193 0.016342020793532606 0 0.016342020793532606 0.020912111210146543 0 0 0 -9.8824934374143122e-06 -0.02034825021720197 0.014531864113269018 0 0.014531864113269018 0.0060792727981193173 0 0 0 -0.0035672443547706597 -0.021831289797159398 0.017751112733072408 0 0.017751112733072408 0.021568877620573745 0 0 0 -6.5603044146420042e-05 -0.01249416974929126 0.020351202834079714 0 0.020351202834079714 0.018590007789823199 0 0 0 0.0015239595101329759 -0.010718121745649227 0.014317141851676353 0 0.014317141851676353 0.0049500012772537016 0 0 0 -0.0014420301170988761 -0.015873626214385948 0.012592544845231049 0 0.012592544845231049 0.0044768312583102765 0 0 0 -0.0028491987390189197 -0.01794892741990655 0.0013304308525323022 0 0.0013304308525323022 -0.0067288405427323866 0 0 0 -0.0061694419906597395 -0.0051792620321837596 0.0069003051859118092 0 0.0069003051859118092 0.0062883508150793077 0 0 0 0.0002772721957238905 -0.0072372149480039796 0.0088944111415077617 0 0.0088944111415077617 0.0018571495883284578 0 0 0 -0.0013450163399188822 -0.0050532836000638723 0.019417789685748282 0 0.019417789685748282 0.017729395031916284 0 0 0 0.0031690278579631151 -0.021768615477074101 -0.0031604486244907748 0 -0.0031604486244907748 -0.0042273181360223816 0 0 0 -0.0064989834032741431 -0.010752951474346474 -0.0066404832849891529 0 -0.0066404832849891529 -0.00056669789420272371 0 0 0 -0.0028299123421373067 -0.0045670038764609594 0.0027463178999114976 0 0.0027463178999114976 0.01042997852100605 0 0 0 0.0014657436611362762 0.0045446839822233659 -0.0019407636806051329 0 -0.0019407636806051329 0.020051702547278671 0 0 0 0.0061490966323755197 0.017876619702207247 0.012646203360547436 0 0.012646203360547436 0.03402905711711679 0 0 0 0.012976419204831016 0.0021963141119502247 0.020517281673485599 0 0.020517281673485599 0.019489229628080501 0 0 0 0.0054213859350076901 0.013741066299568366 0.016319869699930933 0 0.016319869699930933 0.017252812535056672 0 0 0 0.0077484697086562665 0.0018327680660530175 0.020358881134068529 0 0.020358881134068529 0.030787569244965521 0 0 0 0.0081550843277546445 0.019682548650477791 0.024842446841676309 0 0.024842446841676309 0.0346389433880539 0 0 0 0.013580373009632926 0.0060761177017692458 0.036329458709527147 0 0.036329458709527147 0.070646115977714308 0 0 0 0.019180558419870902 0.046116160277723445 0.039148703431944112 0 0.039148703431944112 0.065235596456812983 0 0 0 0.0278379391836341 0.022141788139482685 0.038078971943174139 0 0.038078971943174139 0.10368414761159923 0 0 0 0.031456483937770494 -0.0018871913605189999 0.039912463138885815 0 0.039912463138885815 0.10930781013399238 0 0 0 0.026855154693368313 0.010412227115149247 0.033653600886125436 0 0.033653600886125436 0.07216100087471411 0 0 0 0.020643306997465832 0.043086789775769838 0.0015370738927265593 0 0.0015370738927265593 0.054215136125886021 0 0 0 0.024325481475413954 0.045604992353929452 0.016669271418113168 0 0.016669271418113168 0.088250281331082869 0 0 0 0.03346381842125308 0.05118540280262876 -0.017378614827026965 0 -0.017378614827026965 0.075996012744209307 0 0 0 0.031795353886709538 0.14439512093031204 -0.0056860562186972635 0 -0.0056860562186972635 0.13038899050514724 0 0 0 0.068696027858864805 0.067588753276978442 0.0012049750961574957 0 0.0012049750961574957 0.29475988487771687 0 0 0 0.090587159538673828 0.13240310976319963 0.10335695153827215 0 0.10335695153827215 0.21166280558520245 0 0 0 0.086016478837100507 0.02392394564745759 0.060189419919301018 0 0.060189419919301018 0.18239016234172728 0 0 0 0.051578526997296231 -0.03074406087316776 0.027599849112395186 0 0.027599849112395186 0.1024864310198729 0 0 0 0.017935592536676277 0.017703878615804663 0.042190143281769878 0 0.042190143281769878 0.10360639995029747 0 0 0 0.030327569641525554 -0.02914506057985472 -0.018051107149421416 0 -0.018051107149421416 0.20858590133167704 0 0 0 0.044860210187955579 -0.04399562941543933 -0.021098631244277809 0 -0.021098631244277809 0.11432675654933538 0 0 0 0.017582781783474014 -0.041832154045721437 -0.020449539104264235 0 -0.020449539104264235 0.12388904283190283 0 0 0 0.020514222196545348 -0.025030617427966667 0.02510020668678431 0 0.02510020668678431 0.11704924794861728 0 0 0 0.023004657630162642 -0.024590338687112342 0.02619463037243755 0 0.02619463037243755 0.066314540244357068 0 0 0 0.01043105038931115 -0.030547513346437953 0.020462878037914287 0 0.020462878037914287 0.10537793690512562 0 0 0 0.018707605889671929 -0.047254645156318706 0.0095584724057068901 0 0.0095584724057068901 0.068408666157428494 0 0 0 0.0052885052502774539 -0.030434767407308275 0.020425247204182827 0 0.020425247204182827 0.084238516982983638 0 0 0 0.013450937393918838 -0.028194830898902068 0.022470331024043146 0 0.022470331024043146 0.048071942089669473 0 0 0 0.0049692777976918651 -0.014808974119720389 0.031801072347521747 0 0.031801072347521747 0.073538541224461101 0 0 0 0.014682391776185189 -0.045703819307591785 0.012226680674698728 0 0.012226680674698728 0.050246486181845185 0 0 0 0.0011356667185633551 -0.042849543965448579 0.0094796975811361189 0 0.0094796975811361189 0.071618532263486967 0 0 0 0.0071922470745096057 -0.044732867470767892 -0.020466779198263799 0 -0.020466779198263799 0.07723716593283772 0 0 0 0.0081260746155174552 -0.050844531106665321 -0.0053742801697216807 0 -0.0053742801697216807 0.070694982569442441 0 0 0 0.0049626128656942887 -0.056397502623735593 -0.0021150298817365978 0 -0.0021150298817365978 0.061982260043720747 0 0 0 0.0013961893549962676 -0.042667692202221594 0.0046911800553026311 0 0.0046911800553026311 0.094252095267696276 0 0 0 0.012896100766368683 -0.047387289220602619 -0.018883742820955882 0 -0.018883742820955882 0.058617215631439942 0 0 0 0.0028074816027093188 -0.050975614276342403 -0.020044401824290223 0 -0.020044401824290223 0.046721108310337531 0 0 0 -0.0010636264915012128 -0.032267277789289221 -0.033780076154431037 0 -0.033780076154431037 0.052218924223713409 0 0 0 0.0049879116086060712 -0.040083388774921902 -0.032383827343139937 0 -0.032383827343139937 0.02369714681303961 0 0 0 -0.0040965604904705522 -0.046816478304169559 -0.02347731618260912 0 -0.02347731618260912 0.020007343935191321 0 0 0 -0.006702283592244577 -0.031438523627998385 -0.031793628843263963 0 -0.031793628843263963 0.024156426035278622 0 0 0 -0.0018205243981799096 -0.030544586582617415 -0.030435458231368326 0 -0.030435458231368326 0.026906233207552921 0 0 0 -0.00090958834376612052 -0.037776879686980458 -0.02555869668568557 0 -0.02555869668568557 0.0036192591099523663 0 0 0 -0.0085394051442570368 -0.016604064188475598 -0.017624524203348202 0 -0.017624524203348202 0.013079862675672738 0 0 0 -0.00088105037820071508 -0.024345190926475246 -0.022465973111495823 0 -0.022465973111495823 0.0017120823052029222 0 0 0 -0.0056582771553180949 -0.017965454031221545 -0.029811978313737428 0 -0.029811978313737428 0.006996934692273471 0 0 0 -0.0027421298347369977 0.00052602404095732785 -0.045934691705964315 0 -0.045934691705964315 0.040127552340312178 0 0 0 0.010163394095317364 -0.04683746374637425 -0.022217678866021818 0 -0.022217678866021818 0.07622503512494086 0 0 0 0.0073468928446416663 -0.030061883529993429 -0.03747032141240228 0 -0.03747032141240228 0.051235873372056935 0 0 0 0.0052934974605158766 -0.029821638071877054 -0.041271151322480014 0 -0.041271151322480014 0.062650733084415058 0 0 0 0.0082072737531345002 -0.026477183285047848 -0.048557208129566438 0 -0.048557208129566438 0.098328714769566561 0 0 0 0.017962882871129668 -0.051601372912471355 -0.042009737332606295 0 -0.042009737332606295 0.13180895938820406 0 0 0 0.020051896618933182 -0.014013074963524108 -0.040601405967382716 0 -0.040601405967382716 0.13055686382818663 0 0 0 0.029135947216165609 0.012469347816945191 -0.008159251370991133 0 -0.008159251370991133 0.37492293085985307 0 0 0 0.096848069669199566 -0.001980036734480134 -0.01444991540102223 0 -0.01444991540102223 -0.013838824443812708 0 0 0 -0.0039547152945732245 0.026445346084388147 -0.065093782159445931 0 -0.065093782159445931 0.078997290855847016 0 0 0 0.026360659235058786 0.11446554982618592 0.14284724139640886 0 0.14284724139640886 0.24324233611802049 0 0 0 0.089426971486051637 0.01715273070608217 -0.090701661117673943 0 -0.090701661117673943 0.16015356009248305 0 0 0 0.044326572699641312 0.0067135739365049374 0.0013418404411113857 0 0.0013418404411113857 0.019890659284923801 0 0 0 0.0066510583053571845 0.25121805089883265 0.11935056763859651 0 0.11935056763859651 0.070438905608346092 0 0 0 0.080414239126794684 0.089414181552760111 0.037550499794135828 0 0.037550499794135828 0.040046286853266375 0 0 0 0.032365117101506649 0.01707562404922313 0.0032327325959332115 0 0.0032327325959332115 0.051287271187048462 0 0 0 0.017090723809067898 -0.067381715760036154 0.0050092719509031297 0 0.0050092719509031297 0.047081901662207326 0 0 0 -0.0050749535244572069 0.078723826886934245 0.033058408094100517 0 0.033058408094100517 0.033310641706497002 0 0 0 0.028008617148357673 0.024182482923255887 0.0044791006507792705 0 0.0044791006507792705 0.072624851154771367 0 0 0 0.024201833519506815 -0.056117934926682683 0.0089672109833018876 0 0.0089672109833018876 0.055716241736073507 0 0 0 -0.00010042329765228009 0.035143299230856351 0.030339285672974059 0 0.030339285672974059 0.020959007577616706 0 0 0 0.014025576702118236 -0.014442925796549884 -0.023576557545806502 0 -0.023576557545806502 -0.0039147963987887779 0 0 0 -0.0045894305488346498 -0.021627202578527363 0.0054636784627082186 0 0.0054636784627082186 0.034535619536377016 0 0 0 0.0032271042394624028 -0.022148719395560387 -0.0095655686585021937 0 -0.0095655686585021937 0.026191920580380085 0 0 0 0.001010800296204914 -0.017997958648219056 -0.0054975488685179014 0 -0.0054975488685179014 0.017561350408689433 0 0 0 -0.00010915205988241972 -0.037120297516745435 0.0023613902183522995 0 0.0023613902183522995 0.024889545563089532 0 0 0 -0.0030576879884139513 -0.026317143272286209 0.0037830700358777447 0 0.0037830700358777447 0.057889387724391284 0 0 0 0.0078930611130262618 -0.037453086404387062 0.0078931756321554691 0 0.0078931756321554691 0.066697777793964963 0 0 0 0.0073111728473944926 -0.021506516186240721 -0.0037727429366715276 0 -0.0037727429366715276 0.025990315051640178 0 0 0 0.0011209497163498505 0.022484383244431028 0.030816207405166773 0 0.030816207405166773 0.027368541061143281 0 0 0 0.012463231076393466 0.032276128032274198 0.019325218040227465 0 0.019325218040227465 0.063188430982687116 0 0 0 0.023866139753740412 0.050343500760395177 0.016073212626052519 0 0.016073212626052519 0.059594342605780781 0 0 0 0.027484460841544101 0.030574734043272368 0.0052451030274283106 0 0.0052451030274283106 0.091825538310128282 0 0 0 0.030600068088350162 0.022868103530556683 0.016441537784259354 0 0.016441537784259354 0.065430752422277472 0 0 0 0.022074713988208261 0.027501409848475045 0.018198722596033834 0 0.018198722596033834 0.067226982984098016 0 0 0 0.023682098208143043 0.0018354914743774486 0.026715635604918742 0 0.026715635604918742 0.062772706574849124 0 0 0 0.016152049512306865 0.01012223269326773 0.017325621434327691 0 0.017325621434327691 0.079967388158340924 0 0 0 0.022522405212902052 -0.027440329013263126 0.0063823407701065482 0 0.0063823407701065482 0.087061378979075954 0 0 0 0.014905262491453214 0.036838208259573915 0.0057263268961556552 0 0.0057263268961556552 0.11063623269353294 0 0 0 0.036868610238276714 0.011814382367211218 0.019476446689267846 0 0.019476446689267846 0.08391276685455229 0 0 0 0.023931787305440544 -0.032705087316870947 0.0003215737825517373 0 0.0003215737825517373 0.042598732088801383 0 0 0 0.0024734111929826316 -0.032659645861863928 -0.0013268526689718119 0 -0.0013268526689718119 0.022278111365360953 0 0 0 -0.0025953836241257577 -0.024462513536886929 0.0028963710710408486 0 0.0028963710710408486 0.075410481190524681 0 0 0 0.012736991913409421 -0.024195072292058223 -0.0026484957115558358 0 -0.0026484957115558358 0.047156806378216398 0 0 0 0.0057404335215394953 -0.031700135842735677 -0.0020095123128937679 0 -0.0020095123128937679 0.048385470903510419 0 0 0 0.0041713337651936855 -0.036851577777302399 -0.0065701510042719957 0 -0.0065701510042719957 0.011765661602474192 0 0 0 -0.0062714790437070449 -0.029716384314791511 -0.0080800860008203301 0 -0.0080800860008203301 0.013834685708521754 0 0 0 -0.0039704246515674668 -0.027712568282722727 -0.0062833123066989433 0 -0.0062833123066989433 0.014821793469785738 0 0 0 -0.0032226937032342196 -0.03104419599403381 -0.014841094123419468 0 -0.014841094123419468 -0.005672439412409476 0 0 0 -0.0091791588516108424 -0.031002208552117411 -0.0095182843137458298 0 -0.0095182843137458298 0.00080120464013244685 0 0 0 -0.0075502509779961924 -0.032662297733261181 -0.012434308751842163 0 -0.012434308751842163 -0.0091987018038659496 0 0 0 -0.010465249884281796 -0.030671790736273963 -0.014952140090637028 0 -0.014952140090637028 -0.011970009336501497 0 0 0 -0.010660450018193851 -0.032521198113614785 -0.018579252267477635 0 -0.018579252267477635 -0.0085006664264263287 0 0 0 -0.010255466135010272 -0.029223579097539875 -0.014572422119513984 0 -0.014572422119513984 -0.0077812601545776475 0 0 0 -0.0092512098130294144 -0.026620616871337432 -0.018954380329444048 0 -0.018954380329444048 -0.004878973483475546 0 0 0 -0.0078748975887033001 -0.033756965125478766 -0.019692267022543994 0 -0.019692267022543994 -0.0098667931264111441 0 0 0 -0.01090593956297245 -0.027573688055741369 -0.024576695555207473 0 -0.024576695555207473 -0.0010067933879297497 0 0 0 -0.0071451203609177449 -0.034915100715454547 -0.023621806941447929 0 -0.023621806941447929 0.0041087756689097144 0 0 0 -0.007701581261636184 -0.029400627907187643 -0.017542545939771836 0 -0.017542545939771836 -0.0027523868275590724 0 0 0 -0.0080382536836866858 -0.029847500369032803 -0.0079036744747266741 0 -0.0079036744747266741 0.0023169384674733562 0 0 0 -0.0068826404753898618 -0.022766016158056051 -0.013378860822159166 0 -0.013378860822159166 0.0040521947596227348 0 0 0 -0.0046784553496083498 -0.15233725354956285 0.0153141614986263 0 0.0153141614986263 -0.0012249168773210695 0 0 0 -0.038390542606721034 -0.15861684068311788 0.018489355438093248 0 0.018489355438093248 0.0017019493234533556 0 0 0 -0.039228722839916186 -0.13100762406837563 0.042801206530360236 0 0.042801206530360236 0.013796044199092528 0 0 0 -0.029302894967320747 -0.2068726899997797 0.018725528257012791 0 0.018725528257012791 0.0018965570202951199 0 0 0 -0.051244033244871146 -0.22190935983442675 0.014065941019256567 0 0.014065941019256567 0.0068270092651403491 0 0 0 -0.053770587642321566 -0.16071632367107483 0.02193004384752878 0 0.02193004384752878 -0.00054074374970856931 0 0 0 -0.040314266855195825 -0.15956675147305455 0.021451128039576384 0 0.021451128039576384 0.002927570383723932 0 0 0 -0.039159795272332487 -0.1334931873960491 0.045649827337362503 0 0.045649827337362503 0.019558819657084392 0 0 0 -0.028483591934741037 -0.11036143263272075 0.045375650217645058 0 0.045375650217645058 0.019783342656604086 0 0 0 -0.022644522494029207 -0.088960333310920015 0.059855824350744324 0 0.059855824350744324 0.039663597836513187 0 0 0 -0.01232418386860179 -0.10958063613119107 0.043143836922112988 0 0.043143836922112988 0.0036500832284751539 0 0 0 -0.026482638225678978 -0.091243485842692595 0.060068152863017144 0 0.060068152863017144 0.01679144923384901 0 0 0 -0.01861300915221098 -0.12034151644224089 0.039373521651560495 0 0.039373521651560495 -0.00075616694978997145 0 0 0 -0.030274420848007688 -0.085702243981383791 0.055481045198866541 0 0.055481045198866541 0.0023530641897392957 0 0 0 -0.020837294947911061 -0.024110687294658706 0.073643983431500359 0 0.073643983431500359 0.017389316191412152 0 0 0 -0.0016803427758116385 -0.055860729423030886 0.065110564511462618 0 0.065110564511462618 0.013177716638001158 0 0 0 -0.010670753196257543 -0.0085453398190648011 0.085609103379104129 0 0.085609103379104129 0.046087658560930667 0 0 0 0.0093855796854663831 -0.055408059097731388 0.067325007224343314 0 0.067325007224343314 0.016928601418849221 0 0 0 -0.0096198644197204031 -0.10711814276253029 0.042220952744474627 0 0.042220952744474627 0.022199440680727545 0 0 0 -0.021229675520450852 -0.070304379792040822 0.064788549636153991 0 0.064788549636153991 0.063358772589495849 0 0 0 -0.0017364018006362503 -0.064080180885417878 0.057790713464891841 0 0.057790713464891841 0.044025673230082024 0 0 0 -0.0050136269138339878 -0.024569575376455988 0.080927468879867293 0 0.080927468879867293 0.10294245213730657 0 0 0 0.019593219190212618 -0.0045930436523110574 0.085239063574992113 0 0.085239063574992113 0.16608833980601201 0 0 0 0.040373824038425155 0.035056587283125551 0.099986772239489596 0 0.099986772239489596 0.062342600290452799 0 0 0 0.02434979689339456 0.042920057591134778 0.086324323629256128 0 0.086324323629256128 0.060520759363173526 0 0 0 0.025860204238577003 0.0019591301111528958 0.064413888680615761 0 0.064413888680615761 0.02086968496537045 0 0 0 0.0057072037691308086 0.019448853526883192 0.069080412522678381 0 0.069080412522678381 0.024745599517079775 0 0 0 0.011048613260990714 0.045139344909638002 0.035319897988595417 0 0.035319897988595417 0.026646432858304259 0 0 0 0.017946444441985676 -0.0076669671128129294 0.056791126719240359 0 0.056791126719240359 0.0096386266247142777 0 0 0 0.00049291487797527983 -0.016390246895783389 0.05787361146355352 0 0.05787361146355352 0.0066111368186105857 0 0 0 -0.0024447775192930621 0.014363247921536315 0.043817956401575264 0 0.043817956401575264 0.023283091987226001 0 0 0 0.0094115849771907456 0.0018190122427340638 0.033429870593293387 0 0.033429870593293387 0.026740800812234511 0 0 0 0.0071399532637418384 0.005368491127463404 0.034183235768077858 0 0.034183235768077858 0.037102425434506259 0 0 0 0.010617729140492305 -0.019480702685780837 0.038223948251646322 0 0.038223948251646322 0.02882183126147897 0 0 0 0.0023352821439248661 -0.017134577387057037 0.045306708677942301 0 0.045306708677942301 0.015671823453911493 0 0 0 -0.00036568848328655257 -0.018112443843049553 0.055591932826695833 0 0.055591932826695833 0.0062858456838545962 0 0 0 -0.0029566495397987946 -0.036114975533030863 0.051989800182492329 0 0.051989800182492329 0.0029365108274385654 0 0 0 -0.008294616176398234 -0.033414668993432262 0.050721002743756571 0 0.050721002743756571 0.0040374918156151907 0 0 0 -0.0073442942944543788 -0.038161142194820696 0.053882342949702178 0 0.053882342949702178 -0.00015411474126203473 0 0 0 -0.0095788142340207383 -0.060697614188358395 0.057333442631493259 0 0.057333442631493259 -0.0016273057046412021 0 0 0 -0.015581229973249844 -0.037154787565782166 0.061456916030862452 0 0.061456916030862452 0.0044241416511674458 0 0 0 -0.0081826614786537633 -0.026966371573741599 0.054239879803027691 0 0.054239879803027691 0.0040392483747826446 0 0 0 -0.0057317807997401271 -0.057980355935394523 0.059140304789739417 0 0.059140304789739417 0.00043961117088953117 0 0 0 -0.014385186191126165 -0.063748720081810983 0.064138090698788119 0 0.064138090698788119 0.0066652362190526837 0 0 0 -0.014270870965690019 -0.08859068334769904 0.047818937275501017 0 0.047818937275501017 -0.0050209681610113854 0 0 0 -0.023402912877177773 -0.090706345085024953 0.049561274572887393 0 0.049561274572887393 0.0080980760872000346 0 0 0 -0.020652067249456119 -0.08389257998161237 0.036836203223568988 0 0.036836203223568988 -0.0018875320628346515 0 0 0 -0.021445028011111811 -0.082311575886218846 0.051174998881060363 0 0.051174998881060363 -0.0012372630852057753 0 0 0 -0.020887209742856405 -0.055194654963601208 0.049261279249200096 0 0.049261279249200096 0.00049902535795753877 0 0 0 -0.013673907401410834 -0.048762765696582361 0.050982827540813291 0 0.050982827540813291 -0.0043170338282051968 0 0 0 -0.013269949881196813 -0.053481214730966675 0.038834801169153721 0 0.038834801169153721 0.00096595169545743431 0 0 0 -0.013128815758877366 -0.076104845732754445 0.040278687553427339 0 0.040278687553427339 -0.0065752586384717482 0 0 0 -0.020670026092806548 -0.076535937391374542 0.039148687710911734 0 0.039148687710911734 0.0017357783167453178 0 0 0 -0.018700039768657417 -0.081723100018826544 0.015485787219223357 0 0.015485787219223357 -0.0016346379888361184 0 0 0 -0.020839434501915832 -0.059678556715749065 0.015367725975283797 0 0.015367725975283797 0.00058299794819083317 0 0 0 -0.014773889691889752 -0.089078351718579696 0.017607475300496001 0 0.017607475300496001 0.00075523252246245676 0 0 0 -0.022080779799029338 -0.1218735343280537 0.016904694758741574 0 0.016904694758741574 -0.001677497548716822 0 0 0 -0.030887757969192409 -0.11721596790081756 0.039192881750777619 0 0.039192881750777619 -0.0019181599201030242 0 0 0 -0.02978353195522998 -0.11034624502369672 0.018518229719072243 0 0.018518229719072243 -0.00080044055395234182 0 0 0 -0.027786671394412155 -0.011707643244191816 0.0079032188796408498 0 0.0079032188796408498 0.00064523433626728632 0 0 0 -0.0027656022269808497 -0.033868739722133112 0.014440461650215175 0 0.014440461650215175 -0.0062642530267513763 0 0 0 -0.010033248187221178 -0.025931437682720659 0.018688001320877723 0 0.018688001320877723 0.0026363716929820313 0 0 0 -0.005823766497434768 -0.021084468155226688 0.0096627588276639708 0 0.0096627588276639708 0.00058578630188144132 0 0 0 -0.0051246704633363116 -0.042288134883124551 0.011287485860484114 0 0.011287485860484114 -0.0013776342309572698 0 0 0 -0.010916442278520178 -0.050562429454093172 0.012646879826074013 0 0.012646879826074013 -0.0027133694180019319 0 0 0 -0.013318949718023942 -0.07066880601229486 0.031574545717080182 0 0.031574545717080182 -0.0062114237898276414 0 0 0 -0.019220057450530792 -0.047346256747333171 0.024147697416177172 0 0.024147697416177172 -0.0072792598885556004 0 0 0 -0.013656379158971776 -0.048325981693779774 0.038067734689643029 0 0.038067734689643029 -0.0046785947748038126 0 0 0 -0.013251144117145675 -0.043930748750178106 0.028294069195920812 0 0.028294069195920812 0.002611572240419413 0 0 0 -0.010329794127440062 -0.052468984605521296 0.039629824591726148 0 0.039629824591726148 -0.0042158638467180154 0 0 0 -0.014171212113060161 -0.039155487690130775 0.035814023957270624 0 0.035814023957270624 -0.0015694165641004787 0 0 0 -0.010181226063557647 -0.030382142044746763 0.030330568011881276 0 0.030330568011881276 -0.006447446390758671 0 0 0 -0.009207397108876858 -0.033993761568166247 0.030769324453085334 0 0.030769324453085334 -0.0059717451013214795 0 0 0 -0.0099913766673722648 -0.014215023208548505 0.021884824397440994 0 0.021884824397440994 -0.0030693456987789247 0 0 0 -0.0043210922268315244 -0.02254872656584439 0.034006409566330081 0 0.034006409566330081 0.00082544835446718423 0 0 0 -0.0054308195528443015 -0.020981703002691532 0.038418247060332922 0 0.038418247060332922 0.0038217147576959931 0 0 0 -0.0042899970612488847 -0.026362024828119779 0.042293318112881728 0 0.042293318112881728 0.0086854956114965631 0 0 0 -0.004419132304156026 -0.028747620775716243 0.037176793630041338 0 0.037176793630041338 -0.005390611391909772 0 0 0 -0.0085345580419069478 -0.039494752358678387 0.04439247100563315 0 0.04439247100563315 -0.0032223332238032754 0 0 0 -0.010679271395620304 -0.031261436051173486 0.041826685465884195 0 0.041826685465884195 -0.00058308489597336255 0 0 0 -0.0079611302367866843 -0.037894510418407516 0.047092907796817851 0 0.047092907796817851 -0.0026721156309833377 0 0 0 -0.010141656512347658 -0.029007172355138056 0.046467684373816098 0 0.046467684373816098 0.0082879006566193847 0 0 0 -0.005179817924629293 -0.030920980313940749 0.044938336689985592 0 0.044938336689985592 0.0033371577020329113 0 0 0 -0.0068959556529768484 -0.020066059616492909 0.041382340004398888 0 0.041382340004398888 0.020906413710593263 0 0 0 0.00021008852352552565 -0.017166136911177299 0.039551581627947918 0 0.039551581627947918 0.03154278059508453 0 0 0 0.0035941609209768632 -0.024972533440677624 0.047289541897536563 0 0.047289541897536563 0.0097174489246700801 0 0 0 -0.0038137711290022747 -0.024812708142740059 0.040046062633523061 0 0.040046062633523061 0.029206785039660232 0 0 0 0.001098519224230099 -0.0045748245809384969 0.028060285779364369 0 0.028060285779364369 0.062518806986696873 0 0 0 0.014485995601440038 -0.021298135952380726 0.038820800598553307 0 0.038820800598553307 0.032178628200528969 0 0 0 0.0027201230620370609 -0.020579914984498404 0.030813922467970212 0 0.030813922467970212 0.057382481839319155 0 0 0 0.009200641713705493 -0.023491335622975562 0.0410405449272917 0 0.0410405449272917 0.019736334393769539 0 0 0 -0.00093875030730128373 -0.014889954467776523 0.035812409273124457 0 0.035812409273124457 0.032869283882894784 0 0 0 0.0044948323537798984 -0.015211738866968361 0.034019560980345087 0 0.034019560980345087 0.050604493647965043 0 0 0 0.0088481886952487265 -0.0036585463974661003 0.027323122858041726 0 0.027323122858041726 0.037752782693339704 0 0 0 0.0085235590739682898 -0.016827854029074135 0.026941152554449399 0 0.026941152554449399 0.051199606273432952 0 0 0 0.0085929380610895445 -0.002717222457694568 0.020080489657663847 0 0.020080489657663847 0.042046882622434723 0 0 0 0.0098324150411852607 0.0020580608901497044 0.016631563476113165 0 0.016631563476113165 0.069621397079519198 0 0 0 0.01791986449241767 -0.002236812020741219 0.0084945154932887235 0 0.0084945154932887235 0.069610346222967578 0 0 0 0.016843383550555924 0.0018429337660887835 0.0060561576185307331 0 0.0060561576185307331 0.054820916695890586 0 0 0 0.014165962615495065 0.0015461333823996171 0.013086728273117632 0 0.013086728273117632 0.025530332672495604 0 0 0 0.0067691165137233611 -0.00052440013256105367 0.0059615563624364487 0 0.0059615563624364487 0.004391865984669785 0 0 0 0.00096686646302734935 -0.00029479779136698525 0.0140469792895842 0 0.0140469792895842 0.0050806730080710238 0 0 0 0.0011964688041765648 0.0002311494889939425 0.0091417094725629866 0 0.0091417094725629866 0.024406880207248349 0 0 0 0.006159507424060795 -0.011321447610470159 0.021856412783884061 0 0.021856412783884061 -0.00077231714134651241 0 0 0 -0.0030234411879541678 -0.0095559094299217939 0.023539281907603349 0 0.023539281907603349 0.013085917948553849 0 0 0 0.0008825021296581248 -0.011482765899445635 0.029302861672858782 0 0.029302861672858782 0.0022433294504176082 0 0 0 -0.0023098591122567846 -0.021192695410404472 0.036553981973683536 0 0.036553981973683536 0.0096507818127840039 0 0 0 -0.002885478399405228 -0.02298086672144839 0.028454003748483059 0 0.028454003748483059 -0.010402721607920995 0 0 0 -0.0083458970823424572 -0.022985422932824101 0.017008345774417011 0 0.017008345774417011 -0.0067142590236136668 0 0 0 -0.0074249204891092269 -0.0086393981578725132 0.0088913665046039814 0 0.0088913665046039814 -0.003307510976584993 0 0 0 -0.0029867272836141545 -0.0050077812169169178 0.0080077356287953094 0 0.0080077356287953094 -0.0034046044143130061 0 0 0 -0.002103096407807481 -0.0064809780103798342 0.017500858504521322 0 0.017500858504521322 -0.0088853533323360878 0 0 0 -0.003841582835679036 -0.0021052208981080511 0.006343620180357501 0 0.006343620180357501 0.0075506339401441025 0 0 0 0.0013613532605090128 -0.0040049275294946705 0.0003210198022394195 0 0.0003210198022394195 0.0081587493271881601 0 0 0 0.0010384554494229283 -0.0015815871210964616 9.7985429483138375e-05 0 9.7985429483138375e-05 0.004536153711956814 0 0 0 0.0007386416477155322 -0.0011639750610431543 0.0038430971614458187 0 0.0038430971614458187 -0.0039153352273473274 0 0 0 -0.0012698275720978147 -0.0058448768688919017 0.0015586220063299461 0 0.0015586220063299461 0.00053963311493632204 0 0 0 -0.0013263109384884508 0.0019686534393859034 1.1758306146303354e-05 0 1.1758306146303354e-05 0.0028480652418654273 0 0 0 0.0012041796703128327 -0.00038356739834455311 -0.0013215264555963557 0 -0.0013215264555963557 0.0024509604695017728 0 0 0 0.00051684826778908288 0.0022881517368116278 -0.0010535105036197975 0 -0.0010535105036197975 0.00028899431936935116 0 0 0 0.00064428651404568882 0.00048752843500565746 -0.00077358532157223436 0 -0.00077358532157223436 0.0010375074943307361 0 0 0 0.00038125898233376532 0.00076205065566981034 0.0010427603933835482 0 0.0010427603933835482 -0.0011194643106620106 0 0 0 -8.935341374760597e-05 -0.0073336225642530728 0.003828408965365071 0 0.003828408965365071 -0.002810187562454658 0 0 0 -0.0025359525316774878 -0.0087287329775658229 0.0075732859334538072 0 0.0075732859334538072 -0.0046627119681037499 0 0 0 -0.0033478612364170601 -0.023447412636645459 -0.011245569834483826 0 -0.011245569834483826 -0.0049217002428827428 0 0 0 -0.0070922782198820644 -0.021389870330718014 -0.012395899089215068 0 -0.012395899089215068 0.026278833467118456 0 0 0 0.001222240784100187 -0.03178105755069166 -0.0099850297145640879 0 -0.0099850297145640879 0.021935733367300259 0 0 0 -0.0024613310458478366 -0.02519047639373477 -0.013700886146757074 0 -0.013700886146757074 0.0037974506234990588 0 0 0 -0.0053482564425589695 -0.024301850046720752 -0.011442198208411219 0 -0.011442198208411219 -0.019375062742911897 0 0 0 -0.010919228197408093 -0.020944412125722442 -0.0097543798858700792 0 -0.0097543798858700792 -0.016559053031380666 0 0 0 -0.0093758662892758221 -0.02409168084110172 -0.0062527216637714433 0 -0.0062527216637714433 -0.021977696253818957 0 0 0 -0.011517344273730162 -0.030501912933167952 -0.011301196763308707 0 -0.011301196763308707 -0.016967315229077684 0 0 0 -0.011867307040561437 -0.028384664838362661 -0.01019112720072142 0 -0.01019112720072142 -0.014747308372992651 0 0 0 -0.010782993302838828 -0.031462091577618478 -0.012373850526052887 0 -0.012373850526052887 -0.016599384695976396 0 0 0 -0.012015369068398674 -0.032109710986018891 -0.011598135832161072 0 -0.011598135832161072 -0.0022629583754602001 0 0 0 -0.0085931673403698006 -0.033534475331793295 -0.011178710604625866 0 -0.011178710604625866 -0.0027686729372988772 0 0 0 -0.0090757870672730778 -0.026908246805013358 -0.011577520354040083 0 -0.011577520354040083 -0.0060981477222997738 0 0 0 -0.0082515986318282275 -0.025355810426722969 -0.010345197139161367 0 -0.010345197139161367 0.021726942580080788 0 0 0 -0.00090721696166057297 -0.035290088367022548 -0.0071790255801492397 0 -0.0071790255801492397 0.016765564316570003 0 0 0 -0.0046311310126131155 -0.02299446474507999 -0.005245733356559118 0 -0.005245733356559118 0.054008269493178218 0 0 0 0.0077534511870245848 -0.015599115334329811 0.0016807956755990339 0 0.0016807956755990339 0.095069052046586222 0 0 0 0.019867484178064082 -0.0093097676423088971 -0.0011439237068995856 0 -0.0011439237068995856 0.11014529285102931 0 0 0 0.025208881302180075 -0.026459080640791138 -0.0036871273654223991 0 -0.0036871273654223991 0.057393518872363603 0 0 0 0.007733609557893123 -0.010617648188485651 0.02720122009713144 0 0.02720122009713144 0.073697221243950395 0 0 0 0.01576989326386613 0.0035339643736573834 0.016048427664974909 0 0.016048427664974909 0.10721962357930792 0 0 0 0.027688396988241326 -0.016436180518168447 0.0037574565623426925 0 0.0037574565623426925 0.10024924430010762 0 0 0 0.020953265945484773 0.043051631620759562 0.0059971935066175357 0 0.0059971935066175357 0.12929663999918886 0 0 0 0.043087067904987106 -0.019471269166849048 0.03042398912926414 0 0.03042398912926414 0.05707103540131353 0 0 0 0.0093999415586165647 0.0008877985164839064 0.020290949820016113 0 0.020290949820016113 0.11201292411068797 0 0 0 0.028225180656793247 -0.003383456081786862 0.019789354086799715 0 0.019789354086799715 0.10203069857164337 0 0 0 0.024661810622464142 0.049288071980924476 0.0060686134019299594 0 0.0060686134019299594 0.14801524189546647 0 0 0 0.049325828469097721 -0.011839441762649172 0.00030729396149675736 0 0.00030729396149675736 0.11474796841807422 0 0 0 0.025727131663856262 -0.01361340607287298 0.020616237374975956 0 0.020616237374975956 0.11050851457848143 0 0 0 0.024223777126402002 0.055338016824064258 0.0060222816052204857 0 0.0060222816052204857 0.16625412009174384 0 0 0 0.055398034228952023 -0.012656845333372191 0.024576317110364343 0 0.024576317110364343 0.097948566256397029 0 0 0 0.021322930230755821 -0.018181950816432937 -0.0079450956040794107 0 -0.0079450956040794107 0.065125389486513197 0 0 0 0.011735859667520096 -0.0022704737943926578 -0.0028539704077519823 0 -0.0028539704077519823 0.11957585843293994 0 0 0 0.029326346159636807 -0.017260493227080786 -0.010088371645898042 0 -0.010088371645898042 0.045818790612103477 0 0 0 0.0071395743462556172 -0.021765335586035578 -0.0084271197282693444 0 -0.0084271197282693444 0.063879133888382178 0 0 0 0.010528449575586685 -0.010060391930899203 -0.011428506356255086 0 -0.011428506356255086 0.073432259400497052 0 0 0 0.015842966867399378 -0.012485010630557181 -0.014132897670639799 0 -0.014132897670639799 0.048698189370239731 0 0 0 0.0090532946849206097 -0.0036206268798504582 -0.00074919553518432158 0 -0.00074919553518432158 0.12377151495209521 0 0 0 0.030037722018061208 0.0034202010857433685 -0.0065649540015775276 0 -0.0065649540015775276 0.13328749702199938 0 0 0 0.034176924526935715 -0.009805242069768072 -0.013146027434798813 0 -0.013146027434798813 0.073891030411391334 0 0 0 0.016021447085405816 -0.011665895188511133 0.016063864199706845 0 0.016063864199706845 0.13866506341832086 0 0 0 0.031749792057452542 0.061365840119656935 0.0058613418645449937 0 0.0058613418645449937 0.18403732443380189 0 0 0 0.061350791138364703 -0.0011969308793497724 -0.0018613038408737403 0 -0.0018613038408737403 0.14291585744238144 0 0 0 0.035429731640757939 -0.017296733962306021 0.020416140547673489 0 0.020416140547673489 0.13679025339830808 0 0 0 0.029873379859000515 0.0043380855145988551 0.02309807467601388 0 0.02309807467601388 0.1178045138141669 0 0 0 0.030535649832191314 -1.7768390430106251e-06 0.023098921438102771 0 0.023098921438102771 0.11640265560821206 0 0 0 0.02910021969229204 0.066434500261823182 0.0057253558244035564 0 0.0057253558244035564 0.20044102399122343 0 0 0 0.066718881063261654 -0.010440526197276423 0.0057812853033771816 0 0.0057812853033771816 0.15235521442190958 0 0 0 0.035478672056157956 0.0089716387235154651 0.0017245123180620325 0 0.0017245123180620325 0.13035976086697929 0 0 0 0.034832849897623357 -0.0054801478058176256 -0.012674304575028161 0 -0.012674304575028161 0.041477669621293956 0 0 0 0.0089993804538691102 0.014563875900697687 -0.0047033647766062114 0 -0.0047033647766062114 0.14163712557604291 0 0 0 0.039050250369185135 0.0070209655579324126 -0.0047644060637184737 0 -0.0047644060637184737 0.13932491838184258 0 0 0 0.036586470984943831 0.020516346666719976 -0.0020124396528917177 0 -0.0020124396528917177 0.11469382970365183 0 0 0 0.033802544092592979 -0.004841541127234561 -0.0086821532042710287 0 -0.0086821532042710287 0.041851608296607834 0 0 0 0.0092525167923432905 0.00042327114426682355 -0.0088221463272328826 0 -0.0088221463272328826 -0.012625906295837264 0 0 0 -0.0030506587878926239 0.0041631146282882225 -0.0055959008913515906 0 -0.0055959008913515906 0.028894607759666346 0 0 0 0.00826443059698867 -0.0036780317337649017 -0.0031585517448793898 0 -0.0031585517448793898 0.0053183819231045959 0 0 0 0.00041008754733490955 -0.0046519658230310401 -0.01476296523361037 0 -0.01476296523361037 0.017734107161959528 0 0 0 0.003270535334732011 -0.013140412986332367 -0.012498044281871346 0 -0.012498044281871346 -0.0079391610566293958 0 0 0 -0.0052698935107404477 -0.01950255386493488 -0.012179738318982503 0 -0.012179738318982503 -0.016644210972266427 0 0 0 -0.0090366912093003959 -0.012827739583748332 -0.01384436108143372 0 -0.01384436108143372 0.0079108666279754658 0 0 0 -0.0012292182389432305 -0.017555551947687875 -0.015900745863046739 0 -0.015900745863046739 0.014093404863187109 0 0 0 -0.00086553677112521932 -0.018533596291666399 -0.0072919965393986597 0 -0.0072919965393986597 -0.032177398750444203 0 0 0 -0.012677748760527685 -0.012618651768068008 -0.0098381171482258556 0 -0.0098381171482258556 -0.015523024109576377 0 0 0 -0.0070354189694110964 -0.0098521511346499335 -0.0085033374123942851 0 -0.0085033374123942851 -0.027930946561441683 0 0 0 -0.0094457744240228902 -0.0060904997117963156 -0.012236587502506224 0 -0.012236587502506224 -0.012193356792112087 0 0 0 -0.0045709641259771283 -0.0042215009319513941 -0.0035518311739338726 0 -0.0035518311739338726 -0.025860230883888224 0 0 0 -0.0075204329539599324 0.00094301851540412596 -0.0026087346521228849 0 -0.0026087346521228849 -0.018690509692381729 0 0 0 -0.0044368727942443731 -0.0012578289231859076 -0.0018452214401283307 0 -0.0018452214401283307 -0.016964166270163485 0 0 0 -0.0045554987983374177 -0.00014539917933104052 0.00038431480073627955 0 0.00038431480073627955 -0.026060756897501536 0 0 0 -0.0065515390192082412 -0.00101250502477845 0.0015072562362997699 0 0.0015072562362997699 -0.020254016893967153 0 0 0 -0.0053166304796863871 -0.0004263450801151869 0.0007745791647268685 0 0.0007745791647268685 -0.025661114137639163 0 0 0 -0.0065218648044386152 -0.002921979168724248 0.0021173368247668911 0 0.0021173368247668911 -0.028092632860980848 0 0 0 -0.00775365300742617 -0.0070096653309031365 -0.0018743471150700075 0 -0.0018743471150700075 -0.029183222563390565 0 0 0 -0.009048221973573356 0.0024528893083233523 0.0042575286628512843 0 0.0042575286628512843 -0.0012118270032917837 0 0 0 0.00031026557625793378 -0.0013930477443810374 0.003589956498730007 0 0.003589956498730007 -0.012741294393596947 0 0 0 -0.00353358553449451 -0.00047386684360994913 0.0064953968172337395 0 0.0064953968172337395 -0.021452912130542678 0 0 0 -0.0054816947435382124 -0.0041860205131161732 0.0099033479343415554 0 0.0099033479343415554 0.0015280889924849106 0 0 0 -0.00066448288015785728 -0.011284957188594791 0.0082625283633711855 0 0.0082625283633711855 -0.020447459892507069 0 0 0 -0.0079331042702754928 -0.01928133773114124 0.0048790456052820175 0 0.0048790456052820175 -0.02097705299190028 0 0 0 -0.010064597680760373 -0.011911422842399426 0.0067094527597142961 0 0.0067094527597142961 0.00088582185086873155 0 0 0 -0.0027564002478827551 -0.016560282700930573 0.0089568295448512192 0 0.0089568295448512192 -0.0025039749505284814 0 0 0 -0.0047660644128648677 -0.01453248707444757 0.0011759324484889866 0 0.0011759324484889866 -0.031306047777386659 0 0 0 -0.011459633712958633 -0.0066113430588177757 0.0062411232858013699 0 0.0062411232858013699 -0.01724757231486862 0 0 0 -0.005964728843421585 -0.010491444984478904 -0.0020939496282732228 0 -0.0020939496282732228 -0.023537597644501251 0 0 0 -0.0085072606572449971 -0.021607527238826418 -0.0035889389152181372 0 -0.0035889389152181372 -0.027579467633729648 0 0 0 -0.012296748718139017 -0.025024836007365547 -0.0061381924460168769 0 -0.0061381924460168769 -0.018160980765292267 0 0 0 -0.010796454193164551 -0.027057726782046321 -0.0052002735523102583 0 -0.0052002735523102583 -0.023401132436402294 0 0 0 -0.012614714804612071 -0.022417209362103618 -0.0025462063439450067 0 -0.0025462063439450067 -0.012499860396171347 0 0 0 -0.0087292674395686998 -0.018314076012488884 -0.0015834368853340219 0 -0.0015834368853340219 -0.019921532475136422 0 0 0 -0.0095589021219063264 -0.026386348924005459 -0.00030819752849198245 0 -0.00030819752849198245 -0.01742209515041615 0 0 0 -0.010952111018605409 -0.018401633230210407 0.0011692837217334162 0 0.0011692837217334162 -0.014547144191095152 0 0 0 -0.0082371943553264104 -0.025127658782172158 0.0016781661348795052 0 0.0016781661348795052 -0.0048847242813738756 0 0 0 -0.0075030957658864805 -0.018992561869223212 0.0013398044113199781 0 0.0013398044113199781 0.01703296291869616 0 0 0 -0.00048989973763174932 -0.022377896771880845 -7.3558339817120233e-05 0 -7.3558339817120233e-05 -0.0034725259282111232 0 0 0 -0.0064626056750229921 -0.028975458321551961 -0.0062104350677793241 0 -0.0062104350677793241 -0.0056604326675728789 0 0 0 -0.0086589727472812517 -0.034152651570219905 -0.0038073867683943996 0 -0.0038073867683943996 -0.005281145395772846 0 0 0 -0.0098584492414981462 -0.027569311063955167 -0.0051282126286101848 0 -0.0051282126286101848 0.017687141356877378 0 0 0 -0.002470542426769369 -0.032609553908946244 -0.011723561922211412 0 -0.011723561922211412 -0.005052396923958577 0 0 0 -0.0094154877082261793 -0.034091862842031195 -0.012803335379956586 0 -0.012803335379956586 -0.01139902359079692 0 0 0 -0.01137272160820707 -0.030886152513362131 -0.012404289840827983 0 -0.012404289840827983 -0.014712946396252424 0 0 0 -0.011399774727403666 -0.028683675966587767 -0.0081217905710577742 0 -0.0081217905710577742 -0.013647250548616305 0 0 0 -0.010582731628801018 -0.030290133159553367 -0.0093641561672749007 0 -0.0093641561672749007 -0.019822361917918085 0 0 0 -0.012528123769367849 -0.030861714874130718 -0.0068461430918649868 0 -0.0068461430918649868 -0.016864898527978706 0 0 0 -0.011931653350527392 -0.015236547400803824 -0.019548343907681565 0 -0.019548343907681565 0.058263641804083832 0 0 0 0.010756773600819836 0.022449312240818656 -0.009600334594484573 0 -0.009600334594484573 0.067449274281031354 0 0 0 0.022474646630462513 -0.01581341099368222 -0.016444440468604049 0 -0.016444440468604049 0.051233190929391048 0 0 0 0.0088549449839271932 -0.016036611859129746 -0.010059708396735367 0 -0.010059708396735367 0.049092000527648394 0 0 0 0.0082638471671296898 -0.026222085898264691 -0.0090782403536969203 0 -0.0090782403536969203 0.048102983605743499 0 0 0 0.0054702244268696743 -0.033148457205120108 -0.011069386392694502 0 -0.011069386392694502 0.013635394512502952 0 0 0 -0.0048782656731543583 -0.032408889751327941 -0.0099282267506783928 0 -0.0099282267506783928 0.024403266815224423 0 0 0 -0.002001405734025824 -0.027951221371875723 -0.0019653430743371281 0 -0.0019653430743371281 0.011359152062242306 0 0 0 -0.0041480173274083265 -0.015618386274431517 -0.003396049106601573 0 -0.003396049106601573 0.056266900983461654 0 0 0 0.010162128677257631 -0.01947986501887744 -0.004220989654329127 0 -0.004220989654329127 0.038251596777123309 0 0 0 0.0046929329395614672 -0.016924016723496443 0.002214772973948953 0 0.002214772973948953 0.033588703421634447 0 0 0 0.0041661716745344524 -0.018165762407190811 0.00084371326031479343 0 0.00084371326031479343 0.020001716296355054 0 0 0 0.00045898847229114415 -0.0035526145820655997 -0.0037807748533195684 0 -0.0037807748533195684 0.067505003973050592 0 0 0 0.015988097347746172 0.0012355900507784456 -0.0032367247882972325 0 -0.0032367247882972325 0.066378414567889621 0 0 0 0.016903501154666989 -0.013573008628809724 -0.020016473164362281 0 -0.020016473164362281 0.053753541307996588 0 0 0 0.010045133169796827 -0.019055871435019741 -0.022720531588207304 0 -0.022720531588207304 0.051737597096935942 0 0 0 0.0081704314154791326 0.030353091346808383 -0.0090703512874473341 0 -0.0090703512874473341 0.091169667835189677 0 0 0 0.030380689795499512 -0.0063054732375568134 -0.0065131278136931758 0 -0.0065131278136931758 0.060921117469164177 0 0 0 0.013653911057901924 -0.024032607096352798 -0.018701863970424282 0 -0.018701863970424282 0.057645660054955083 0 0 0 0.0084032632396507934 0.026359188730122968 -0.0094357282056157926 0 -0.0094357282056157926 0.079183990155323611 0 0 0 0.026385794721361648 -0.017860760454039948 -0.017090191304042213 0 -0.017090191304042213 0.075815691127825158 0 0 0 0.014488732668446413 0.034396751799848246 -0.0086329399241980766 0 -0.0086329399241980766 0.10326190499058208 0 0 0 0.034414664197607581 0.0040184651980613717 -0.00060853525479409544 0 -0.00060853525479409544 0.077514258171115236 0 0 0 0.02038318084229418 -0.019857024841037737 -0.01920201639890462 0 -0.01920201639890462 0.075275226938574871 0 0 0 0.013854550524384505 -0.0033651464133672704 -0.021565183648081354 0 -0.021565183648081354 0.062189673476937379 0 0 0 0.014706131765892527 -0.010581431032362365 0.008190011803311234 0 0.008190011803311234 0.024991377699484119 0 0 0 0.00360248666678048 -0.0072657883744762786 0.0058990653563376072 0 0.0058990653563376072 0.035591182690853929 0 0 0 0.0070813485790944264 0.0015681853483118235 0.00098045759811316024 0 0.00098045759811316024 0.074578418446238026 0 0 0 0.019036650948637435 -0.0063350931069359045 0.0095218920599129397 0 0.0095218920599129397 0.03655379193274709 0 0 0 0.0075546747064527825 -0.0037720509141281888 0.0087599909783682428 0 0.0087599909783682428 0.01077876595015248 0 0 0 0.001751678759006059 0.010910951815028339 0.00050804531836745603 0 0.00050804531836745603 0.075845255093048597 0 0 0 0.02168905172701914 0.0081584746991116286 0.002484725792266107 0 0.002484725792266107 0.074025036189801274 0 0 0 0.020545877722228212 0.01495998994070377 -0.00086427501945951501 0 -0.00086427501945951501 0.05378357244338608 0 0 0 0.017185890596022407 -0.0022808784890339107 0.0079159285477114483 0 0.0079159285477114483 0.011310871309552328 0 0 0 0.0022574982051296599 -0.0030888579055877718 -0.019037310199933266 0 -0.019037310199933266 0.061553378621957755 0 0 0 0.014616130179092468 0.037929623045940275 -0.0082377920741053597 0 -0.0082377920741053597 0.11401319313431908 0 0 0 0.037985704045064836 -0.0075496003100654629 -0.0073921614513353558 0 -0.0073921614513353558 0.08546704883144951 0 0 0 0.019479362130346178 0.0050475170798072178 -0.0035420539080472935 0 -0.0035420539080472935 0.067564704300542733 0 0 0 0.018153055345087488 -0.0012862088693219587 -0.0073680234909776487 0 -0.0073680234909776487 0.03318766796954975 0 0 0 0.0079753647750568923 0.0013497295055999916 -0.0060820285370359883 0 -0.0060820285370359883 0.024851536652929884 0 0 0 0.0065503165396323584 -0.0024815931018902226 -0.016765479591208443 0 -0.016765479591208443 0.019440401761590786 0 0 0 0.0042397021649251965 -0.00063560764529113634 -0.015365310679160804 0 -0.015365310679160804 0.032021641382589117 0 0 0 0.0078465084343244396 -0.00030278472485290031 -0.010972534551736413 0 -0.010972534551736413 0.0060778206091756104 0 0 0 0.0014437589710809551 -0.0015000991818874265 -0.011369527872862939 0 -0.011369527872862939 -0.003403993043350706 0 0 0 -0.0012260230563094776 -0.00012139923717735535 -0.0053867503560000793 0 -0.0053867503560000793 0.00073210679049839911 0 0 0 0.00015267688833020543 0.00015253875920732458 -0.0076535911723136785 0 -0.0076535911723136785 0.0099294296545844301 0 0 0 0.0025204921034479941 -0.0078158670546846221 -0.019736982333659503 0 -0.019736982333659503 0.0040649136154851107 0 0 0 -0.00093773835979982234 -0.0099938253166319546 -0.023528045129257991 0 -0.023528045129257991 -0.002785271075917306 0 0 0 -0.0031947740981373984 -0.010578848936917629 -0.017412627169373085 0 -0.017412627169373085 -0.0016786823224952396 0 0 0 -0.003064382814853106 -0.019341527636406841 -0.028819058329945524 0 -0.028819058329945524 0.0015953083558555292 0 0 0 -0.004436554820137939 -0.017027722038850474 -0.029601686537126026 0 -0.029601686537126026 0.023883194965271304 0 0 0 0.001713868231605048 -0.015157078829902693 -0.023819742634988872 0 -0.023819742634988872 0.026100352183354047 0 0 0 0.0027358183383627832 -0.0061012148688208701 -0.023248450249917757 0 -0.023248450249917757 0.014759318682013856 0 0 0 0.0021645259532978578 0.00021905473877015247 0.00034545240261540933 0 0.00034545240261540933 0.00083993169822260683 0 0 0 0.00026474660924802329 0.0014879170284828325 0.00065138973915801479 0 0.00065138973915801479 9.356221372680551e-05 0 0 0 0.00039536981055243725 -0.00037286068233223073 0.0008325565828295467 0 0.0008325565828295467 0.0015829223430733053 0 0 0 0.00030251541518510212 0.0013770374743040659 -0.00015729939144693006 0 -0.00015729939144693006 0.0015930445187080089 0 0 0 0.00074252049825296318 -0.0047041095150728296 -0.0015634067523022654 0 -0.0015634067523022654 -0.00016866701329298905 0 0 0 -0.0012181941320914547 -0.0010957156916153732 -0.003312694995357246 0 -0.003312694995357246 -0.0039405845197819644 0 0 0 -0.001259075052849612 -0.00084270313230927485 -0.00063395221524686907 0 -0.00063395221524686907 0.0020224436722475758 0 0 0 0.0002949351349843532 -0.0030540598837651882 -0.00063633324590384177 0 -0.00063633324590384177 0.004480750873097239 0 0 0 0.00035667274733273513 -0.0019353314557019176 -0.0052615038437604511 0 -0.0052615038437604511 0.0020840368645912064 0 0 0 3.7176352222322236e-05 -0.0056065901202357882 -0.013696031904827738 0 -0.013696031904827738 -0.0090461086956272752 0 0 0 -0.0036631747039659324 -0.01880381306009371 -0.021857621173722586 0 -0.021857621173722586 -0.0084299869519735005 0 0 0 -0.006808450003016886 -0.017386520623384527 -0.012964667711477085 0 -0.012964667711477085 -0.0058628396381510406 0 0 0 -0.0058123400653840029 -0.0067033759789238978 -0.0073654848023846364 0 -0.0073654848023846364 -0.0033500580433694083 0 0 0 -0.0025133585055733265 -0.0041155570770526201 -0.0064796374221780528 0 -0.0064796374221780528 -0.0025153835244275113 0 0 0 -0.0016577351503701959 -0.0062721621570742403 -0.0031120910399882185 0 -0.0031120910399882185 -0.0022496115891610935 0 0 0 -0.0021304434365589653 -0.0070852703179777876 -0.0054697922399918678 0 -0.0054697922399918678 -0.003197923941791192 0 0 0 -0.0025707985649421339 0.00015144209200457226 -0.00088386193207989883 0 -0.00088386193207989883 -0.00078343594552787721 0 0 0 -0.00015799846338104828 -0.016911916875417043 -0.0064201055801237005 0 -0.0064201055801237005 0.001337740978102353 0 0 0 -0.0038935439743286171 -0.0092148258065825051 -0.0055355607579854471 0 -0.0055355607579854471 0.00030204104040132407 0 0 0 -0.0022281961915452397 -0.018784423391935867 -0.01236273980965541 0 -0.01236273980965541 0.0016703341403134786 0 0 0 -0.0042785223129054861 -0.024240785926142788 -0.0094073546169186617 0 -0.0094073546169186617 -0.0037708585423925078 0 0 0 -0.007002911117133831 -0.026907217038615983 -0.020408861851751059 0 -0.020408861851751059 -0.0063159470410472096 0 0 0 -0.008305791019915576 -0.0126026208853669 -0.015604176078630211 0 -0.015604176078630211 0.00019488617201401937 0 0 0 -0.0031019336783382201 -0.023406968132219319 -0.022612402524119224 0 -0.022612402524119224 0.00071318971818534749 0 0 0 -0.0056734446035087149 -0.026773962365184256 -0.027132222229209968 0 -0.027132222229209968 -0.0036965034178471079 0 0 0 -0.0076176164457578688 -0.03689648631455987 -0.02425873200293327 0 -0.02425873200293327 -0.0038920869652434298 0 0 0 -0.010197143319950686 -0.040715147267433527 -0.029266681284142018 0 -0.029266681284142018 -0.00083913157182324838 0 0 0 -0.010388569709814277 -0.029421119807107585 -0.028595724454860694 0 -0.028595724454860694 0.0027884494846893149 0 0 0 -0.0066581675806044321 -0.033072952375469811 -0.022248644077275337 0 -0.022248644077275337 -0.00062540936033150807 0 0 0 -0.0084245904339503852 -0.028758334507731131 -0.014081849963758053 0 -0.014081849963758053 -0.0019933356285142256 0 0 0 -0.0076879175340611727 -0.042611373442570155 -0.014918873690093148 0 -0.014918873690093148 -0.0032804999826394621 0 0 0 -0.011472968356302404 -0.033590100006861578 -0.010258425656580639 0 -0.010258425656580639 0.0027333794588169091 0 0 0 -0.0077141801370111951 -0.03726935510024787 -0.0080064164998725068 0 -0.0080064164998725068 -0.0027930175478445562 0 0 0 -0.010015593162023162 -0.030330969334272484 -0.0063324629222645257 0 -0.0063324629222645257 0.00027050017063356968 0 0 0 -0.0075151172909094788 -0.026751826090050612 -0.031311800911205778 0 -0.031311800911205778 0.0159094593812239 0 0 0 -0.0027105916772066085 -0.022143814160318631 -0.03082740892855762 0 -0.03082740892855762 0.012573619256543989 0 0 0 -0.0023925487259436329 -0.02384668618510899 -0.026658836161948501 0 -0.026658836161948501 0.032074306153818011 0 0 0 0.0020569049921770333 -0.016315276242602872 -0.02936885073639639 0 -0.02936885073639639 0.014808882404577339 0 0 0 -0.00037659845950654969 -0.020071974844049878 -0.02944876494426802 0 -0.02944876494426802 0.00039605641935880342 0 0 0 -0.0049189796061728241 -0.019404103970775466 -0.024675604969951026 0 -0.024675604969951026 0.0005355256032626432 0 0 0 -0.0047171445918782751 -0.024560307540418491 -0.030392542101077225 0 -0.030392542101077225 0.0049437675810817261 0 0 0 -0.00490413498983433 -0.029101106761972972 -0.032950981181222416 0 -0.032950981181222416 0.0064945393251631955 0 0 0 -0.0056516418592025275 -0.027584860418069179 -0.032113550628716014 0 -0.032113550628716014 0.0025473687843213799 0 0 0 -0.0062593729084369221 -0.02897317062867133 -0.028790568918157761 0 -0.028790568918157761 0.0013411240005845038 0 0 0 -0.0069080116570219285 -0.034214095525412908 -0.032320624876985171 0 -0.032320624876985171 0.0050637624976320739 0 0 0 -0.0072875832569450349 -0.028363240437671244 -0.031870535757027911 0 -0.031870535757027911 0.014384523003947436 0 0 0 -0.0034946793584309521 -0.026314795456423345 -0.03232914742602 0 -0.03232914742602 0.014784249197408172 0 0 0 -0.0028826365647536267 -0.022417109918811184 -0.026061537595908457 0 -0.026061537595908457 0.031361562653538844 0 0 0 0.0022361131836819981 -0.024602231634740068 -0.027799895515360551 0 -0.027799895515360551 0.02750569987477447 0 0 0 0.00072586706000865586 -0.019030432551042198 -0.026300607919017893 0 -0.026300607919017893 0.026793194081449645 0 0 0 0.0019406903826016952 -0.027513877448938517 -0.030758161840548026 0 -0.030758161840548026 0.017539905640022502 0 0 0 -0.0024934929522290039 -0.019861056754166561 -0.02780434187259051 0 -0.02780434187259051 0.020090845871614055 0 0 0 5.7447279362012101e-05 -0.021324227241906635 -0.027380827175781025 0 -0.027380827175781025 0.020746171543200909 0 0 0 -0.00014451392467640378 -0.029858445845246329 -0.032529033501776383 0 -0.032529033501776383 0.011937385265673006 0 0 0 -0.0044802651448934139 -0.026447857569545929 -0.030806353886468574 0 -0.030806353886468574 0.015655572058394629 0 0 0 -0.0026980713777877696 -0.030621526318982878 -0.034191974179993534 0 -0.034191974179993534 0.0081976232573930802 0 0 0 -0.0056059757653971476 -0.034302023035749252 -0.032209252740651506 0 -0.032209252740651506 0.0039114125384061005 0 0 0 -0.0075976526243358711 -0.040878878251202559 -0.03084818643505538 0 -0.03084818643505538 0.0016528280351993663 0 0 0 -0.009806512554000715 -0.030788149089320038 -0.032725707643457308 0 -0.032725707643457308 0.0082860081281190823 0 0 0 -0.0056255352403004055 -0.03547092093594395 -0.034999155424436046 0 -0.034999155424436046 0.0060239878275389902 0 0 0 -0.0073617332771012123 -0.03208395949740115 -0.032628759022215181 0 -0.032628759022215181 0.0067621195070510232 0 0 0 -0.0063304599975875023 -0.043426221226370076 -0.031911679300345053 0 -0.031911679300345053 0.0042013998308005895 0 0 0 -0.0098062053488923717 -0.042298753281680423 -0.034622410594056158 0 -0.034622410594056158 0.009178786925120086 0 0 0 -0.0082799915891401676 -0.013937264958283402 -0.033176507840208203 0 -0.033176507840208203 0.0147145877385646 0 0 0 0.00019433069507035494 -0.0095539895525929008 -0.025569360001952757 0 -0.025569360001952757 0.020086904354077451 0 0 0 0.0026332287003711374 -0.017007998104684452 -0.025785033035019375 0 -0.025785033035019375 0.023367748676409672 0 0 0 0.0015899376429313605 -0.030438580460196596 -0.033532562536364385 0 -0.033532562536364385 0.011517105510884584 0 0 0 -0.0047303687373279613 -0.020953358359832808 -0.031085574698555551 0 -0.031085574698555551 0.013742646129598857 0 0 0 -0.0018026780575585155 -0.052841274201806399 -0.011154407982991943 0 -0.011154407982991943 0.003097144032667698 0 0 0 -0.012436032542284647 -0.070327102384864948 -0.0103552928964733 0 -0.0103552928964733 -0.0027649949595974777 0 0 0 -0.018273024336115662 -0.051195070206428273 -0.009841390794593341 0 -0.009841390794593341 -0.0031500952751969957 0 0 0 -0.013586291370406067 -0.056804775408766828 -0.0095168618652222634 0 -0.0095168618652222634 0.00042379855289720325 0 0 0 -0.014095244213967462 -0.047631843189364753 -0.011344191816165056 0 -0.011344191816165056 -0.00076956589399257425 0 0 0 -0.012100352270839165 -0.047774944253237916 -0.02437422423505943 0 -0.02437422423505943 0.001567377781321877 0 0 0 -0.011551891617978871 -0.049704105086760764 -0.023435555602773994 0 -0.023435555602773994 1.3163853047615248e-06 0 0 0 -0.012425697175363959 -0.038467910451195242 -0.023801059722828088 0 -0.023801059722828088 -0.00019485184203871242 0 0 0 -0.0096656905733085718 -0.045674526626988898 -0.031453287666307506 0 -0.031453287666307506 0.0040807908150657379 0 0 0 -0.01039843395298079 -0.049765730174688994 -0.027465303261928531 0 -0.027465303261928531 0.0049625637964005875 0 0 0 -0.011200791594572101 -0.052221221009423724 -0.029014392426648938 0 -0.029014392426648938 0.0018092574746106926 0 0 0 -0.012602990883703313 -0.05324212230791614 -0.032191716260857373 0 -0.032191716260857373 0.0084501663611621092 0 0 0 -0.011197988986688445 -0.061825661467153029 -0.023987897288244131 0 -0.023987897288244131 0.0012213844539954513 0 0 0 -0.015151069253289424 -0.063436571179598833 -0.023736153919224456 0 -0.023736153919224456 0.0052650079502558622 0 0 0 -0.014542890807335784 -0.06073498869867433 -0.023268847675648074 0 -0.023268847675648074 0.00053006021844348439 0 0 0 -0.015051232120057656 -0.055803543302177794 -0.019148220774187541 0 -0.019148220774187541 0.0040094041261207192 0 0 0 -0.012948534794014421 -0.079868162527220399 -0.01654892682650605 0 -0.01654892682650605 -0.00077108357509581005 0 0 0 -0.020159811525579108 -0.074383155220044156 -0.0085517111621066788 0 -0.0085517111621066788 -0.00035172145233208774 0 0 0 -0.018683719168093998 -0.074923580196452066 -0.010429550405477994 0 -0.010429550405477994 0.0015219856910246854 0 0 0 -0.018350398626356679 -0.11632186643293896 -0.0080540999555594236 0 -0.0080540999555594236 0.0012941223741673724 0 0 0 -0.028756936014692869 -0.094579707173778005 -0.0087225823271426962 0 -0.0087225823271426962 0.001323974725736754 0 0 0 -0.023313933112010299 -0.091314206315898094 -0.0066869557519180223 0 -0.0066869557519180223 -0.00046772763148594798 0 0 0 -0.022945483486845941 -0.081375440492921516 -0.019566073276682638 0 -0.019566073276682638 0.006715461285853333 0 0 0 -0.018664994801767101 -0.077494923409731409 -0.018567247010265131 0 -0.018567247010265131 0.00054087797241608726 0 0 0 -0.019238511359328803 -0.060328120194252488 -0.026520737074223977 0 -0.026520737074223977 0.0047348426839399771 0 0 0 -0.013898319377578128 -0.060579032762070717 -0.027999889522492549 0 -0.027999889522492549 0.010325848211256927 0 0 0 -0.01256329613770335 -0.062151622384234995 -0.027530736891400731 0 -0.027530736891400731 0.018489797032981148 0 0 0 -0.010915456337813434 -0.073103676178990565 -0.01935936753445755 0 -0.01935936753445755 0.0014888421441098809 0 0 0 -0.017903708508720098 -0.073234172565464467 -0.019849193312523328 0 -0.019849193312523328 0.0083937803223482765 0 0 0 -0.016210098060779082 -0.089914720475115534 -0.0089535086098238847 0 -0.0089535086098238847 0.0098036434277916085 0 0 0 -0.020027769261830974 -0.083557275608001663 -0.020021873619477215 0 -0.020021873619477215 0.0084152345621792968 0 0 0 -0.018785510261455585 -0.094700555058609498 -0.0093736713730630528 0 -0.0093736713730630528 0.0017808142877349664 0 0 0 -0.023229935192718737 -0.095524119878113545 -0.0098599195604185119 0 -0.0098599195604185119 0.00035899347369161561 0 0 0 -0.023791281601105441 -0.12196210967378597 -0.0054789189411811818 0 -0.0054789189411811818 0.0026818549882530185 0 0 0 -0.029820063671383179 -0.028497863741538731 -0.032532732898448574 0 -0.032532732898448574 0.01646543824842106 0 0 0 -0.0030081063732794733 -0.002007346665747145 -0.045787178883159252 0 -0.045787178883159252 0.0343477423349422 0 0 0 0.0080850989172988608 -0.029213989556069811 -0.035659450150281602 0 -0.035659450150281602 0.016856854424144752 0 0 0 -0.003089283782981303 -0.032457978623591094 -0.032810043925516397 0 -0.032810043925516397 0.0086772651710332882 0 0 0 -0.0059451783631394306 -0.049628319743254767 -0.030949963501315833 0 -0.030949963501315833 0.0092326536606974763 0 0 0 -0.010098916520639323 -0.04809114294203265 -0.033132052898841913 0 -0.033132052898841913 0.014394044574153164 0 0 0 -0.0084242745919698714 -0.034394651300163517 -0.038164775046344523 0 -0.038164775046344523 0.021448361423694717 0 0 0 -0.003236572469117141 -0.052038069067571691 -0.025741867908960159 0 -0.025741867908960159 0.02188272530712887 0 0 0 -0.007538835940110733 -0.072079172908499467 -0.018918460741869148 0 -0.018918460741869148 0.0093869266456084732 0 0 0 -0.015673061565722735 -0.067207394801886561 -0.0141967646868294 0 -0.0141967646868294 0.015395588234624114 0 0 0 -0.012952951641815563 -0.054874061846112321 -0.028725267447854502 0 -0.028725267447854502 0.024600011666109478 0 0 0 -0.0075685125450006274 -0.032824929660270896 -0.033238283100837034 0 -0.033238283100837034 0.031427685510852177 0 0 0 -0.00034931103735474922 -0.031827212930024773 -0.032070810211979744 0 -0.032070810211979744 0.033450688879333779 0 0 0 0.0004058689873271959 -0.010931258863181956 -0.040508676505327829 0 -0.040508676505327829 0.048271568786836694 0 0 0 0.0093350774809137088 0.0079231813403628573 -0.060086667290213891 0 -0.060086667290213891 0.098582293055639342 0 0 0 0.026626368599000534 -0.12660520015513102 0.007409035923281404 0 0.007409035923281404 0.052186000890111606 0 0 0 -0.018604799816254874 0.1013525440388896 -0.058373135764593465 0 -0.058373135764593465 0.046971600122510004 0 0 0 0.037081036040349957 0.0036751162339383253 -0.0022042183245579178 0 -0.0022042183245579178 0.011118985823160437 0 0 0 0.0036985255142746908 0.01454107470759923 -0.030192492456862563 0 -0.030192492456862563 0.0080772797267127383 0 0 0 0.0056545886085780234 0.011149312559940783 -0.027412323884085099 0 -0.027412323884085099 0.02034887843595079 0 0 0 0.0078745477489728932 0.0091288046029554589 -0.005592373251503093 0 -0.005592373251503093 0.027497087335106359 0 0 0 0.0091564729845154558 0.039410083046998334 -0.019350238903306671 0 -0.019350238903306671 0.026253112379440724 0 0 0 0.016415798856609709 0.012455820781893605 -0.0075946651967055195 0 -0.0075946651967055195 0.037493416810588022 0 0 0 0.012487309398120407 0.0094620355223253294 -0.016413821459189681 0 -0.016413821459189681 0.02594267652664306 0 0 0 0.0088511780122421668 0.0033333047487748568 -0.0278674015171404 0 -0.0278674015171404 0.018990621085870352 0 0 0 0.005580981458661316 -0.061973735526030943 -0.016972273368872443 0 -0.016972273368872443 0.014275446204383535 0 0 0 -0.011924572330411859 -0.073696117363264521 -0.019196291905350507 0 -0.019196291905350507 0.026022899359689933 0 0 0 -0.011918304500893623 -0.059096635960435628 -0.016014752849873568 0 -0.016014752849873568 0.022422672266740745 0 0 0 -0.0091684909234237 -0.094844453320295063 -0.020078366634347724 0 -0.020078366634347724 0.016278270023777686 0 0 0 -0.019641545824129344 -0.061125736661635288 -0.0092752259530963083 0 -0.0092752259530963083 0.033783269348892087 0 0 0 -0.0068356168281858004 -0.067543398649835482 -0.0063711344814345594 0 -0.0063711344814345594 0.0088719545484811924 0 0 0 -0.01466786102533861 -0.085542842967032934 -0.014668196207477904 0 -0.014668196207477904 0.097389562182219697 0 0 0 0.0029616798037966907 -0.062384385297025641 1.180287119151302e-06 0 1.180287119151302e-06 0.035233528760261007 0 0 0 -0.0067877141341911012 -0.054297551877315026 -0.011581557850369052 0 -0.011581557850369052 0.011707064810589723 0 0 0 -0.010647621766681339 -0.048994465297801063 -0.012556714927831194 0 -0.012556714927831194 0.035147604826793577 0 0 0 -0.003461715117751861 -0.057388256263508353 -0.013447414200409347 0 -0.013447414200409347 0.033333338123708089 0 0 0 -0.0060137295349500484 -0.053175570583091171 -0.01726941643590019 0 -0.01726941643590019 0.036730871794434933 0 0 0 -0.0041111746971640717 -0.05152814279726442 -0.015228261321114607 0 -0.015228261321114607 0.053530096387844839 0 0 0 0.00050048839764510683 -0.042121306371583608 -0.025730004754235952 0 -0.025730004754235952 0.038062905825676702 0 0 0 -0.0010146001364767232 -0.037206184845067582 -0.027358551685265686 0 -0.027358551685265686 0.019122562972847458 0 0 0 -0.0045209054680550517 -0.044971942052900948 -0.019070566898080538 0 -0.019070566898080538 0.018612388599571927 0 0 0 -0.0065898883633322691 -0.042759366867427054 -0.022440369500925615 0 -0.022440369500925615 0.015377650975090251 0 0 0 -0.0068454289730842249 -0.046719512651154232 -0.018622839317264175 0 -0.018622839317264175 0.013557703204582161 0 0 0 -0.0082904523616430525 -0.044707255499084386 -0.022842648782721048 0 -0.022842648782721048 0.0042212819992799855 0 0 0 -0.010121493374951052 -0.054430227486827673 -0.020497222166753856 0 -0.020497222166753856 0.015110629020930355 0 0 0 -0.009829899616474333 -0.04453571325765017 -0.020372273540013641 0 -0.020372273540013641 0.0077502055236855494 0 0 0 -0.0091963769334911655 -0.045152267697555065 -0.021504925728458801 0 -0.021504925728458801 0.0065766294523588176 0 0 0 -0.0096439095612990688 -0.050695714374029366 -0.02083298859502665 0 -0.02083298859502665 0.009395855336935377 0 0 0 -0.010324964759273469 -0.041656843028544235 -0.021756696214734847 0 -0.021756696214734847 0.0007415066191598374 0 0 0 -0.010228834102346054 -0.043141725246798074 -0.020013705879232485 0 -0.020013705879232485 0.00353262890796191 0 0 0 -0.0099022740847090618 -0.043291503995792693 -0.020099737976238471 0 -0.020099737976238471 0.011877954824969617 0 0 0 -0.0078533872927057241 -0.037030527863071899 -0.022906277259307967 0 -0.022906277259307967 -0.0026808490980121391 0 0 0 -0.0099278442402710165 -0.039227686030079006 -0.023019119297171459 0 -0.023019119297171459 0.0060517570400239751 0 0 0 -0.008293982247513737 -0.040790320028618238 -0.022486891862138564 0 -0.022486891862138564 0.0014954602087209889 0 0 0 -0.0098237149549742497 -0.037053644748749399 -0.02091304703064345 0 -0.02091304703064345 -0.0052772130629298031 0 0 0 -0.010582714452919813 -0.035104869120235013 -0.022037696318355032 0 -0.022037696318355032 -0.0021777112093406617 0 0 0 -0.0093206450823939239 -0.034632550903249765 -0.015793684351626008 0 -0.015793684351626008 -0.013001045965862823 0 0 0 -0.011908399217278126 -0.037402070888321592 -0.017544020959830334 0 -0.017544020959830334 -0.0063799632638820158 0 0 0 -0.010945508538050902 -0.033237036124407107 -0.016876516217077919 0 -0.016876516217077919 -0.0099396333241770218 0 0 0 -0.010794167362146011 -0.041685614275602703 -0.016104491160124274 0 -0.016104491160124274 0.011489966148080538 0 0 0 -0.0075489120318805863 -0.037335695637540828 -0.016476524522709313 0 -0.016476524522709313 -0.00055452624699081632 0 0 0 -0.0094725554711329041 -0.041589768195734032 -0.017920109530270539 0 -0.017920109530270539 0.0031608165394513416 0 0 0 -0.0096072379140707473 -0.03768346808305556 -0.012004923050977279 0 -0.012004923050977279 -0.0029566481118936672 0 0 0 -0.010160029048737307 -0.04040795780750589 -0.012544157903634799 0 -0.012544157903634799 0.0088104564356157322 0 0 0 -0.0078993753429725255 -0.032821111860635077 -0.0105096658198817 0 -0.0105096658198817 0.011938201535064419 0 0 0 -0.0052207275813926368 -0.034503769402596196 -0.012665615490339621 0 -0.012665615490339621 0.027951060756539525 0 0 0 -0.0016381771615141538 -0.041933165337207867 -0.01580328748061266 0 -0.01580328748061266 0.022600434285721227 0 0 0 -0.0048331827628717017 -0.040498582867427552 -0.015337485752887681 0 -0.015337485752887681 0.020297481983280297 0 0 0 -0.0050502752210368484 -0.035275024203391792 -0.01121331484980756 0 -0.01121331484980756 0.043176341114779415 0 0 0 0.0019753292278469337 -0.010431641660998525 -0.016034183898587573 0 -0.016034183898587573 0.041798975026122953 0 0 0 0.0078418333412810237 0.018876384815499858 -0.0094210312075011828 0 -0.0094210312075011828 0.056733903913771401 0 0 0 0.018902572182317817 -0.029676895131177938 -0.012143831621435943 0 -0.012143831621435943 0.043218150097479535 0 0 0 0.0033853137415754131 -0.016930387585492479 -0.019633094935490703 0 -0.019633094935490703 0.046407760056558445 0 0 0 0.0073693431177666024 -0.010440890623942545 -0.017701341615658062 0 -0.017701341615658062 0.039383647375183406 0 0 0 0.0072356891878102014 -0.0030033150612223669 -0.014767647898955238 0 -0.014767647898955238 0.035676099044624987 0 0 0 0.0081681959958505579 -0.04932785399314682 -0.015093543498188228 0 -0.015093543498188228 0.036429781688460561 0 0 0 -0.0032245180761715786 0.015601101563204265 -0.0087996654036054563 0 -0.0087996654036054563 0.046920256834444708 0 0 0 0.015630339599412246 -0.0020601235162486797 -0.015713849499175592 0 -0.015713849499175592 0.033274589302366375 0 0 0 0.0078036164465293267 -0.0093170701667794065 -0.025547576712671327 0 -0.025547576712671327 0.020087957549815516 0 0 0 0.0026927218457589719 0.009304515655286838 -0.014877023236980258 0 -0.014877023236980258 0.02988337527406526 0 0 0 0.009796972732338094 -0.056780983866611318 -0.016800408781725645 0 -0.016800408781725645 0.026096213063236597 0 0 0 -0.007671192700843734 -0.050909762116604113 -0.021256214964295 0 -0.021256214964295 0.014105132915654184 0 0 0 -0.0092011573002374891 -0.051585355868581928 -0.019508807942140008 0 -0.019508807942140008 0.01512851973515339 0 0 0 -0.0091142090333571346 -0.044100842575698171 -0.015159287324466697 0 -0.015159287324466697 0.029867569459851417 0 0 0 -0.0035583182789616918 
</DataArray>
<DataArray type="Float64" Name="cross_section_updated" format="ascii">
1 1 1 1 1 1 1 1 1 1 1 1 1 1 1 1 1 1 1 1 1 1 1 1 1 1 1 1 1 1 1 1 1 1 1 1 1 1 1 1 1 1 1 1 1 1 1 1 1 1 1 1 1 1 1 1 1 1 1 1 1 1 1 1 1 1 1 1 1 1 1 1 1 1 1 1 1 1 1 1 1 1 1 1 1 1 1 1 1 1 1 1 1 1 1 1 1 1 1 1 1 1 1 1 1 1 1 1 1 1 1 1 1 1 1 1 1 1 1 1 1 1 1 1 1 1 1 1 1 1 1 1 1 1 1 1 1 1 1 1 1 1 1 1 1 1 1 1 1 1 1 1 1 1 1 1 1 1 1 1 1 1 1 1 1 1 1 1 1 1 1 1 1 1 1 1 1 1 1 1 1 1 1 1 1 1 1 1 1 1 1 1 1 1 1 1 1 1 1 1 1 1 1 1 1 1 1 1 1 1 1 1 1 1 1 1 1 1 1 1 1 1 1 1 1 1 1 1 1 1 1 1 1 1 1 1 1 1 1 1 1 1 1 1 1 1 1 1 1 1 1 1 1 1 1 1 1 1 1 1 1 1 1 1 1 1 1 1 1 1 1 1 1 1 1 1 1 1 1 1 1 1 1 1 1 1 1 1 1 1 1 1 1 1 1 1 1 1 1 1 1 1 1 1 1 1 1 1 1 1 1 1 1 1 1 1 1 1 1 1 1 1 1 1 1 1 1 1 1 1 1 1 1 1 1 1 1 1 1 1 1 1 1 1 1 1 1 1 1 1 1 1 1 1 1 1 1 1 1 1 1 1 1 1 1 1 1 1 1 1 1 1 1 1 1 1 1 1 1 1 1 1 1 1 1 1 1 1 1 1 1 1 1 1 1 1 1 1 1 1 1 1 1 1 1 1 1 1 1 1 1 1 1 1 1 1 1 1 1 1 1 1 1 1 1 1 1 1 1 1 1 1 1 1 1 1 1 1 1 1 1 1 1 1 1 1 1 1 1 1 1 1 1 1 1 1 1 1 1 1 1 1 1 1 1 1 1 1 1 1 1 1 1 1 1 1 1 1 1 1 1 1 1 1 1 1 1 1 1 1 1 1 1 1 1 1 1 1 1 1 1 1 1 1 1 1 1 1 1 1 1 1 1 1 1 1 1 1 1 1 1 1 1 1 1 1 1 1 1 1 1 1 1 1 1 1 1 1 0.0020330990024489165 1 1 0.0020854913684449513 1 1 0.0021210575440881612 1 1 1 1 1 1 1 1 1 1 1 1 1 0.0021530636755544455 1 1 1 1 1 0.0021844190561381405 1 1 1 1 1 1 1 1 1 1 1 1 1 1 1 1 1 1 1 1 1 1 1 1 1 1 1 1 1 1 1 1 1 1 1 1 1 1 1 1 1 1 1 1 1 1 1 1 1 1 1 1 1 1 1 1 1 1 1 1 1 1 1 1 1 1 1 1 1 1 1 1 1 1 1 1 1 1 1 1 1 1 1 1 1 1 1 1 1 1 1 1 1 1 1 1 1 1 1 1 1 1 1 1 1 1 1 1 1 1 1 1 1 1 1 1 1 1 1 1 1 1 1 1 1 1 1 1 1 1 1 1 1 1 1 1 1 1 1 1 1 1 1 1 1 1 1 1 1 1 1 1 1 1 1 1 1 1 1 1 1 1 1 1 1 1 1 1 0.0022155239302355046 1 1 1 0.0022467235335659219 1 1 0.0022771402146569797 1 1 1 1 1 1 1 1 1 1 1 0.0023067163332385929 1 1 1 1 0.0023343053573199046 1 1 1 1 1 1 1 1 1 1 1 1 1 1 1 1 1 1 1 1 1 1 1 1 1 1 1 1 1 1 1 1 1 1 1 1 1 1 1 1 1 1 1 1 1 1 1 1 1 1 1 1 1 1 1 1 1 1 0.0010562182845632111 1 1 1 1 1 1 1 1 1 1 1 1 1 1 0.0010759862225496128 1 1 0.0010659977442924525 1 0.0010860590509912181 1 1 1 1 1 1 1 1 1 1 1 1 1 0.0010950343613615678 1 1 1 1 1 1 1 1 1 1 1 1 1 1 1 1 1 1 1 1 1 1 1 1 1 1 1 1 1 1 1 1 1 1 1 1 1 1 1 1 1 1 1 1 1 1 1 1 1 1 1 1 1 1 1 1 1 1 1 1 1 1 1 1 1 1 1 1 1 1 1 1 1 1 1 1 1 1 1 1 1 1 1 1 1 1 1 1 1 1 1 1 1 1 1 1 1 1 1 1 1 1 1 1 1 1 1 1 1 1 1 1 1 1 1 1 1 1 1 1 1 1 1 1 1 1 1 1 1 1 1 1 1 1 1 1 0.0010092755753861073 1 1 0.0010229257679382387 1 0.0010312576342655845 1 1 1 1 1 1 1 1 1 1 1 1 1 1 1 1 1 1 1 1 1 1 1 1 1 1 1 1 1 1 1 1 1 1 1 1 1 1 1 1 1 1 1 1 1 1 1 0.001047289164664317 1 1 1 1 1 0.0010391123965437907 1 1 1 1 1 1 1 
</DataArray>
<DataArray type="Float64" Name="displacement_divergence" format="ascii">
-8.4257796381128133e-05 -8.5768393143095589e-05 -6.910924727991431e-05 -7.254754858430386e-05 -6.8517978551934465e-05 -6.8489545407490209e-05 -6.170393661123669e-05 -6.7124955739359334e-05 -6.3590784505756939e-05 -5.4901070560110999e-05 -6.3030111163136596e-05 -5.1328926171394915e-05 -6.3138444232538508e-05 -5.7555169821723389e-05 -6.5182198111286531e-05 -6.3243659152140819e-05 -6.0691307759821986e-05 -6.7723608841364167e-05 -4.769718574904655e-05 -4.7631615973801864e-05 -5.0070553512942349e-05 -5.4735489425710263e-05 -5.5943306214738214e-05 -4.9733959271660871e-05 -5.4583398649336309e-05 -5.2524996003154349e-05 -5.3916858377989588e-05 -5.4239347411776803e-05 -4.6475104006264651e-05 -4.5453198795209352e-05 -4.3241973651611594e-05 -4.321509816825306e-05 -4.0118253072005407e-05 -4.0514369688169731e-05 -4.4153936535455065e-05 -5.131637343204893e-05 -5.0432800521169773e-05 -4.5163490317348281e-05 -4.9269218072410721e-05 -5.1322855584205881e-05 -4.5194587526131737e-05 -4.2054254947196534e-05 -4.3423013746029252e-05 -3.9107338624268108e-05 -4.3516318175149674e-05 -4.0294638576948844e-05 -3.3420714874924314e-05 -3.7623920539306947e-05 -6.389027747627648e-05 -5.9485423656371558e-05 -6.7995988007304553e-05 -6.1080063895823235e-05 -5.5119545043944113e-05 -5.8520305198354059e-05 -5.719469623098116e-05 -5.8322533815137535e-05 -5.0845177225049671e-05 -5.8853055407867632e-05 -5.2154304018312724e-05 -5.6849400903737071e-05 -6.4512496532208533e-05 -6.429264649495894e-05 -6.2542612151879221e-05 -7.1744479061476587e-05 -7.3812925663540994e-05 -6.2909088674650674e-05 -6.6561388413483697e-05 -7.8569853688847328e-05 -6.6937143480175643e-05 -6.5909826417125402e-05 -6.835784932618044e-05 -8.4398527910070327e-05 -4.9772905105247353e-05 -4.8958175157890058e-05 -5.913549530564945e-05 -5.737107288173582e-05 -5.0287150238377255e-05 -6.2787388237206185e-05 -5.867214200549857e-05 -5.7198999803430256e-05 -5.1064818415559367e-05 -4.4168318741871643e-05 -4.4100621917775946e-05 -4.0509009785793325e-05 -3.8149302493133207e-05 -4.9988369366419134e-05 -3.3439308587225532e-05 -3.6240761952698519e-05 -3.5192915732175077e-05 -2.6379669082568158e-05 -3.0079645926004572e-05 -3.0599369169263894e-05 -2.257341688025341e-05 -1.9590408642261543e-05 -4.2134196281797361e-05 -4.438906947670771e-05 -3.3529962652189025e-05 -3.418529770843684e-05 -3.8079487168152823e-05 -4.0715331038964774e-05 -2.8050702051655963e-05 -3.761153557449271e-05 -7.9438130347170538e-06 -2.8547315850296062e-05 -2.0243674422469859e-05 -1.3342009974494113e-05 -3.7140011594053747e-06 -6.0075789232788074e-06 -7.5647487899383088e-06 -7.0385290130025213e-06 1.6160318237241011e-05 -2.7135329777340923e-05 -2.2327865699871209e-05 -1.9807583790978635e-05 -3.7835534067886547e-05 -3.5657608627000605e-05 -4.7364365274972693e-05 -5.6561239764514831e-05 -5.5906120894587841e-05 -6.6466946949117912e-05 -8.1576684203777381e-05 -6.9523219711769061e-05 -6.6516203388965309e-05 -7.2089682334702609e-05 -6.5036510703567847e-05 -8.5435812786296625e-05 -7.1277084325445947e-05 -5.6181086510034633e-05 -4.6934981839544199e-05 -5.5831196581957636e-05 1.5151682434872587e-06 -4.1406399434762192e-06 -6.8099653273525674e-06 -7.2890854185473142e-06 -2.8947046008427226e-06 6.1184462681820861e-06 -1.0186679604438189e-06 -2.589400364005998e-06 -1.6140124228900568e-06 -4.0110664394037827e-06 -8.708544639460849e-06 -2.5232249712028431e-06 -3.8297725224677894e-06 -3.6516466314809413e-07 2.3368183109127643e-06 5.2982264062823964e-05 -1.4338725621522636e-06 2.2779269514729741e-05 -4.686633093428053e-06 4.7942031870476184e-05 2.0413501474073959e-05 4.4667805828420943e-05 9.9532620607343234e-06 7.1277936605931391e-06 1.3535514279699513e-05 -4.3841511743899693e-06 -7.0106512592239064e-06 2.4345656956247538e-06 -6.8759351657890358e-06 6.580866379280988e-06 -1.4354517662300048e-05 -1.2021325285231014e-06 -8.9742944887341515e-06 -1.2034326648500336e-05 -1.6410753464761449e-05 -1.2498612721100285e-05 -1.5142907132553534e-05 -1.523633058135442e-05 -2.2496282107623526e-05 -2.1051103344974907e-05 -2.3276651829749382e-05 -2.7643496211150931e-05 -2.9469872454630498e-05 -1.8146452793307235e-05 -1.8046206325482778e-05 -1.9854487382826118e-05 -2.2023884028528341e-05 -1.6033756265723873e-05 -1.8595747702618347e-05 -1.2380658008905599e-05 -1.5938532264102062e-05 -1.5119591161235217e-05 -9.1391860853046175e-06 -1.5169521069574238e-05 -3.74892836129711e-06 -8.1597386115235811e-06 -1.1950296045679889e-05 -5.8560314344218171e-07 -1.1606854735360997e-05 9.1201186884891761e-06 -8.2406317603989478e-06 2.670963048063592e-06 -8.5367790465595209e-06 -2.6607625376675763e-06 5.180339144934932e-07 -1.0812094849147566e-05 -6.7318030679708199e-06 -8.1623528647970547e-06 -1.277306351374584e-05 -2.0271157847757705e-05 -1.4473211397761204e-05 -1.5292839057046568e-05 -1.9540510748784584e-05 -2.172657339789829e-05 -1.9406935824948394e-05 -1.63668730227172e-05 -2.2544351135878877e-05 -2.2155247122378341e-05 -2.5894379469780657e-05 -2.0982879576712765e-05 -2.3367926367965229e-05 -1.8126872690157432e-05 -2.1361337588054917e-05 -1.8052867086674399e-05 -2.964696223079444e-05 -2.930319620745328e-05 -3.2640729196897654e-05 -2.8804358319450782e-05 -2.5252252214136211e-05 -2.3891606377384342e-05 -2.4184614499593731e-05 -2.1522901322673017e-05 -2.5606234041749446e-05 -2.7415050250138605e-05 -2.6190141413572375e-05 -2.7293871128037324e-05 -3.0446770300914766e-05 -3.4867223607475835e-05 -3.531034558083039e-05 -3.441413430118233e-05 -3.8025514389119755e-05 -3.7934423039019017e-05 -4.0005809580489779e-05 -3.8920704361565479e-05 -3.2589347307352314e-05 -3.6563597049770845e-05 -3.2446859048794712e-05 -3.2111806668146083e-05 -2.9662331390250451e-05 -2.798634386968574e-05 -3.1254595433881965e-05 -3.1813070188108582e-05 -3.4142831252307424e-05 -3.6427392069422523e-05 -4.0631747256520311e-05 -4.1915796077201495e-05 -2.3938597821332334e-05 -2.1587739122492785e-05 -2.4363234993898781e-05 -2.4663623429149773e-05 -2.7460213791920756e-05 -2.5845297041024062e-05 -2.8496370229421e-05 -2.7953331275795649e-05 -2.5108943823015281e-05 -2.5108223661314625e-05 -2.2976996829020659e-05 -2.4594862142903555e-05 -2.515314957426299e-05 -2.290773773512423e-05 -2.4133190590246904e-05 -2.0605323097213362e-05 -2.5632413433033733e-05 -2.2624273374323208e-05 -2.2183362479359741e-05 -2.2695479099474955e-05 -2.4376489442015656e-05 -2.1720834930498741e-05 -2.2706477599181241e-05 -2.4733405618976577e-05 -2.804485369471614e-05 -2.4517940250234035e-05 -2.549561003058549e-05 -2.1671314148342241e-05 -2.3187913189631653e-05 -2.6751906266046635e-05 -2.9234509197850417e-05 -2.7717812098282473e-05 -3.254442507481397e-05 -3.97361411910326e-05 -4.0001629969379673e-05 -4.8551622299366785e-05 -4.2601342547227421e-05 -3.968789261202113e-05 -3.5203601802802803e-05 -4.4194706348914042e-05 -3.4409807335667938e-05 -3.0386301314736816e-05 -2.6629414832973702e-05 -2.7332208475014756e-05 -2.6694341631848515e-05 -2.0844105542846048e-05 -3.3298797380582941e-05 -3.7980046385771206e-05 -3.4663223398104828e-05 -3.1123858022376192e-05 -4.2761177124298951e-05 -3.3032725589960706e-05 -2.7576235394842346e-05 -2.9032508423850627e-05 -1.6072480276573893e-05 -2.481544278348067e-05 -2.5978342123839446e-05 -2.1056238434213531e-05 -2.2509755978726844e-05 -1.6967363571519782e-05 -7.0042296022540618e-06 -1.1623853576418145e-05 -9.8976276021365001e-06 -1.7252795229131636e-05 -1.3004825162774931e-05 -6.3281001042386913e-06 -1.4122873425499133e-05 -7.9601803625865654e-06 -1.5169857578446449e-05 -1.791243220414732e-05 -1.8333069187189793e-05 -1.7113248430611142e-05 -2.1646750005005071e-05 -1.9933318234945998e-05 -2.2069359406349071e-05 -2.2116210229290183e-05 -2.4266969962873033e-05 -1.9022496032621257e-05 -1.9016237978735092e-05 -9.8177452635486836e-05 -9.424982392524453e-05 -8.9968491134895275e-05 -8.3591712206837268e-05 -9.2205036167948033e-05 -0.00011225218873782293 -0.00011559530008600865 -9.8048683159902042e-05 -9.1267295954137965e-05 -8.2525242285310087e-05 -9.1367464889097956e-05 -9.1325569839889275e-05 -8.5910998980745981e-05 -7.0682887335519527e-05 -7.7843861981532681e-05 -9.2413876143607139e-05 -6.6207040519295708e-05 -8.7843681851489068e-05 -6.9431921753817269e-05 -6.9717657929379404e-05 -6.8503407885735744e-05 -6.9625351399452219e-05 -7.1745962751461911e-05 -6.5001747093850349e-05 -6.1081424578622931e-05 -5.9000025440127589e-05 -5.7955513977023102e-05 -5.1850113586427732e-05 -4.6426891683248837e-05 -5.0851448890351856e-05 -5.3709288778962376e-05 -5.5403583938486172e-05 -4.7375555638501199e-05 -4.1410321416761267e-05 -5.4226282462299466e-05 -4.1517678452270407e-05 -4.7585842064686764e-05 -5.5229157913778675e-05 -3.9684251424937329e-05 -5.1668718205446362e-05 -4.7206572588066664e-05 -7.0982902243108044e-05 -6.9234658264091532e-05 -6.6310309197703228e-05 -5.2719709675776269e-05 -6.584532528468492e-05 -8.1234152074535529e-05 -7.3173682023830938e-05 -8.477984666386972e-05 -7.6354259592549016e-05 -8.4415449174593134e-05 -6.6402682804686075e-05 -7.9203949661931959e-05 -0.00010296441955448538 -0.00010519874800096701 -0.00011638285625823284 -9.6417136112202843e-05 -0.00010553805048267732 -8.5363730971744494e-05 -9.8621637399014459e-05 -8.5943987438277466e-05 -0.00011678784715864443 -0.00015544487173755462 -0.00011159957926862538 -0.00011210992951267906 -0.0001389151949882645 -0.00012661257815549466 -9.9649034270027633e-05 -0.00010799080144103363 -0.00010456301040821914 -7.9696983385224275e-05 -8.2509734942367237e-05 -7.4250575463008275e-05 -7.5641013573999715e-05 -9.090423821371451e-05 -7.8572885003925198e-05 -4.5565735505890311e-05 -3.2139040283382544e-05 -3.0742330000138813e-05 -6.7078907170612281e-05 -5.2987498323528681e-05 -7.2729324223823246e-05 -6.0342206480599152e-05 -5.5674297172834811e-05 -3.9531378775107835e-05 -5.3269449954589451e-05 -3.9925399047684539e-05 -2.2404484978333816e-05 -3.3097222016006787e-05 -1.7571053554831195e-05 -3.4233191956287653e-05 -1.8991269043875498e-05 -6.0546156023928667e-07 -2.5448417764231457e-05 -3.4327233317032807e-06 5.2172512879337268e-07 3.2716465213484939e-05 3.070139900231356e-05 -6.6447350137643565e-06 -1.285386636065087e-05 3.7714971448756722e-05 9.1919263467468422e-05 7.6058956819710318e-05 8.942813194703675e-05 4.3233722711773183e-05 1.6340849408973452e-05 2.8748528489111838e-05 1.2487786826352815e-05 -2.3816403094647793e-05 -2.8058584668846833e-05 -4.0308366060781806e-05 -5.5206173754237208e-05 -3.8101434041667753e-06 -5.1895735000208744e-05 -8.6686586635401379e-05 -9.0301042361054594e-05 -6.5303935669485422e-05 -7.5659322058115028e-05 -6.6760322166764584e-05 -9.7070642597182812e-05 -7.2655993603083628e-05 -9.20318934074741e-05 -0.00011315646258583986 -0.00011480216275918948 -0.0001516668959742572 -0.00012472620827588555 -0.00015944615335311942 -0.0001297605601453191 -0.00010743441933142671 -0.00012322692814198876 1.1625171325056665e-05 1.9395912756176508e-05 2.0156690404295665e-05 1.8320147983428734e-05 1.3847039395645551e-05 2.3146366231054075e-06 -2.3722823798960066e-06 1.0504216890328742e-05 -7.2641726821428399e-06 1.3985465514112381e-06 -1.3171734591135164e-05 -2.4706233593536323e-08 -8.9181108869266262e-06 -1.6400761036607314e-07 3.8098987753324961e-06 -3.6050752927471925e-06 -7.1229968475473285e-06 -1.5423604976649348e-05 6.9318048930965687e-07 -3.362540849797212e-06 7.922569644907765e-06 -1.6247458508185367e-05 -7.0747808553432695e-06 3.6643591528406981e-06 1.5372741580938843e-05 3.2441048012077519e-05 1.3553464837519195e-05 1.9371174271640611e-05 2.0387710819386563e-05 3.3950932524082298e-05 4.7951396049677282e-05 6.9594847959085189e-05 7.8641209844426268e-05 6.713788673342084e-05 5.1608267493664559e-05 6.0813703688534907e-05 8.3659546053132757e-05 7.9488384716773909e-05 0.00017174006964716193 0.0002264678988466845 0.00021504119709275132 0.00012894631749324058 4.4838981341690614e-05 7.5818924103813936e-05 0.00011215052546988903 4.3956954458685018e-05 5.1285555491363338e-05 5.7511644075406587e-05 2.6077625973277879e-05 4.6769014724179814e-05 1.3221263125693679e-05 3.3627343484797078e-05 1.2423194494229708e-05 3.670597944046294e-05 2.8391667964083682e-06 1.798061768627401e-05 2.0315186538793653e-05 1.2406532164235658e-05 3.4904733874907556e-06 3.2240251915921686e-05 7.0187040067733518e-06 -2.6590662287529669e-06 1.2469779021515199e-05 -1.0241401226176522e-05 -1.6755708980611508e-05 -4.5513109954497611e-06 -2.2739708594153426e-06 -2.1348512860642653e-05 -2.2026259455017877e-06 -1.4145692888295155e-05 -6.8553245868424855e-06 2.5408485238293395e-05 1.836723211160413e-05 1.3233743651289785e-05 2.0518184382836265e-05 4.4907207177824167e-05 5.0129741547332918e-05 7.2839868040413988e-05 0.00024212017417299885 -9.8867882364330812e-06 6.5901648087647003e-05 0.00022356742871512903 0.00011081643174910319 0.016627645763392956 0.00020103559781698668 8.0912792753766631e-05 0.042726809522669738 -1.2687383811142992e-05 7.0021542870894694e-05 0.060504583798767032 -2.5105824413065034e-07 3.50639417552956e-05 -1.1473576372086577e-05 8.0677605986559462e-06 2.5270007405122502e-06 -2.7288014970592515e-07 -7.6442199710348869e-06 1.9732652782565585e-05 1.8277932118486185e-05 2.8023742908746523e-06 3.1158077690983735e-05 5.9665349384350639e-05 6.8711152103860269e-05 0.076500170220875394 5.5186784970520479e-05 5.9205245520358167e-05 4.0380123780766469e-05 5.6306013032254854e-05 3.7263156228633111e-05 0.092171525595691778 5.9829468263601355e-05 6.1835279824565476e-06 -6.4884590603143076e-06 3.1842479783523536e-05 1.4351083803848855e-05 1.0428334412984218e-05 -1.5678697609267636e-05 -9.926061628918602e-06 -8.0567342580854231e-06 -2.2947897129027014e-05 -1.8875627444990561e-05 -2.6163124710704491e-05 -2.6651125045484695e-05 -2.5638665337525824e-05 -2.3128024532573516e-05 -1.9687243971758164e-05 -2.7264848907431155e-05 -1.7862800902294435e-05 -1.9253953154090486e-05 -2.0095634209216722e-05 -1.7206601188474678e-05 -1.1696138374020817e-05 -9.5976356516801978e-05 -9.8071807099790569e-05 -7.3257237418302215e-05 -0.00012811008311217802 -0.00013442646910580432 -0.00010078566713798951 -9.7899488180831296e-05 -7.1208979836853053e-05 -5.6611306235072921e-05 -3.0810459671504241e-05 -6.6206595564196995e-05 -4.6532522880526916e-05 -7.568605212001896e-05 -5.2093237369777768e-05 -4.2008569395283373e-06 -2.6676882990643493e-05 2.3463949213666261e-05 -2.4049661049300964e-05 -5.3074188801127253e-05 -4.3410045015907417e-06 -1.2534067284584939e-05 4.8983047975531806e-05 0.00010093456009606307 6.0874492233486651e-05 6.4650510596442595e-05 1.4268009422827108e-05 2.7621533152477054e-05 4.4866111104964815e-05 1.2322871949384083e-06 -6.1119437982323256e-06 2.3528962442976534e-05 1.7849883159355012e-05 2.6544322851231299e-05 5.8382053598118183e-06 -9.1422120821610386e-07 -7.391623849497056e-06 -2.0736540440995571e-05 -1.8360735736135895e-05 -2.3947035585052123e-05 -3.89530749331248e-05 -2.0456653696634226e-05 -1.4329451999350266e-05 -3.5962965477815811e-05 -3.5677177414224388e-05 -5.8507282192943669e-05 -5.1630168123640435e-05 -5.361257002777951e-05 -5.2218024357141013e-05 -3.4184768503527346e-05 -3.317487470299148e-05 -3.2822039397193033e-05 -5.1675065232015694e-05 -4.6750099421643578e-05 -5.209858625478906e-05 -3.6934724229724554e-05 -5.5201949497573179e-05 -7.7219394922980935e-05 -7.4458829888074179e-05 -6.9466678486030829e-05 -6.9140055674528117e-06 -2.5083120468053464e-05 -1.4559416243587267e-05 -1.2811676158340848e-05 -2.7291105696301571e-05 -3.3297374295059197e-05 -4.805014362632698e-05 -3.4140947897430031e-05 -3.3127860292864707e-05 -2.582448531859979e-05 -3.5428030282651062e-05 -2.5453065158894707e-05 -2.3018492772191625e-05 -2.4978441668430931e-05 -1.0802730567079782e-05 -1.357704888211176e-05 -1.0724992653122177e-05 -1.1047830760388573e-05 -2.133639510476645e-05 -2.6698178489051143e-05 -1.9902825591967214e-05 -2.535414128086956e-05 -1.2949544811572647e-05 -1.7239889132442641e-05 5.2522130881261066e-07 8.9854023024422101e-06 -9.5344278225059989e-06 2.7462980605754382e-06 3.6214989003600061e-05 6.8003076550936237e-06 2.300160428426231e-05 -2.3468757682524807e-06 1.1237080884448324e-05 2.2120471738122129e-05 2.1308897684922321e-05 2.148234515272359e-05 2.4581037602964227e-05 4.4799661231043758e-05 4.2108458876391648e-05 3.5414906538737629e-05 1.6922791284309721e-05 2.4171661575679571e-06 2.9911720104396772e-06 1.5398768560151953e-05 -7.5586029698853502e-06 2.2062553241466304e-06 -5.7746477806425514e-06 -7.2136959985134343e-06 -2.0864742705854929e-05 -1.8562301222773466e-05 -7.4668182090363577e-06 -5.2577410195181473e-06 -9.6039570891982146e-06 3.4033831512719076e-06 2.5961386235587089e-06 1.846604119286506e-06 -3.1745689302435133e-06 -3.3157773462223761e-06 3.010449175782845e-06 1.2921206694726378e-06 1.6107162851136669e-06 9.5314745583610465e-07 -2.233835343697782e-07 -6.3398813291929562e-06 -8.3696530910433095e-06 -1.7730695549705161e-05 3.0556019602503807e-06 -6.153327614619522e-06 -1.3370641106397529e-05 -2.7298070493520562e-05 -2.343966572318951e-05 -2.8793360684325228e-05 -2.9668267601403765e-05 -2.695748325709697e-05 -3.0038422670996645e-05 -2.1482918350924354e-05 -2.2689467668182608e-05 -2.0628996579570731e-05 -2.2680424041514107e-06 -1.1577827531532748e-05 1.9383627967561618e-05 4.966871044516022e-05 6.3022203255450211e-05 1.9334023894732684e-05 3.94247331596655e-05 6.9220992470603142e-05 5.2383164863711959e-05 0.10771766976246777 2.3499853896540458e-05 7.0562951641981939e-05 6.1654526556159314e-05 0.12331457117274432 6.431782915964062e-05 6.0559442816006913e-05 0.13849508557238005 5.3307325576889067e-05 2.9339649168800229e-05 7.3315865399091918e-05 1.7848935865639104e-05 2.632112393896656e-05 3.9607417168498749e-05 2.2633236712301546e-05 7.5094305045152925e-05 8.5442311317339285e-05 4.0053617713514634e-05 7.9374480143629828e-05 0.15337697784591175 8.8574329101894671e-05 7.4683449647501392e-05 7.6339124580478666e-05 7.2750549230730238e-05 0.16679720265815415 8.8696680140396347e-05 8.708212474405984e-05 2.249845113467294e-05 9.762562592296293e-05 9.1466177462359594e-05 8.4506360231482265e-05 2.3131291980858131e-05 -7.6266469697315294e-06 2.0661076492471588e-05 1.0252188683374386e-06 8.1763383368301348e-06 -1.3174733776851041e-05 -2.2591728023251033e-05 -3.0730455973579504e-06 -2.1638419278131784e-06 -3.1694371901319201e-05 -1.7588547423527676e-05 -2.3614436060057347e-05 -1.1427410314942881e-05 -1.8801082384899831e-05 -1.1092181985611132e-05 -1.1388746995843491e-05 -1.6378847548020534e-05 -1.3291576199215923e-05 -1.6304662011096737e-05 -1.9384132518565568e-05 -2.2620554933933329e-05 7.7566394064474771e-07 -8.8339638362362749e-06 -1.3704236858845596e-05 -1.6612072003944524e-06 -1.983276067568868e-05 -2.5161494201900918e-05 -6.891000619706935e-06 -1.1915161032162089e-05 -2.8649084282396549e-05 -1.4911822108553915e-05 -2.1268151643112632e-05 -3.0741871795347537e-05 -2.6991135482911104e-05 -3.1536787011530358e-05 -2.1823168598921741e-05 -2.389725530476592e-05 -2.7380277546513684e-05 -2.0592985888315913e-05 -1.8757739414716193e-05 -1.2247493440792736e-06 -1.6156514187557576e-05 -2.1647431868203055e-05 -2.4646123103745318e-05 -6.1763560669233993e-06 -2.353871927056534e-05 -2.8431804020517685e-05 -2.8499436818509179e-05 -2.6456829072002452e-05 -3.1320309423419441e-05 -2.9829133376318387e-05 2.6891934002049554e-05 0.05618661657615627 2.2137362459818217e-05 2.0659617917824133e-05 1.3675561067173997e-05 -1.2195664182885829e-05 -5.003514335064508e-06 -1.0370043318520534e-05 2.540532169314412e-05 1.1732332348903581e-05 1.0415429186336238e-05 1.1474711807280685e-06 3.9970243369365525e-05 4.2258752886667494e-05 2.5112832924491842e-05 2.0426078538697529e-05 0.075951724488748776 3.4134777644754481e-05 2.1008158099126333e-05 0.065964486803404124 3.6221831671115565e-05 0.086036660494018952 5.0957952105735527e-05 3.4636376310961252e-05 3.6765329414730971e-05 9.0062166669510786e-06 1.770337144773584e-05 4.7591627371593788e-05 1.8886686766132348e-05 4.3791968975152125e-06 5.4222629317547818e-05 5.1364694305570534e-05 4.2964726490056017e-05 5.6437455128240544e-06 3.6540325447730992e-05 0.094964260112662124 4.8698405325866417e-05 4.5382638362719083e-05 1.9938411937643011e-05 1.6375791349080704e-05 1.0599255412312852e-05 1.9616271085811862e-05 3.6093974277017632e-06 -3.0650576407736767e-06 3.8169222082561766e-07 6.3012302586193786e-06 -2.3443458995004926e-06 -7.9869352453427328e-06 -7.6609570371327478e-06 -1.1091387050345299e-05 4.2846705790129062e-06 6.839545845906906e-06 5.411314883245217e-06 6.6186652312094293e-07 9.8842452638100639e-07 7.5628853796350124e-07 1.8563012456323386e-06 -3.0454853302292612e-06 -3.147687632123336e-06 7.3733783746091769e-07 8.9168186833166438e-07 9.2940880555718848e-08 -9.1579367599149523e-06 -1.7021125007542388e-05 -1.4530850163459175e-05 -6.2833962639328479e-06 -4.1443378759253239e-06 -5.3261085913979141e-06 -6.426996412355751e-06 -3.9499615845208294e-07 -9.7338599358218203e-06 -5.570490478863134e-06 -1.0696305782264019e-05 -1.7507277792834302e-05 -2.0764477549788714e-05 -7.7548341958452206e-06 -1.4183611508771649e-05 -1.9044041114394403e-05 -2.5492858299876815e-05 -2.5971424274534843e-05 -1.6645418951511152e-05 -2.1061476084876119e-05 -1.9219793835153218e-05 -2.8682420890756202e-05 -1.9285450342528421e-05 -2.5038982905057922e-05 -1.8787793227274373e-05 -6.7764791930168683e-06 -5.981371814858371e-06 5.1422624804428434e-06 -9.4149614876569768e-07 -1.2297449015432563e-05 -1.1792861479695575e-05 -1.2260337474585652e-05 -1.4129104648006501e-05 -1.5648432271092453e-05 -1.7270029142554908e-05 -1.8218958142362997e-05 -8.7366983960771548e-06 -7.2065914118843617e-06 5.5902829592048738e-06 1.8146676500215789e-06 4.8517259565042728e-06 -6.2337323805726572e-06 1.4361819840501289e-07 -3.6128481169152987e-07 -1.1200662862233908e-05 -6.7451784444695455e-06 -1.4014939413493818e-05 -1.8994131560839522e-05 -2.4516281385001603e-05 -1.4063838100751049e-05 -1.8404333192753196e-05 -1.5826149993968818e-05 -2.4515513372230921e-05 -2.0699978972850159e-05 4.8582673767587001e-07 6.5830717509279e-06 3.9748441073282105e-06 -1.1825921843320133e-05 -4.5066951438962628e-06 -3.1090081355711775e-05 -4.5682560840288911e-05 -3.3965728426015853e-05 -3.5238110534918828e-05 -3.0250880677098416e-05 -2.8879729044947776e-05 -3.1064242938410192e-05 -2.4164226433270701e-05 -2.5996084882451897e-05 -2.8001978986430271e-05 -3.1507477209258283e-05 -2.7994972466721451e-05 -3.7877673133223589e-05 -3.6357227018339231e-05 -3.7628080300143975e-05 -3.2371336985035802e-05 -5.0399528813947509e-05 -4.6709297920234899e-05 -4.5875996565891567e-05 -7.1892340036732328e-05 -5.8284832780025955e-05 -5.7363708717114942e-05 -4.6662487004417758e-05 -4.8096278398321725e-05 -3.4745798443945163e-05 -3.1408240344258731e-05 -2.7288640844533784e-05 -4.475927127180028e-05 -4.052524515194781e-05 -5.0069423154577267e-05 -4.6963775653638938e-05 -5.8074837981796448e-05 -5.9478204002763645e-05 -7.4550159178458008e-05 -7.5202659331986485e-06 2.0212747293246952e-05 -7.7232094574532201e-06 -1.4862945907848774e-05 -2.5247291301598454e-05 -2.1060686479924709e-05 -8.0914311727929187e-06 -1.8847089850276637e-05 -3.9182653914307162e-05 -3.2382379104538902e-05 -1.892128136250185e-05 -8.7327759338672994e-07 1.0146724683180374e-06 2.3337693702284184e-05 6.6565921497501227e-05 -4.6511999540637164e-05 9.2702590100874911e-05 0.0092463137856867265 1.4136471521444978e-05 1.9686369372432422e-05 0.022891182461288635 4.1039497141524437e-05 0.031218273495301017 2.2127945030605135e-05 1.3952453646653463e-05 -2.9811430826029667e-05 -2.9795761252233988e-05 -2.2921227308559229e-05 -4.9103864560323473e-05 -1.7089042070464515e-05 -3.6669652563346591e-05 7.4041995094916628e-06 -1.6969285335477898e-05 -2.6619054416703345e-05 -8.6542877943796654e-06 -1.5034323837375087e-05 -1.0277936742910179e-05 1.2512209941128177e-06 -2.536500341191795e-06 -1.1302263670137591e-05 -1.647472090833069e-05 -1.7113572432710523e-05 -2.0726130904107694e-05 -2.5303733437377822e-05 -2.4574749041185847e-05 -2.2990942333727944e-05 -2.4109773903247715e-05 -2.581241189818375e-05 -2.5572085255865103e-05 -2.4755685211772633e-05 -1.9633468231764362e-05 -2.4819610600677693e-05 -2.0734955618784362e-05 -2.4559287387435687e-05 -2.6456786132299664e-05 -2.3301612705984601e-05 -2.9770998043195541e-05 -2.7363771345127231e-05 -2.6985418405364947e-05 -1.8872280079701285e-05 -2.3681388677832275e-05 -2.4018094785176886e-05 -2.5400072621843347e-05 -1.9748438357431288e-05 -1.3051818953481453e-05 -4.0954429037856079e-06 -1.2082956907179102e-05 -1.2625688052592056e-05 4.9383230696171867e-06 1.9604583353202438e-05 0.047256430455794543 8.4632843539384026e-06 1.8423357794416541e-05 1.8089222969525434e-05 2.0420489989626724e-05 -8.061295190428812e-06 0.039075848998530616 1.9509041116323473e-05 6.7318046143971912e-06 2.4492431830845369e-05 -1.9177981752109339e-05 -2.3002893250593685e-05 -2.2785522583392784e-05 -8.8957956974041537e-06 
</DataArray>
</CellData>
</Piece>
</UnstructuredGrid>
</VTKFile>
