<?xml version="1.0"?>
<VTKFile type="UnstructuredGrid" version="0.1" byte_order="LittleEndian">
<UnstructuredGrid>
<Piece NumberOfPoints="3142" NumberOfCells="1054">
<Points>
<DataArray type="Float64" NumberOfComponents="3" format="ascii">
0 0 0 0.049999999999899652 0 0 0.02576622439977887 0.024532886826226379 0 0 0 0 0.02576622439977887 0.024532886826226379 0 0 0.050000000000207989 0 0.049999999999899652 0 0 0.053064897599215843 0.048131547304697528 0 0.02576622439977887 0.024532886826226379 0 0 0.050000000000207989 0 0.02576622439977887 0.024532886826226379 0 0.053064897599215843 0.048131547304697528 0 0 0.10000000000041601 0 0 0.050000000000207989 0 0.044310582753132287 0.101412518374475 0 0 0.15000000000062411 0 0 0.10000000000041601 0 0.044310582753132287 0.101412518374475 0 0.083411279318303222 0.089699755330707398 0 0.044310582753132287 0.101412518374475 0 0.053064897599215843 0.048131547304697528 0 0 0.050000000000207989 0 0.053064897599215843 0.048131547304697528 0 0.044310582753132287 0.101412518374475 0 0.083411279318303222 0.089699755330707398 0 0.065374659239632718 0.1448908038746782 0 0.044310582753132287 0.101412518374475 0 0.083411279318303222 0.089699755330707398 0 0.1053400320299198 0.12877248826361379 0 0.065374659239632718 0.1448908038746782 0 0.083411279318303222 0.089699755330707398 0 0.12372429750337779 0.095814237875728972 0 0.1053400320299198 0.12877248826361379 0 0.14332333627550789 0.14578431753966009 0 0.1053400320299198 0.12877248826361379 0 0.12372429750337779 0.095814237875728972 0 0.14618258501891079 0.062070108745602003 0 0.12372429750337779 0.095814237875728972 0 0.10266856499169109 0.044518360900210059 0 0.083411279318303222 0.089699755330707398 0 0.10266856499169109 0.044518360900210059 0 0.12372429750337779 0.095814237875728972 0 0.099999999999814668 0 0 0.14999999999970359 0 0 0.10266856499169109 0.044518360900210059 0 0.049999999999899652 0 0 0.099999999999814668 0 0 0.053064897599215843 0.048131547304697528 0 0.099999999999814668 0 0 0.10266856499169109 0.044518360900210059 0 0.053064897599215843 0.048131547304697528 0 0.083411279318303222 0.089699755330707398 0 0.053064897599215843 0.048131547304697528 0 0.10266856499169109 0.044518360900210059 0 0 0.25000000000104028 0 0 0.20000000000083221 0 0.044081577119474857 0.2271058242433576 0 0 0.20000000000083221 0 0.038512288486115001 0.1844147282893184 0 0.044081577119474857 0.2271058242433576 0 0.083105206071467416 0.20007701332709979 0 0.044081577119474857 0.2271058242433576 0 0.038512288486115001 0.1844147282893184 0 0 0.15000000000062411 0 0.065374659239632718 0.1448908038746782 0 0.038512288486115001 0.1844147282893184 0 0 0.15000000000062411 0 0.044310582753132287 0.101412518374475 0 0.065374659239632718 0.1448908038746782 0 0.083105206071467416 0.20007701332709979 0 0.038512288486115001 0.1844147282893184 0 0.065374659239632718 0.1448908038746782 0 0 0.20000000000083221 0 0 0.15000000000062411 0 0.038512288486115001 0.1844147282893184 0 0.065374659239632718 0.1448908038746782 0 0.1053400320299198 0.12877248826361379 0 0.106902708054812 0.16453234188234539 0 0.14332333627550789 0.14578431753966009 0 0.106902708054812 0.16453234188234539 0 0.1053400320299198 0.12877248826361379 0 0.083105206071467416 0.20007701332709979 0 0.065374659239632718 0.1448908038746782 0 0.106902708054812 0.16453234188234539 0 0.083105206071467416 0.20007701332709979 0 0.13737030665753211 0.20313708640667491 0 0.095326043202144745 0.24554465089224409 0 0.083105206071467416 0.20007701332709979 0 0.106902708054812 0.16453234188234539 0 0.13737030665753211 0.20313708640667491 0 0.083105206071467416 0.20007701332709979 0 0.095326043202144745 0.24554465089224409 0 0.044081577119474857 0.2271058242433576 0 0.049706944316556423 0.27522722923869108 0 0.044081577119474857 0.2271058242433576 0 0.095326043202144745 0.24554465089224409 0 0.13737030665753211 0.20313708640667491 0 0.14377654328998779 0.2442024734791064 0 0.095326043202144745 0.24554465089224409 0 0.17933913398461551 0.2350063570234002 0 0.14377654328998779 0.2442024734791064 0 0.13737030665753211 0.20313708640667491 0 0.17933913398461551 0.2350063570234002 0 0.13737030665753211 0.20313708640667491 0 0.18124454140915969 0.18790916706335251 0 0.14332333627550789 0.14578431753966009 0 0.18652628422869419 0.14162325200928061 0 0.18124454140915969 0.18790916706335251 0 0.14332333627550789 0.14578431753966009 0 0.13737030665753211 0.20313708640667491 0 0.106902708054812 0.16453234188234539 0 0.14332333627550789 0.14578431753966009 0 0.18124454140915969 0.18790916706335251 0 0.13737030665753211 0.20313708640667491 0 0.14332333627550789 0.14578431753966009 0 0.16141998738593399 0.10404039647458049 0 0.18652628422869419 0.14162325200928061 0 0.2185883431182947 0.18019736283949719 0 0.18652628422869419 0.14162325200928061 0 0.22985637510995899 0.1298347970200906 0 0.2185883431182947 0.18019736283949719 0 0.22985637510995899 0.1298347970200906 0 0.25557216766470708 0.15874861286892261 0 0.2185883431182947 0.18019736283949719 0 0.25557216766470708 0.15874861286892261 0 0.26429849586623999 0.19346700179430079 0 0.2185883431182947 0.18019736283949719 0 0.18124454140915969 0.18790916706335251 0 0.18652628422869419 0.14162325200928061 0 0.17933913398461551 0.2350063570234002 0 0.18124454140915969 0.18790916706335251 0 0.224700362040408 0.22206622194729711 0 0.2185883431182947 0.18019736283949719 0 0.224700362040408 0.22206622194729711 0 0.18124454140915969 0.18790916706335251 0 0.2185883431182947 0.18019736283949719 0 0.26429849586623999 0.19346700179430079 0 0.224700362040408 0.22206622194729711 0 0.25195515620380449 0.25883339815888678 0 0.21049769590865089 0.26857363548218488 0 0.224700362040408 0.22206622194729711 0 0.17933913398461551 0.2350063570234002 0 0.224700362040408 0.22206622194729711 0 0.21049769590865089 0.26857363548218488 0 0.14999999999970359 0 0 0.184418230509967 0.038773194583122873 0 0.14618258501891079 0.062070108745602003 0 0.19922788606653311 0.085920220746880993 0 0.14618258501891079 0.062070108745602003 0 0.184418230509967 0.038773194583122873 0 0.14999999999970359 0 0 0.19999999999955789 0 0 0.184418230509967 0.038773194583122873 0 0.14999999999970359 0 0 0.14618258501891079 0.062070108745602003 0 0.10266856499169109 0.044518360900210059 0 0.14618258501891079 0.062070108745602003 0 0.16141998738593399 0.10404039647458049 0 0.12372429750337779 0.095814237875728972 0 0.14332333627550789 0.14578431753966009 0 0.12372429750337779 0.095814237875728972 0 0.16141998738593399 0.10404039647458049 0 0.19922788606653311 0.085920220746880993 0 0.18652628422869419 0.14162325200928061 0 0.16141998738593399 0.10404039647458049 0 0.19922788606653311 0.085920220746880993 0 0.16141998738593399 0.10404039647458049 0 0.14618258501891079 0.062070108745602003 0 0.19922788606653311 0.085920220746880993 0 0.22985637510995899 0.1298347970200906 0 0.18652628422869419 0.14162325200928061 0 0.19922788606653311 0.085920220746880993 0 0.24218496799700481 0.089025544070598317 0 0.22985637510995899 0.1298347970200906 0 0.27474541102162192 0.11822029332053539 0 0.22985637510995899 0.1298347970200906 0 0.24218496799700481 0.089025544070598317 0 0.19922788606653311 0.085920220746880993 0 0.22668068146512929 0.045875643423131329 0 0.24218496799700481 0.089025544070598317 0 0.27499999999933927 0.060310814194988557 0 0.24218496799700481 0.089025544070598317 0 0.22668068146512929 0.045875643423131329 0 0.19922788606653311 0.085920220746880993 0 0.184418230509967 0.038773194583122873 0 0.22668068146512929 0.045875643423131329 0 0.19999999999955789 0 0 0.22668068146512929 0.045875643423131329 0 0.184418230509967 0.038773194583122873 0 0.19999999999955789 0 0 0.24999999999941211 0 0 0.22668068146512929 0.045875643423131329 0 0.24999999999941211 0 0 0.29999999999926641 0 0 0.27499999999933927 0.060310814194988557 0 0.24999999999941211 0 0 0.27499999999933927 0.060310814194988557 0 0.22668068146512929 0.045875643423131329 0 0.29999999999926641 0 0 0.32541448401678508 0.046215317981507749 0 0.27499999999933927 0.060310814194988557 0 0.29999999999926641 0 0 0.34999999999912063 0 0 0.32541448401678508 0.046215317981507749 0 0.35312867752657662 0.084946736076730367 0 0.32541448401678508 0.046215317981507749 0 0.3615861437013822 0.03582617922508851 0 0.35312867752657662 0.084946736076730367 0 0.3615861437013822 0.03582617922508851 0 0.39591832466117061 0.056982757562006353 0 0.34999999999912063 0 0 0.3615861437013822 0.03582617922508851 0 0.32541448401678508 0.046215317981507749 0 0.34999999999912063 0 0 0.3999999999989749 0 0 0.3615861437013822 0.03582617922508851 0 0.35312867752657662 0.084946736076730367 0 0.39823268594401579 0.1116623613130045 0 0.36246644853392812 0.1399454205365751 0 0.35312867752657662 0.084946736076730367 0 0.36246644853392812 0.1399454205365751 0 0.32215584939770009 0.1218492143506909 0 0.35312867752657662 0.084946736076730367 0 0.3096713403101819 0.085471541595262421 0 0.32541448401678508 0.046215317981507749 0 0.35312867752657662 0.084946736076730367 0 0.32215584939770009 0.1218492143506909 0 0.3096713403101819 0.085471541595262421 0 0.27474541102162192 0.11822029332053539 0 0.3096713403101819 0.085471541595262421 0 0.32215584939770009 0.1218492143506909 0 0.27499999999933927 0.060310814194988557 0 0.32541448401678508 0.046215317981507749 0 0.3096713403101819 0.085471541595262421 0 0.3096713403101819 0.085471541595262421 0 0.27474541102162192 0.11822029332053539 0 0.27499999999933927 0.060310814194988557 0 0.27499999999933927 0.060310814194988557 0 0.27474541102162192 0.11822029332053539 0 0.24218496799700481 0.089025544070598317 0 0.27474541102162192 0.11822029332053539 0 0.25557216766470708 0.15874861286892261 0 0.22985637510995899 0.1298347970200906 0 0.27474541102162192 0.11822029332053539 0 0.29336099386129338 0.15892013001050981 0 0.25557216766470708 0.15874861286892261 0 0.26429849586623999 0.19346700179430079 0 0.25557216766470708 0.15874861286892261 0 0.29336099386129338 0.15892013001050981 0 0.33084213324567391 0.16272720141332131 0 0.31255190597181792 0.19850845631528771 0 0.29336099386129338 0.15892013001050981 0 0.26429849586623999 0.19346700179430079 0 0.29336099386129338 0.15892013001050981 0 0.31255190597181792 0.19850845631528771 0 0.27474541102162192 0.11822029332053539 0 0.32215584939770009 0.1218492143506909 0 0.29336099386129338 0.15892013001050981 0 0.28040350263641872 0.23054717217092141 0 0.25195515620380449 0.25883339815888678 0 0.224700362040408 0.22206622194729711 0 0.26429849586623999 0.19346700179430079 0 0.28040350263641872 0.23054717217092141 0 0.224700362040408 0.22206622194729711 0 0.26429849586623999 0.19346700179430079 0 0.31255190597181792 0.19850845631528771 0 0.28040350263641872 0.23054717217092141 0 0.33758650185219202 0.23837101504325639 0 0.29132859388405002 0.27203693976649962 0 0.28040350263641872 0.23054717217092141 0 0.33758650185219202 0.23837101504325639 0 0.28040350263641872 0.23054717217092141 0 0.31255190597181792 0.19850845631528771 0 0.33758650185219202 0.23837101504325639 0 0.31255190597181792 0.19850845631528771 0 0.3572130504031617 0.1874703368446563 0 0.33758650185219202 0.23837101504325639 0 0.3572130504031617 0.1874703368446563 0 0.38831533174504851 0.2189834941785925 0 0.33758650185219202 0.23837101504325639 0 0.38831533174504851 0.2189834941785925 0 0.3786248352540974 0.27082301512024259 0 0.33084213324567391 0.16272720141332131 0 0.29336099386129338 0.15892013001050981 0 0.32215584939770009 0.1218492143506909 0 0.33084213324567391 0.16272720141332131 0 0.32215584939770009 0.1218492143506909 0 0.36246644853392812 0.1399454205365751 0 0.33084213324567391 0.16272720141332131 0 0.3572130504031617 0.1874703368446563 0 0.31255190597181792 0.19850845631528771 0 0.39801143831225599 0.16651381068160659 0 0.3572130504031617 0.1874703368446563 0 0.36246644853392812 0.1399454205365751 0 0.33084213324567391 0.16272720141332131 0 0.36246644853392812 0.1399454205365751 0 0.3572130504031617 0.1874703368446563 0 0.39801143831225599 0.16651381068160659 0 0.36246644853392812 0.1399454205365751 0 0.39823268594401579 0.1116623613130045 0 0.39801143831225599 0.16651381068160659 0 0.44288491854585582 0.14116182884956319 0 0.42905200079338551 0.19982395548231649 0 0.39801143831225599 0.16651381068160659 0 0.39823268594401579 0.1116623613130045 0 0.44288491854585582 0.14116182884956319 0 0.42377727103934271 0.25099357235810238 0 0.3786248352540974 0.27082301512024259 0 0.38831533174504851 0.2189834941785925 0 0.39801143831225599 0.16651381068160659 0 0.38831533174504851 0.2189834941785925 0 0.3572130504031617 0.1874703368446563 0 0.39801143831225599 0.16651381068160659 0 0.42905200079338551 0.19982395548231649 0 0.38831533174504851 0.2189834941785925 0 0.42377727103934271 0.25099357235810238 0 0.38831533174504851 0.2189834941785925 0 0.42905200079338551 0.19982395548231649 0 0.42377727103934271 0.25099357235810238 0 0.42905200079338551 0.19982395548231649 0 0.46429753744194407 0.22870891180733599 0 0.47357141910802508 0.1873585799078378 0 0.46429753744194407 0.22870891180733599 0 0.42905200079338551 0.19982395548231649 0 0.47357141910802508 0.1873585799078378 0 0.51729576145820033 0.1683240575987815 0 0.50760557329222289 0.20700468884612061 0 0.47357141910802508 0.1873585799078378 0 0.50760557329222289 0.20700468884612061 0 0.46429753744194407 0.22870891180733599 0 0.49695729691142171 0.25014895411178018 0 0.46429753744194407 0.22870891180733599 0 0.50760557329222289 0.20700468884612061 0 0.47357141910802508 0.1873585799078378 0 0.44288491854585582 0.14116182884956319 0 0.48466639505193998 0.1421439844745814 0 0.47357141910802508 0.1873585799078378 0 0.42905200079338551 0.19982395548231649 0 0.44288491854585582 0.14116182884956319 0 0.47357141910802508 0.1873585799078378 0 0.48466639505193998 0.1421439844745814 0 0.51729576145820033 0.1683240575987815 0 0.44288491854585582 0.14116182884956319 0 0.47881186583059909 0.093591717165689425 0 0.48466639505193998 0.1421439844745814 0 0.51076801031701946 0.1202837388510348 0 0.48466639505193998 0.1421439844745814 0 0.47881186583059909 0.093591717165689425 0 0.43698630808430822 0.080423614171545449 0 0.47881186583059909 0.093591717165689425 0 0.44288491854585582 0.14116182884956319 0 0.43698630808430822 0.080423614171545449 0 0.47040171442036788 0.044141676406503738 0 0.47881186583059909 0.093591717165689425 0 0.52375890611712683 0.059318771819432882 0 0.47881186583059909 0.093591717165689425 0 0.47040171442036788 0.044141676406503738 0 0.49999999999869432 0 0 0.52375890611712683 0.059318771819432882 0 0.47040171442036788 0.044141676406503738 0 0.44999999999882923 0 0 0.49999999999869432 0 0 0.47040171442036788 0.044141676406503738 0 0.44999999999882923 0 0 0.47040171442036788 0.044141676406503738 0 0.4320097814748517 0.037406712692169303 0 0.43698630808430822 0.080423614171545449 0 0.4320097814748517 0.037406712692169303 0 0.47040171442036788 0.044141676406503738 0 0.3999999999989749 0 0 0.4320097814748517 0.037406712692169303 0 0.39591832466117061 0.056982757562006353 0 0.43698630808430822 0.080423614171545449 0 0.39591832466117061 0.056982757562006353 0 0.4320097814748517 0.037406712692169303 0 0.3999999999989749 0 0 0.44999999999882923 0 0 0.4320097814748517 0.037406712692169303 0 0.3999999999989749 0 0 0.39591832466117061 0.056982757562006353 0 0.3615861437013822 0.03582617922508851 0 0.35312867752657662 0.084946736076730367 0 0.39591832466117061 0.056982757562006353 0 0.39823268594401579 0.1116623613130045 0 0.43698630808430822 0.080423614171545449 0 0.44288491854585582 0.14116182884956319 0 0.39823268594401579 0.1116623613130045 0 0.43698630808430822 0.080423614171545449 0 0.39823268594401579 0.1116623613130045 0 0.39591832466117061 0.056982757562006353 0 0.43249999999999988 0.43937499999999979 0 0.38707855792647411 0.42299362914874578 0 0.42161023666869668 0.39493916313643851 0 0.38083244760691543 0.38531983672244652 0 0.42161023666869668 0.39493916313643851 0 0.38707855792647411 0.42299362914874578 0 0.38083244760691543 0.38531983672244652 0 0.40076539126862748 0.34589349467022118 0 0.42161023666869668 0.39493916313643851 0 0.43249999999999988 0.43937499999999979 0 0.3908716102680424 0.47010282357248828 0 0.38707855792647411 0.42299362914874578 0 0.38244435121258652 0.51653317813019495 0 0.3908716102680424 0.47010282357248828 0 0.43507373378304309 0.49699695397193322 0 0.43249999999999988 0.43937499999999979 0 0.43507373378304309 0.49699695397193322 0 0.3908716102680424 0.47010282357248828 0 0.43249999999999988 0.43937499999999979 0 0.46111841286828259 0.46690301029591341 0 0.43507373378304309 0.49699695397193322 0 0.43249999999999988 0.43937499999999979 0 0.48858720058566618 0.43964267759203868 0 0.46111841286828259 0.46690301029591341 0 0.49102375406324739 0.49123754822244059 0 0.43507373378304309 0.49699695397193322 0 0.46111841286828259 0.46690301029591341 0 0.49102375406324739 0.49123754822244059 0 0.46111841286828259 0.46690301029591341 0 0.48858720058566618 0.43964267759203868 0 0.52289427570932567 0.3932284363388488 0 0.48858720058566618 0.43964267759203868 0 0.46655310992796922 0.39650496622958609 0 0.43249999999999988 0.43937499999999979 0 0.46655310992796922 0.39650496622958609 0 0.48858720058566618 0.43964267759203868 0 0.43249999999999988 0.43937499999999979 0 0.42161023666869668 0.39493916313643851 0 0.46655310992796922 0.39650496622958609 0 0.4409427642593301 0.35743108089689513 0 0.46655310992796922 0.39650496622958609 0 0.42161023666869668 0.39493916313643851 0 0.52289427570932567 0.3932284363388488 0 0.46655310992796922 0.39650496622958609 0 0.49077833859261139 0.35229981449445641 0 0.5 0.29999999999999999 0 0.49077833859261139 0.35229981449445641 0 0.46226845272279993 0.31901800744800313 0 0.4409427642593301 0.35743108089689513 0 0.46226845272279993 0.31901800744800313 0 0.49077833859261139 0.35229981449445641 0 0.4409427642593301 0.35743108089689513 0 0.41914690343363781 0.30688979866601612 0 0.46226845272279993 0.31901800744800313 0 0.4409427642593301 0.35743108089689513 0 0.49077833859261139 0.35229981449445641 0 0.46655310992796922 0.39650496622958609 0 0.5 0.29999999999999999 0 0.4604742573284204 0.27846934318264788 0 0.49695729691142171 0.25014895411178018 0 0.49695729691142171 0.25014895411178018 0 0.4604742573284204 0.27846934318264788 0 0.46429753744194407 0.22870891180733599 0 0.5 0.29999999999999999 0 0.46226845272279993 0.31901800744800313 0 0.4604742573284204 0.27846934318264788 0 0.41914690343363781 0.30688979866601612 0 0.4604742573284204 0.27846934318264788 0 0.46226845272279993 0.31901800744800313 0 0.42377727103934271 0.25099357235810238 0 0.46429753744194407 0.22870891180733599 0 0.4604742573284204 0.27846934318264788 0 0.42377727103934271 0.25099357235810238 0 0.4604742573284204 0.27846934318264788 0 0.41914690343363781 0.30688979866601612 0 0.42377727103934271 0.25099357235810238 0 0.41914690343363781 0.30688979866601612 0 0.3786248352540974 0.27082301512024259 0 0.36575549820117997 0.31677992835137742 0 0.3786248352540974 0.27082301512024259 0 0.41914690343363781 0.30688979866601612 0 0.4409427642593301 0.35743108089689513 0 0.42161023666869668 0.39493916313643851 0 0.40076539126862748 0.34589349467022118 0 0.4409427642593301 0.35743108089689513 0 0.40076539126862748 0.34589349467022118 0 0.41914690343363781 0.30688979866601612 0 0.36575549820117997 0.31677992835137742 0 0.41914690343363781 0.30688979866601612 0 0.40076539126862748 0.34589349467022118 0 0.40076539126862748 0.34589349467022118 0 0.33277555741076909 0.36432196682010132 0 0.36575549820117997 0.31677992835137742 0 0.38083244760691543 0.38531983672244652 0 0.33277555741076909 0.36432196682010132 0 0.40076539126862748 0.34589349467022118 0 0.36575549820117997 0.31677992835137742 0 0.33277555741076909 0.36432196682010132 0 0.32752639306529541 0.32610012995269699 0 0.33277555741076909 0.36432196682010132 0 0.29644548887253103 0.34914008784168082 0 0.32752639306529541 0.32610012995269699 0 0.33758650185219202 0.23837101504325639 0 0.3786248352540974 0.27082301512024259 0 0.33402499257867951 0.28911035184473982 0 0.36575549820117997 0.31677992835137742 0 0.33402499257867951 0.28911035184473982 0 0.3786248352540974 0.27082301512024259 0 0.36575549820117997 0.31677992835137742 0 0.32752639306529541 0.32610012995269699 0 0.33402499257867951 0.28911035184473982 0 0.29348325746214782 0.31350119524708198 0 0.33402499257867951 0.28911035184473982 0 0.32752639306529541 0.32610012995269699 0 0.33758650185219202 0.23837101504325639 0 0.33402499257867951 0.28911035184473982 0 0.29132859388405002 0.27203693976649962 0 0.29348325746214782 0.31350119524708198 0 0.29132859388405002 0.27203693976649962 0 0.33402499257867951 0.28911035184473982 0 0.29348325746214782 0.31350119524708198 0 0.24432083401701241 0.3006253385567515 0 0.29132859388405002 0.27203693976649962 0 0.25195515620380449 0.25883339815888678 0 0.29132859388405002 0.27203693976649962 0 0.24432083401701241 0.3006253385567515 0 0.25195515620380449 0.25883339815888678 0 0.28040350263641872 0.23054717217092141 0 0.29132859388405002 0.27203693976649962 0 0.27866744612395528 0.38416094670951489 0 0.29644548887253103 0.34914008784168082 0 0.33277555741076909 0.36432196682010132 0 0.29348325746214782 0.31350119524708198 0 0.32752639306529541 0.32610012995269699 0 0.29644548887253103 0.34914008784168082 0 0.29348325746214782 0.31350119524708198 0 0.29644548887253103 0.34914008784168082 0 0.25966125648670141 0.34351016742083729 0 0.29348325746214782 0.31350119524708198 0 0.25966125648670141 0.34351016742083729 0 0.24432083401701241 0.3006253385567515 0 0.27866744612395528 0.38416094670951489 0 0.25966125648670141 0.34351016742083729 0 0.29644548887253103 0.34914008784168082 0 0.27866744612395528 0.38416094670951489 0 0.22033343844674469 0.36963382230740238 0 0.25966125648670141 0.34351016742083729 0 0.27866744612395528 0.38416094670951489 0 0.29124338931648802 0.43334555462578611 0 0.24049127783545701 0.41270748208749802 0 0.29124338931648802 0.43334555462578611 0 0.25982634974572738 0.46097799597715272 0 0.24049127783545701 0.41270748208749802 0 0.27866744612395528 0.38416094670951489 0 0.31778888742534622 0.40581751814196781 0 0.29124338931648802 0.43334555462578611 0 0.27866744612395528 0.38416094670951489 0 0.33277555741076909 0.36432196682010132 0 0.31778888742534622 0.40581751814196781 0 0.33277555741076909 0.36432196682010132 0 0.35221190152536241 0.40457127605439203 0 0.31778888742534622 0.40581751814196781 0 0.34258405725730701 0.4444034294386992 0 0.31778888742534622 0.40581751814196781 0 0.35221190152536241 0.40457127605439203 0 0.34258405725730701 0.4444034294386992 0 0.29124338931648802 0.43334555462578611 0 0.31778888742534622 0.40581751814196781 0 0.34258405725730701 0.4444034294386992 0 0.35221190152536241 0.40457127605439203 0 0.38707855792647411 0.42299362914874578 0 0.38083244760691543 0.38531983672244652 0 0.38707855792647411 0.42299362914874578 0 0.35221190152536241 0.40457127605439203 0 0.38083244760691543 0.38531983672244652 0 0.35221190152536241 0.40457127605439203 0 0.33277555741076909 0.36432196682010132 0 0.38244435121258652 0.51653317813019495 0 0.35024835142131061 0.48654922671676981 0 0.3908716102680424 0.47010282357248828 0 0.34258405725730701 0.4444034294386992 0 0.3908716102680424 0.47010282357248828 0 0.35024835142131061 0.48654922671676981 0 0.34258405725730701 0.4444034294386992 0 0.38707855792647411 0.42299362914874578 0 0.3908716102680424 0.47010282357248828 0 0.34258405725730701 0.4444034294386992 0 0.31068898841644388 0.47541502461811092 0 0.29124338931648802 0.43334555462578611 0 0.35024835142131061 0.48654922671676981 0 0.33190227185843768 0.52715113583864037 0 0.31068898841644388 0.47541502461811092 0 0.34258405725730701 0.4444034294386992 0 0.35024835142131061 0.48654922671676981 0 0.31068898841644388 0.47541502461811092 0 0.28307294598219601 0.50789252727458634 0 0.25982634974572738 0.46097799597715272 0 0.31068898841644388 0.47541502461811092 0 0.29124338931648802 0.43334555462578611 0 0.31068898841644388 0.47541502461811092 0 0.25982634974572738 0.46097799597715272 0 0.28307294598219601 0.50789252727458634 0 0.23975172658309729 0.49475499200540818 0 0.25982634974572738 0.46097799597715272 0 0.22278230690790279 0.44824268025881547 0 0.23975172658309729 0.49475499200540818 0 0.19604738184454831 0.47787523520405789 0 0.22278230690790279 0.44824268025881547 0 0.19604738184454831 0.47787523520405789 0 0.191953871957803 0.42546416763755879 0 0.22278230690790279 0.44824268025881547 0 0.24049127783545701 0.41270748208749802 0 0.25982634974572738 0.46097799597715272 0 0.22278230690790279 0.44824268025881547 0 0.25982634974572738 0.46097799597715272 0 0.23975172658309729 0.49475499200540818 0 0.27866744612395528 0.38416094670951489 0 0.24049127783545701 0.41270748208749802 0 0.22033343844674469 0.36963382230740238 0 0.1650278706801647 0.38791388161335733 0 0.22033343844674469 0.36963382230740238 0 0.191953871957803 0.42546416763755879 0 0.22033343844674469 0.36963382230740238 0 0.24049127783545701 0.41270748208749802 0 0.191953871957803 0.42546416763755879 0 0.22278230690790279 0.44824268025881547 0 0.191953871957803 0.42546416763755879 0 0.24049127783545701 0.41270748208749802 0 0.15801167086041079 0.46008690540259539 0 0.13773355295499351 0.42497777642586831 0 0.191953871957803 0.42546416763755879 0 0.1650278706801647 0.38791388161335733 0 0.191953871957803 0.42546416763755879 0 0.13773355295499351 0.42497777642586831 0 0.1650278706801647 0.38791388161335733 0 0.13773355295499351 0.42497777642586831 0 0.1117088112799664 0.38831403004970022 0 0.15801167086041079 0.46008690540259539 0 0.113541300460994 0.46208784312094731 0 0.13773355295499351 0.42497777642586831 0 0.1216098864341134 0.50637075089503902 0 0.113541300460994 0.46208784312094731 0 0.15801167086041079 0.46008690540259539 0 0.1216098864341134 0.50637075089503902 0 0.15801167086041079 0.46008690540259539 0 0.16618607197337229 0.50652878253548905 0 0.15801167086041079 0.46008690540259539 0 0.19604738184454831 0.47787523520405789 0 0.16618607197337229 0.50652878253548905 0 0.15801167086041079 0.46008690540259539 0 0.191953871957803 0.42546416763755879 0 0.19604738184454831 0.47787523520405789 0 0.25195515620380449 0.25883339815888678 0 0.24432083401701241 0.3006253385567515 0 0.21049769590865089 0.26857363548218488 0 0.19670163708476801 0.31472518408333222 0 0.21049769590865089 0.26857363548218488 0 0.24432083401701241 0.3006253385567515 0 0.19670163708476801 0.31472518408333222 0 0.168349569971391 0.28054490850913671 0 0.21049769590865089 0.26857363548218488 0 0.19670163708476801 0.31472518408333222 0 0.22615676742807109 0.33458786033114157 0 0.18434624290945251 0.35208838264196463 0 0.19670163708476801 0.31472518408333222 0 0.24432083401701241 0.3006253385567515 0 0.22615676742807109 0.33458786033114157 0 0.24432083401701241 0.3006253385567515 0 0.25966125648670141 0.34351016742083729 0 0.22615676742807109 0.33458786033114157 0 0.22033343844674469 0.36963382230740238 0 0.22615676742807109 0.33458786033114157 0 0.25966125648670141 0.34351016742083729 0 0.22033343844674469 0.36963382230740238 0 0.18434624290945251 0.35208838264196463 0 0.22615676742807109 0.33458786033114157 0 0.1650278706801647 0.38791388161335733 0 0.18434624290945251 0.35208838264196463 0 0.22033343844674469 0.36963382230740238 0 0.1650278706801647 0.38791388161335733 0 0.14223753364722069 0.3341983344262433 0 0.18434624290945251 0.35208838264196463 0 0.1650278706801647 0.38791388161335733 0 0.1117088112799664 0.38831403004970022 0 0.14223753364722069 0.3341983344262433 0 0.19670163708476801 0.31472518408333222 0 0.18434624290945251 0.35208838264196463 0 0.14223753364722069 0.3341983344262433 0 0.19670163708476801 0.31472518408333222 0 0.14223753364722069 0.3341983344262433 0 0.168349569971391 0.28054490850913671 0 0.1247745017231483 0.27198077544791172 0 0.168349569971391 0.28054490850913671 0 0.14223753364722069 0.3341983344262433 0 0.1247745017231483 0.27198077544791172 0 0.14377654328998779 0.2442024734791064 0 0.168349569971391 0.28054490850913671 0 0.17933913398461551 0.2350063570234002 0 0.21049769590865089 0.26857363548218488 0 0.168349569971391 0.28054490850913671 0 0.17933913398461551 0.2350063570234002 0 0.168349569971391 0.28054490850913671 0 0.14377654328998779 0.2442024734791064 0 0.049706944316556423 0.27522722923869108 0 0.095326043202144745 0.24554465089224409 0 0.093851963071650835 0.30582068233324772 0 0.1247745017231483 0.27198077544791172 0 0.095326043202144745 0.24554465089224409 0 0.14377654328998779 0.2442024734791064 0 0.1247745017231483 0.27198077544791172 0 0.093851963071650835 0.30582068233324772 0 0.095326043202144745 0.24554465089224409 0 0.1247745017231483 0.27198077544791172 0 0.14223753364722069 0.3341983344262433 0 0.093851963071650835 0.30582068233324772 0 0.049706944316556423 0.27522722923869108 0 0.093851963071650835 0.30582068233324772 0 0.046389130980076937 0.32668781832131749 0 0.087545339447545459 0.35122518864182262 0 0.046389130980076937 0.32668781832131749 0 0.093851963071650835 0.30582068233324772 0 0.087545339447545459 0.35122518864182262 0 0.093851963071650835 0.30582068233324772 0 0.14223753364722069 0.3341983344262433 0 0.087545339447545459 0.35122518864182262 0 0.14223753364722069 0.3341983344262433 0 0.1117088112799664 0.38831403004970022 0 0.087545339447545459 0.35122518864182262 0 0.1117088112799664 0.38831403004970022 0 0.050583896093752537 0.38543522283434112 0 0.087545339447545459 0.35122518864182262 0 0.050583896093752537 0.38543522283434112 0 0.046389130980076937 0.32668781832131749 0 0 0.35000000000145642 0 0.046389130980076937 0.32668781832131749 0 0.050583896093752537 0.38543522283434112 0 0 0.35000000000145642 0 0 0.30000000000124832 0 0.046389130980076937 0.32668781832131749 0 0 0.30000000000124832 0 0.049706944316556423 0.27522722923869108 0 0.046389130980076937 0.32668781832131749 0 0 0.30000000000124832 0 0 0.25000000000104028 0 0.049706944316556423 0.27522722923869108 0 0 0.25000000000104028 0 0.044081577119474857 0.2271058242433576 0 0.049706944316556423 0.27522722923869108 0 0.078358742472063481 0.43365249433908948 0 0.113541300460994 0.46208784312094731 0 0.068743045408989428 0.48853989837882689 0 0.1216098864341134 0.50637075089503902 0 0.068743045408989428 0.48853989837882689 0 0.113541300460994 0.46208784312094731 0 0.113541300460994 0.46208784312094731 0 0.078358742472063481 0.43365249433908948 0 0.13773355295499351 0.42497777642586831 0 0.078358742472063481 0.43365249433908948 0 0.1117088112799664 0.38831403004970022 0 0.13773355295499351 0.42497777642586831 0 0.078358742472063481 0.43365249433908948 0 0.050583896093752537 0.38543522283434112 0 0.1117088112799664 0.38831403004970022 0 0.078358742472063481 0.43365249433908948 0 0.035463093262830522 0.42673416072819947 0 0.050583896093752537 0.38543522283434112 0 0 0.40000000000166441 0 0 0.35000000000145642 0 0.050583896093752537 0.38543522283434112 0 0 0.40000000000166441 0 0.050583896093752537 0.38543522283434112 0 0.035463093262830522 0.42673416072819947 0 0 0.45000000000187229 0 0 0.40000000000166441 0 0.035463093262830522 0.42673416072819947 0 0 0.45000000000187229 0 0.035463093262830522 0.42673416072819947 0 0.033550201249889847 0.46247875832467239 0 0 0.50000000000205869 0 0.033550201249889847 0.46247875832467239 0 0.068743045408989428 0.48853989837882689 0 0.078358742472063481 0.43365249433908948 0 0.068743045408989428 0.48853989837882689 0 0.033550201249889847 0.46247875832467239 0 0.078358742472063481 0.43365249433908948 0 0.033550201249889847 0.46247875832467239 0 0.035463093262830522 0.42673416072819947 0 0 0.50000000000205869 0 0 0.45000000000187229 0 0.033550201249889847 0.46247875832467239 0 0 0.50000000000205869 0 0.068743045408989428 0.48853989837882689 0 0.044576108720083309 0.53509043209532614 0 0 0.55000000000173355 0 0 0.50000000000205869 0 0.044576108720083309 0.53509043209532614 0 0 0.55000000000173355 0 0.044576108720083309 0.53509043209532614 0 0.034381862692950467 0.57372682250960894 0 0.077693244765132896 0.56932317963405099 0 0.034381862692950467 0.57372682250960894 0 0.044576108720083309 0.53509043209532614 0 0.068743045408989428 0.48853989837882689 0 0.085622222639554768 0.53333248912060549 0 0.044576108720083309 0.53509043209532614 0 0.1216098864341134 0.50637075089503902 0 0.085622222639554768 0.53333248912060549 0 0.068743045408989428 0.48853989837882689 0 0.077693244765132896 0.56932317963405099 0 0.044576108720083309 0.53509043209532614 0 0.085622222639554768 0.53333248912060549 0 0.077693244765132896 0.56932317963405099 0 0.085622222639554768 0.53333248912060549 0 0.1154888278694548 0.56733818459978413 0 0.085622222639554768 0.53333248912060549 0 0.1216098864341134 0.50637075089503902 0 0.1154888278694548 0.56733818459978413 0 0.077693244765132896 0.56932317963405099 0 0.1154888278694548 0.56733818459978413 0 0.1024350934457823 0.60772393977513839 0 0.086179601630648681 0.64647209519980475 0 0.050069554451969707 0.61308520079857043 0 0.1024350934457823 0.60772393977513839 0 0.077693244765132896 0.56932317963405099 0 0.1024350934457823 0.60772393977513839 0 0.050069554451969707 0.61308520079857043 0 0.077693244765132896 0.56932317963405099 0 0.050069554451969707 0.61308520079857043 0 0.034381862692950467 0.57372682250960894 0 0 0.60000000000138687 0 0 0.55000000000173355 0 0.034381862692950467 0.57372682250960894 0 0 0.65000000000104008 0 0 0.60000000000138687 0 0.050069554451969707 0.61308520079857043 0 0 0.60000000000138687 0 0.034381862692950467 0.57372682250960894 0 0.050069554451969707 0.61308520079857043 0 0 0.7000000000006934 0 0 0.65000000000104008 0 0.046634677244967337 0.671418230738282 0 0.086179601630648681 0.64647209519980475 0 0.046634677244967337 0.671418230738282 0 0.050069554451969707 0.61308520079857043 0 0 0.65000000000104008 0 0.050069554451969707 0.61308520079857043 0 0.046634677244967337 0.671418230738282 0 0 0.75000000000034661 0 0 0.7000000000006934 0 0.049706944316475897 0.72477277076253799 0 0 0.7000000000006934 0 0.046634677244967337 0.671418230738282 0 0.049706944316475897 0.72477277076253799 0 0 0.75000000000034661 0 0.049706944316475897 0.72477277076253799 0 0.04408157711937423 0.7728941757575627 0 0.049706944316475897 0.72477277076253799 0 0.1020579365089687 0.69352219419301997 0 0.090953281884486245 0.7564451946902494 0 0.1215415378367805 0.72939333680004137 0 0.090953281884486245 0.7564451946902494 0 0.1020579365089687 0.69352219419301997 0 0.049706944316475897 0.72477277076253799 0 0.046634677244967337 0.671418230738282 0 0.1020579365089687 0.69352219419301997 0 0.1215415378367805 0.72939333680004137 0 0.14335651144331049 0.75565258250209677 0 0.090953281884486245 0.7564451946902494 0 0.086179601630648681 0.64647209519980475 0 0.1020579365089687 0.69352219419301997 0 0.046634677244967337 0.671418230738282 0 0.086179601630648681 0.64647209519980475 0 0.1241190223511371 0.64391885572885044 0 0.1020579365089687 0.69352219419301997 0 0.086179601630648681 0.64647209519980475 0 0.1024350934457823 0.60772393977513839 0 0.1241190223511371 0.64391885572885044 0 0.16500388252850301 0.66612077714085194 0 0.1020579365089687 0.69352219419301997 0 0.1241190223511371 0.64391885572885044 0 0.15720202157091859 0.60665697304410315 0 0.16500388252850301 0.66612077714085194 0 0.1241190223511371 0.64391885572885044 0 0.15720202157091859 0.60665697304410315 0 0.19914261668318661 0.62286739485272158 0 0.16500388252850301 0.66612077714085194 0 0.16500388252850301 0.66612077714085194 0 0.15332765547575641 0.71200081858233666 0 0.1020579365089687 0.69352219419301997 0 0.1215415378367805 0.72939333680004137 0 0.15332765547575641 0.71200081858233666 0 0.14335651144331049 0.75565258250209677 0 0.1215415378367805 0.72939333680004137 0 0.1020579365089687 0.69352219419301997 0 0.15332765547575641 0.71200081858233666 0 0.16500388252850301 0.66612077714085194 0 0.19068556247388771 0.71028988922845504 0 0.15332765547575641 0.71200081858233666 0 0.18269480424590959 0.75905448272264375 0 0.14335651144331049 0.75565258250209677 0 0.15332765547575641 0.71200081858233666 0 0.18269480424590959 0.75905448272264375 0 0.15332765547575641 0.71200081858233666 0 0.19068556247388771 0.71028988922845504 0 0.18269480424590959 0.75905448272264375 0 0.19068556247388771 0.71028988922845504 0 0.2248999640082178 0.72584299459689172 0 0.2236846579037573 0.67380363126050236 0 0.2248999640082178 0.72584299459689172 0 0.19068556247388771 0.71028988922845504 0 0.2236846579037573 0.67380363126050236 0 0.26439878998046262 0.7048065392091396 0 0.2248999640082178 0.72584299459689172 0 0.25676291524611189 0.7436741304886243 0 0.22556077506376701 0.77837424984191617 0 0.2248999640082178 0.72584299459689172 0 0.25676291524611189 0.7436741304886243 0 0.2248999640082178 0.72584299459689172 0 0.26439878998046262 0.7048065392091396 0 0.2236846579037573 0.67380363126050236 0 0.16500388252850301 0.66612077714085194 0 0.19914261668318661 0.62286739485272158 0 0.2236846579037573 0.67380363126050236 0 0.19068556247388771 0.71028988922845504 0 0.16500388252850301 0.66612077714085194 0 0.2236846579037573 0.67380363126050236 0 0.19914261668318661 0.62286739485272158 0 0.2459498854893499 0.63248470766216769 0 0.2236846579037573 0.67380363126050236 0 0.2459498854893499 0.63248470766216769 0 0.27820712747429932 0.65530134213254643 0 0.22549374774072969 0.58452645269293457 0 0.2459498854893499 0.63248470766216769 0 0.19914261668318661 0.62286739485272158 0 0.26573297623774761 0.59828298563722948 0 0.2459498854893499 0.63248470766216769 0 0.22549374774072969 0.58452645269293457 0 0.22549374774072969 0.58452645269293457 0 0.19914261668318661 0.62286739485272158 0 0.18381867841758909 0.57774125163628387 0 0.20050006573841939 0.53248514016039872 0 0.22549374774072969 0.58452645269293457 0 0.18381867841758909 0.57774125163628387 0 0.26573297623774761 0.59828298563722948 0 0.22549374774072969 0.58452645269293457 0 0.25115337790845271 0.54719303014923271 0 0.20050006573841939 0.53248514016039872 0 0.25115337790845271 0.54719303014923271 0 0.22549374774072969 0.58452645269293457 0 0.20050006573841939 0.53248514016039872 0 0.23975172658309729 0.49475499200540818 0 0.25115337790845271 0.54719303014923271 0 0.20050006573841939 0.53248514016039872 0 0.16618607197337229 0.50652878253548905 0 0.19604738184454831 0.47787523520405789 0 0.20050006573841939 0.53248514016039872 0 0.19604738184454831 0.47787523520405789 0 0.23975172658309729 0.49475499200540818 0 0.20050006573841939 0.53248514016039872 0 0.18381867841758909 0.57774125163628387 0 0.14934928745814749 0.55042914607228977 0 0.20050006573841939 0.53248514016039872 0 0.14934928745814749 0.55042914607228977 0 0.16618607197337229 0.50652878253548905 0 0.1216098864341134 0.50637075089503902 0 0.16618607197337229 0.50652878253548905 0 0.14934928745814749 0.55042914607228977 0 0.1154888278694548 0.56733818459978413 0 0.1216098864341134 0.50637075089503902 0 0.14934928745814749 0.55042914607228977 0 0.15720202157091859 0.60665697304410315 0 0.1154888278694548 0.56733818459978413 0 0.14934928745814749 0.55042914607228977 0 0.15720202157091859 0.60665697304410315 0 0.1024350934457823 0.60772393977513839 0 0.1154888278694548 0.56733818459978413 0 0.15720202157091859 0.60665697304410315 0 0.1241190223511371 0.64391885572885044 0 0.1024350934457823 0.60772393977513839 0 0.18381867841758909 0.57774125163628387 0 0.19914261668318661 0.62286739485272158 0 0.15720202157091859 0.60665697304410315 0 0.15720202157091859 0.60665697304410315 0 0.14934928745814749 0.55042914607228977 0 0.18381867841758909 0.57774125163628387 0 0.15000000000062411 1 0 0.10000000000041601 1 0 0.10266856499240549 0.95548163909968886 0 0.083411279318375747 0.91030024466934134 0 0.10266856499240549 0.95548163909968886 0 0.053064897599294662 0.95186845269532028 0 0.050000000000207989 1 0 0.053064897599294662 0.95186845269532028 0 0.10000000000041601 1 0 0.10000000000041601 1 0 0.053064897599294662 0.95186845269532028 0 0.10266856499240549 0.95548163909968886 0 0.050000000000207989 1 0 0.025766224399875661 0.97546711317377799 0 0.053064897599294662 0.95186845269532028 0 0 1 0 0.025766224399875661 0.97546711317377799 0 0.050000000000207989 1 0 0 1 0 0 0.94999999999979179 0 0.025766224399875661 0.97546711317377799 0 0 0.94999999999979179 0 0.053064897599294662 0.95186845269532028 0 0.025766224399875661 0.97546711317377799 0 0 0.94999999999979179 0 0.0443105827531413 0.89858748162559932 0 0.053064897599294662 0.95186845269532028 0 0.083411279318375747 0.91030024466934134 0 0.053064897599294662 0.95186845269532028 0 0.0443105827531413 0.89858748162559932 0 0 0.94999999999979179 0 0 0.89999999999958358 0 0.0443105827531413 0.89858748162559932 0 0 0.89999999999958358 0 0 0.84999999999965292 0 0.0443105827531413 0.89858748162559932 0 0.083411279318375747 0.91030024466934134 0 0.0443105827531413 0.89858748162559932 0 0.065374659239661639 0.8551091961254178 0 0.083411279318375747 0.91030024466934134 0 0.065374659239661639 0.8551091961254178 0 0.10562472963403439 0.87143394428979881 0 0.083411279318375747 0.91030024466934134 0 0.1241151115713819 0.9045666525468371 0 0.10266856499240549 0.95548163909968886 0 0.14617343800780541 0.93808063414349496 0 0.10266856499240549 0.95548163909968886 0 0.1241151115713819 0.9045666525468371 0 0.14474682429600511 0.85524784522713515 0 0.1241151115713819 0.9045666525468371 0 0.10562472963403439 0.87143394428979881 0 0.083411279318375747 0.91030024466934134 0 0.10562472963403439 0.87143394428979881 0 0.1241151115713819 0.9045666525468371 0 0.14474682429600511 0.85524784522713515 0 0.10562472963403439 0.87143394428979881 0 0.1074251789111534 0.83564394292147814 0 0.083105206071452636 0.79992298667296435 0 0.1074251789111534 0.83564394292147814 0 0.065374659239661639 0.8551091961254178 0 0.065374659239661639 0.8551091961254178 0 0.1074251789111534 0.83564394292147814 0 0.10562472963403439 0.87143394428979881 0 0 0.84999999999965292 0 0.038512288486097702 0.8155852717111195 0 0.065374659239661639 0.8551091961254178 0 0 0.84999999999965292 0 0.065374659239661639 0.8551091961254178 0 0.0443105827531413 0.89858748162559932 0 0 0.84999999999965292 0 0 0.79999999999999982 0 0.038512288486097702 0.8155852717111195 0 0.083105206071452636 0.79992298667296435 0 0.065374659239661639 0.8551091961254178 0 0.038512288486097702 0.8155852717111195 0 0.083105206071452636 0.79992298667296435 0 0.038512288486097702 0.8155852717111195 0 0.04408157711937423 0.7728941757575627 0 0 0.79999999999999982 0 0.04408157711937423 0.7728941757575627 0 0.038512288486097702 0.8155852717111195 0 0 0.79999999999999982 0 0 0.75000000000034661 0 0.04408157711937423 0.7728941757575627 0 0.049706944316475897 0.72477277076253799 0 0.090953281884486245 0.7564451946902494 0 0.04408157711937423 0.7728941757575627 0 0.083105206071452636 0.79992298667296435 0 0.04408157711937423 0.7728941757575627 0 0.090953281884486245 0.7564451946902494 0 0.083105206071452636 0.79992298667296435 0 0.1382744753146134 0.79650574229207483 0 0.1074251789111534 0.83564394292147814 0 0.083105206071452636 0.79992298667296435 0 0.090953281884486245 0.7564451946902494 0 0.1382744753146134 0.79650574229207483 0 0.1382744753146134 0.79650574229207483 0 0.090953281884486245 0.7564451946902494 0 0.14335651144331049 0.75565258250209677 0 0.18269480424590959 0.75905448272264375 0 0.1382744753146134 0.79650574229207483 0 0.14335651144331049 0.75565258250209677 0 0.18269480424590959 0.75905448272264375 0 0.17777405986036951 0.81832336108265358 0 0.1382744753146134 0.79650574229207483 0 0.18269480424590959 0.75905448272264375 0 0.2248999640082178 0.72584299459689172 0 0.22556077506376701 0.77837424984191617 0 0.21858834311891909 0.81980263716112767 0 0.22556077506376701 0.77837424984191617 0 0.26104540868854792 0.81401944968719064 0 0.21858834311891909 0.81980263716112767 0 0.17777405986036951 0.81832336108265358 0 0.22556077506376701 0.77837424984191617 0 0.18269480424590959 0.75905448272264375 0 0.22556077506376701 0.77837424984191617 0 0.17777405986036951 0.81832336108265358 0 0.21858834311891909 0.81980263716112767 0 0.19741632902693801 0.86755867406447229 0 0.17777405986036951 0.81832336108265358 0 0.21858834311891909 0.81980263716112767 0 0.26104540868854792 0.81401944968719064 0 0.2401283238295133 0.85648409884788523 0 0.21858834311891909 0.81980263716112767 0 0.2401283238295133 0.85648409884788523 0 0.19741632902693801 0.86755867406447229 0 0.14474682429600511 0.85524784522713515 0 0.17777405986036951 0.81832336108265358 0 0.19741632902693801 0.86755867406447229 0 0.14474682429600511 0.85524784522713515 0 0.19741632902693801 0.86755867406447229 0 0.16206583317966519 0.89685560785156404 0 0.14474682429600511 0.85524784522713515 0 0.1382744753146134 0.79650574229207483 0 0.17777405986036951 0.81832336108265358 0 0.14474682429600511 0.85524784522713515 0 0.1074251789111534 0.83564394292147814 0 0.1382744753146134 0.79650574229207483 0 0.14474682429600511 0.85524784522713515 0 0.16206583317966519 0.89685560785156404 0 0.1241151115713819 0.9045666525468371 0 0.14617343800780541 0.93808063414349496 0 0.1241151115713819 0.9045666525468371 0 0.16206583317966519 0.89685560785156404 0 0.19901705110390991 0.9175543425573498 0 0.14617343800780541 0.93808063414349496 0 0.16206583317966519 0.89685560785156404 0 0.19901705110390991 0.9175543425573498 0 0.16206583317966519 0.89685560785156404 0 0.19741632902693801 0.86755867406447229 0 0.19901705110390991 0.9175543425573498 0 0.19741632902693801 0.86755867406447229 0 0.24536017905392571 0.90704567837671446 0 0.19741632902693801 0.86755867406447229 0 0.2401283238295133 0.85648409884788523 0 0.24536017905392571 0.90704567837671446 0 0.19901705110390991 0.9175543425573498 0 0.24536017905392571 0.90704567837671446 0 0.22850979588452081 0.95594428570238643 0 0.19901705110390991 0.9175543425573498 0 0.22850979588452081 0.95594428570238643 0 0.18474005699953849 0.96231585248064622 0 0.27609987656793722 0.94991445621608572 0 0.22850979588452081 0.95594428570238643 0 0.24536017905392571 0.90704567837671446 0 0.25000000000104028 1 0 0.20000000000083221 1 0 0.22850979588452081 0.95594428570238643 0 0.20000000000083221 1 0 0.18474005699953849 0.96231585248064622 0 0.22850979588452081 0.95594428570238643 0 0.20000000000083221 1 0 0.15000000000062411 1 0 0.18474005699953849 0.96231585248064622 0 0.19901705110390991 0.9175543425573498 0 0.18474005699953849 0.96231585248064622 0 0.14617343800780541 0.93808063414349496 0 0.15000000000062411 1 0 0.14617343800780541 0.93808063414349496 0 0.18474005699953849 0.96231585248064622 0 0.15000000000062411 1 0 0.10266856499240549 0.95548163909968886 0 0.14617343800780541 0.93808063414349496 0 0.35000000000145642 1 0 0.32544832635163229 0.95485394099568932 0 0.36184234618600131 0.96443954459096326 0 0.40000000000166441 1 0 0.35000000000145642 1 0 0.36184234618600131 0.96443954459096326 0 0.35752321586431363 0.9185439911803448 0 0.36184234618600131 0.96443954459096326 0 0.32544832635163229 0.95485394099568932 0 0.35752321586431363 0.9185439911803448 0 0.39641108128798319 0.94356127926187128 0 0.36184234618600131 0.96443954459096326 0 0.35000000000145642 1 0 0.30000000000124832 1 0 0.32544832635163229 0.95485394099568932 0 0.30000000000124832 1 0 0.25000000000104028 1 0 0.27609987656793722 0.94991445621608572 0 0.25000000000104028 1 0 0.22850979588452081 0.95594428570238643 0 0.27609987656793722 0.94991445621608572 0 0.30000000000124832 1 0 0.27609987656793722 0.94991445621608572 0 0.32544832635163229 0.95485394099568932 0 0.27609987656793722 0.94991445621608572 0 0.30864387279288652 0.89906554525974958 0 0.32544832635163229 0.95485394099568932 0 0.27270076654418179 0.87751467830216623 0 0.30864387279288652 0.89906554525974958 0 0.24536017905392571 0.90704567837671446 0 0.27609987656793722 0.94991445621608572 0 0.24536017905392571 0.90704567837671446 0 0.30864387279288652 0.89906554525974958 0 0.27270076654418179 0.87751467830216623 0 0.24536017905392571 0.90704567837671446 0 0.2401283238295133 0.85648409884788523 0 0.35752321586431363 0.9185439911803448 0 0.30864387279288652 0.89906554525974958 0 0.35864759629805099 0.87963482415279515 0 0.35752321586431363 0.9185439911803448 0 0.32544832635163229 0.95485394099568932 0 0.30864387279288652 0.89906554525974958 0 0.35752321586431363 0.9185439911803448 0 0.35864759629805099 0.87963482415279515 0 0.39767323751400468 0.89584229130535065 0 0.35864759629805099 0.87963482415279515 0 0.33403534827021109 0.84402799729020661 0 0.39536230704883951 0.84069429572832477 0 0.33403534827021109 0.84402799729020661 0 0.35642984951668422 0.80994399665655703 0 0.39536230704883951 0.84069429572832477 0 0.33403534827021109 0.84402799729020661 0 0.30857225866488791 0.81101973481716805 0 0.35642984951668422 0.80994399665655703 0 0.33403534827021109 0.84402799729020661 0 0.35864759629805099 0.87963482415279515 0 0.30864387279288652 0.89906554525974958 0 0.33403534827021109 0.84402799729020661 0 0.30864387279288652 0.89906554525974958 0 0.29209212897034281 0.84715728365233667 0 0.27270076654418179 0.87751467830216623 0 0.29209212897034281 0.84715728365233667 0 0.30864387279288652 0.89906554525974958 0 0.27270076654418179 0.87751467830216623 0 0.2401283238295133 0.85648409884788523 0 0.29209212897034281 0.84715728365233667 0 0.26104540868854792 0.81401944968719064 0 0.29209212897034281 0.84715728365233667 0 0.2401283238295133 0.85648409884788523 0 0.26104540868854792 0.81401944968719064 0 0.30857225866488791 0.81101973481716805 0 0.29209212897034281 0.84715728365233667 0 0.33403534827021109 0.84402799729020661 0 0.29209212897034281 0.84715728365233667 0 0.30857225866488791 0.81101973481716805 0 0.26104540868854792 0.81401944968719064 0 0.2792923945214143 0.77665808831789485 0 0.30857225866488791 0.81101973481716805 0 0.33123028043633618 0.77629643437932982 0 0.30857225866488791 0.81101973481716805 0 0.2792923945214143 0.77665808831789485 0 0.26104540868854792 0.81401944968719064 0 0.22556077506376701 0.77837424984191617 0 0.2792923945214143 0.77665808831789485 0 0.25676291524611189 0.7436741304886243 0 0.29904318922293632 0.74132814928635593 0 0.2792923945214143 0.77665808831789485 0 0.25676291524611189 0.7436741304886243 0 0.2792923945214143 0.77665808831789485 0 0.22556077506376701 0.77837424984191617 0 0.33123028043633618 0.77629643437932982 0 0.2792923945214143 0.77665808831789485 0 0.29904318922293632 0.74132814928635593 0 0.33123028043633618 0.77629643437932982 0 0.29904318922293632 0.74132814928635593 0 0.35415581127540569 0.73730480045900215 0 0.33123028043633618 0.77629643437932982 0 0.35642984951668422 0.80994399665655703 0 0.30857225866488791 0.81101973481716805 0 0.33123028043633618 0.77629643437932982 0 0.38586766253264881 0.78219501014812498 0 0.35642984951668422 0.80994399665655703 0 0.33123028043633618 0.77629643437932982 0 0.35415581127540569 0.73730480045900215 0 0.38586766253264881 0.78219501014812498 0 0.40326160981139969 0.73346192995102844 0 0.42676259796334498 0.76772545931379299 0 0.38586766253264881 0.78219501014812498 0 0.40326160981139969 0.73346192995102844 0 0.38586766253264881 0.78219501014812498 0 0.35415581127540569 0.73730480045900215 0 0.39536230704883951 0.84069429572832477 0 0.38586766253264881 0.78219501014812498 0 0.42609163930740518 0.80361684430568059 0 0.39536230704883951 0.84069429572832477 0 0.35642984951668422 0.80994399665655703 0 0.38586766253264881 0.78219501014812498 0 0.38586766253264881 0.78219501014812498 0 0.42676259796334498 0.76772545931379299 0 0.42609163930740518 0.80361684430568059 0 0.4656888918609538 0.78493261229743638 0 0.42676259796334498 0.76772545931379299 0 0.45582236402875981 0.73896743678908217 0 0.4656888918609538 0.78493261229743638 0 0.45582236402875981 0.73896743678908217 0 0.50945740445113552 0.75476055527778108 0 0.4656888918609538 0.78493261229743638 0 0.50945740445113552 0.75476055527778108 0 0.50731287292894423 0.78963574450233831 0 0.4656888918609538 0.78493261229743638 0 0.50731287292894423 0.78963574450233831 0 0.50627822638148745 0.8263979829520941 0 0.4656888918609538 0.78493261229743638 0 0.45677673713123867 0.84253684404072415 0 0.42609163930740518 0.80361684430568059 0 0.4656888918609538 0.78493261229743638 0 0.42609163930740518 0.80361684430568059 0 0.42676259796334498 0.76772545931379299 0 0.4656888918609538 0.78493261229743638 0 0.50627822638148745 0.8263979829520941 0 0.45677673713123867 0.84253684404072415 0 0.50202631463681879 0.87892870825713787 0 0.45677673713123867 0.84253684404072415 0 0.50627822638148745 0.8263979829520941 0 0.50202631463681879 0.87892870825713787 0 0.44003836461056539 0.88093474584252718 0 0.45677673713123867 0.84253684404072415 0 0.39536230704883951 0.84069429572832477 0 0.45677673713123867 0.84253684404072415 0 0.44003836461056539 0.88093474584252718 0 0.39536230704883951 0.84069429572832477 0 0.44003836461056539 0.88093474584252718 0 0.39767323751400468 0.89584229130535065 0 0.39536230704883951 0.84069429572832477 0 0.42609163930740518 0.80361684430568059 0 0.45677673713123867 0.84253684404072415 0 0.39536230704883951 0.84069429572832477 0 0.39767323751400468 0.89584229130535065 0 0.35864759629805099 0.87963482415279515 0 0.35752321586431363 0.9185439911803448 0 0.39767323751400468 0.89584229130535065 0 0.39641108128798319 0.94356127926187128 0 0.4367309254023824 0.92065556789053882 0 0.39641108128798319 0.94356127926187128 0 0.39767323751400468 0.89584229130535065 0 0.4367309254023824 0.92065556789053882 0 0.39767323751400468 0.89584229130535065 0 0.44003836461056539 0.88093474584252718 0 0.4367309254023824 0.92065556789053882 0 0.44003836461056539 0.88093474584252718 0 0.47401147028110507 0.91529957330468115 0 0.50202631463681879 0.87892870825713787 0 0.47401147028110507 0.91529957330468115 0 0.44003836461056539 0.88093474584252718 0 0.52122150208832174 0.94089974453840242 0 0.47135117303824892 0.95556877749289892 0 0.47401147028110507 0.91529957330468115 0 0.50202631463681879 0.87892870825713787 0 0.52122150208832174 0.94089974453840242 0 0.47401147028110507 0.91529957330468115 0 0.4367309254023824 0.92065556789053882 0 0.47401147028110507 0.91529957330468115 0 0.47135117303824892 0.95556877749289892 0 0.4367309254023824 0.92065556789053882 0 0.47135117303824892 0.95556877749289892 0 0.4308986359464303 0.96395712492906194 0 0.50000000000205869 1 0 0.47135117303824892 0.95556877749289892 0 0.52122150208832174 0.94089974453840242 0 0.50000000000205869 1 0 0.45000000000187229 1 0 0.47135117303824892 0.95556877749289892 0 0.45000000000187229 1 0 0.4308986359464303 0.96395712492906194 0 0.47135117303824892 0.95556877749289892 0 0.45000000000187229 1 0 0.40000000000166441 1 0 0.4308986359464303 0.96395712492906194 0 0.40000000000166441 1 0 0.39641108128798319 0.94356127926187128 0 0.4308986359464303 0.96395712492906194 0 0.4367309254023824 0.92065556789053882 0 0.4308986359464303 0.96395712492906194 0 0.39641108128798319 0.94356127926187128 0 0.40000000000166441 1 0 0.36184234618600131 0.96443954459096326 0 0.39641108128798319 0.94356127926187128 0 0.33122374654748771 0.57588941099433744 0 0.35765792684946668 0.6000687869219653 0 0.31502927232353312 0.6134992213375432 0 0.35864735590330371 0.63903383440414463 0 0.31502927232353312 0.6134992213375432 0 0.35765792684946668 0.6000687869219653 0 0.35864735590330371 0.63903383440414463 0 0.35765792684946668 0.6000687869219653 0 0.39743091024207589 0.6239520004230239 0 0.33122374654748771 0.57588941099433744 0 0.37272913873093971 0.56192925302619479 0 0.35765792684946668 0.6000687869219653 0 0.38244435121258652 0.51653317813019495 0 0.37272913873093971 0.56192925302619479 0 0.33190227185843768 0.52715113583864037 0 0.33122374654748771 0.57588941099433744 0 0.33190227185843768 0.52715113583864037 0 0.37272913873093971 0.56192925302619479 0 0.38244435121258652 0.51653317813019495 0 0.33190227185843768 0.52715113583864037 0 0.35024835142131061 0.48654922671676981 0 0.33122374654748771 0.57588941099433744 0 0.29110487519241501 0.56588143995431495 0 0.33190227185843768 0.52715113583864037 0 0.28307294598219601 0.50789252727458634 0 0.33190227185843768 0.52715113583864037 0 0.29110487519241501 0.56588143995431495 0 0.31068898841644388 0.47541502461811092 0 0.33190227185843768 0.52715113583864037 0 0.28307294598219601 0.50789252727458634 0 0.28307294598219601 0.50789252727458634 0 0.25115337790845271 0.54719303014923271 0 0.23975172658309729 0.49475499200540818 0 0.28307294598219601 0.50789252727458634 0 0.29110487519241501 0.56588143995431495 0 0.25115337790845271 0.54719303014923271 0 0.26573297623774761 0.59828298563722948 0 0.25115337790845271 0.54719303014923271 0 0.29110487519241501 0.56588143995431495 0 0.33122374654748771 0.57588941099433744 0 0.31502927232353312 0.6134992213375432 0 0.29110487519241501 0.56588143995431495 0 0.26573297623774761 0.59828298563722948 0 0.29110487519241501 0.56588143995431495 0 0.31502927232353312 0.6134992213375432 0 0.26573297623774761 0.59828298563722948 0 0.31502927232353312 0.6134992213375432 0 0.27820712747429932 0.65530134213254643 0 0.26573297623774761 0.59828298563722948 0 0.27820712747429932 0.65530134213254643 0 0.2459498854893499 0.63248470766216769 0 0.2236846579037573 0.67380363126050236 0 0.27820712747429932 0.65530134213254643 0 0.26439878998046262 0.7048065392091396 0 0.31378396441836959 0.70157213313026345 0 0.27820712747429932 0.65530134213254643 0 0.32263089806001177 0.66003674931826484 0 0.31378396441836959 0.70157213313026345 0 0.26439878998046262 0.7048065392091396 0 0.27820712747429932 0.65530134213254643 0 0.27820712747429932 0.65530134213254643 0 0.31502927232353312 0.6134992213375432 0 0.32263089806001177 0.66003674931826484 0 0.25676291524611189 0.7436741304886243 0 0.26439878998046262 0.7048065392091396 0 0.29904318922293632 0.74132814928635593 0 0.31378396441836959 0.70157213313026345 0 0.29904318922293632 0.74132814928635593 0 0.26439878998046262 0.7048065392091396 0 0.31378396441836959 0.70157213313026345 0 0.35415581127540569 0.73730480045900215 0 0.29904318922293632 0.74132814928635593 0 0.31378396441836959 0.70157213313026345 0 0.36622285152418499 0.69092437780804039 0 0.35415581127540569 0.73730480045900215 0 0.40326160981139969 0.73346192995102844 0 0.35415581127540569 0.73730480045900215 0 0.36622285152418499 0.69092437780804039 0 0.35864735590330371 0.63903383440414463 0 0.32263089806001177 0.66003674931826484 0 0.31502927232353312 0.6134992213375432 0 0.31378396441836959 0.70157213313026345 0 0.32263089806001177 0.66003674931826484 0 0.36622285152418499 0.69092437780804039 0 0.35864735590330371 0.63903383440414463 0 0.36622285152418499 0.69092437780804039 0 0.32263089806001177 0.66003674931826484 0 0.35864735590330371 0.63903383440414463 0 0.3977710372045391 0.65868194622830212 0 0.36622285152418499 0.69092437780804039 0 0.35864735590330371 0.63903383440414463 0 0.39743091024207589 0.6239520004230239 0 0.3977710372045391 0.65868194622830212 0 0.36622285152418499 0.69092437780804039 0 0.3977710372045391 0.65868194622830212 0 0.43323420005758778 0.6913544522562407 0 0.43846182030517877 0.64845797726506715 0 0.43323420005758778 0.6913544522562407 0 0.3977710372045391 0.65868194622830212 0 0.43846182030517877 0.64845797726506715 0 0.39743091024207589 0.6239520004230239 0 0.43545892161006339 0.61093128915313821 0 0.43846182030517877 0.64845797726506715 0 0.3977710372045391 0.65868194622830212 0 0.39743091024207589 0.6239520004230239 0 0.40326160981139969 0.73346192995102844 0 0.36622285152418499 0.69092437780804039 0 0.43323420005758778 0.6913544522562407 0 0.40326160981139969 0.73346192995102844 0 0.43323420005758778 0.6913544522562407 0 0.45582236402875981 0.73896743678908217 0 0.40326160981139969 0.73346192995102844 0 0.45582236402875981 0.73896743678908217 0 0.42676259796334498 0.76772545931379299 0 0.5 0.69999999999999996 0 0.45582236402875981 0.73896743678908217 0 0.43323420005758778 0.6913544522562407 0 0.5 0.69999999999999996 0 0.50945740445113552 0.75476055527778108 0 0.45582236402875981 0.73896743678908217 0 0.5 0.69999999999999996 0 0.43323420005758778 0.6913544522562407 0 0.47913475093885149 0.66010775372412711 0 0.43846182030517877 0.64845797726506715 0 0.47095389620662098 0.61892551373708504 0 0.47913475093885149 0.66010775372412711 0 0.43846182030517877 0.64845797726506715 0 0.43545892161006339 0.61093128915313821 0 0.47095389620662098 0.61892551373708504 0 0.43846182030517877 0.64845797726506715 0 0.47913475093885149 0.66010775372412711 0 0.43323420005758778 0.6913544522562407 0 0.50715858906372158 0.63295939104129484 0 0.47913475093885149 0.66010775372412711 0 0.47095389620662098 0.61892551373708504 0 0.50715858906372158 0.63295939104129484 0 0.47095389620662098 0.61892551373708504 0 0.5166924242153631 0.59825134841919447 0 0.46666084890304671 0.57634471035397938 0 0.5166924242153631 0.59825134841919447 0 0.47095389620662098 0.61892551373708504 0 0.46666084890304671 0.57634471035397938 0 0.47095389620662098 0.61892551373708504 0 0.43545892161006339 0.61093128915313821 0 0.4089290844030305 0.58728915500154233 0 0.43545892161006339 0.61093128915313821 0 0.39743091024207589 0.6239520004230239 0 0.43545892161006339 0.61093128915313821 0 0.4089290844030305 0.58728915500154233 0 0.46666084890304671 0.57634471035397938 0 0.4089290844030305 0.58728915500154233 0 0.42644501560315817 0.54603747078095544 0 0.46666084890304671 0.57634471035397938 0 0.4089290844030305 0.58728915500154233 0 0.37272913873093971 0.56192925302619479 0 0.42644501560315817 0.54603747078095544 0 0.4089290844030305 0.58728915500154233 0 0.35765792684946668 0.6000687869219653 0 0.37272913873093971 0.56192925302619479 0 0.4089290844030305 0.58728915500154233 0 0.39743091024207589 0.6239520004230239 0 0.35765792684946668 0.6000687869219653 0 0.38244435121258652 0.51653317813019495 0 0.42644501560315817 0.54603747078095544 0 0.37272913873093971 0.56192925302619479 0 0.38244435121258652 0.51653317813019495 0 0.43507373378304309 0.49699695397193322 0 0.42644501560315817 0.54603747078095544 0 0.46666084890304671 0.57634471035397938 0 0.47793794143994173 0.52940715638744962 0 0.53245488764484505 0.55078124999999989 0 0.49102375406324739 0.49123754822244059 0 0.47793794143994173 0.52940715638744962 0 0.43507373378304309 0.49699695397193322 0 0.43507373378304309 0.49699695397193322 0 0.47793794143994173 0.52940715638744962 0 0.42644501560315817 0.54603747078095544 0 0.46666084890304671 0.57634471035397938 0 0.42644501560315817 0.54603747078095544 0 0.47793794143994173 0.52940715638744962 0 0.49102375406324739 0.49123754822244059 0 0.53330375813596242 0.50827942741749099 0 0.47793794143994173 0.52940715638744962 0 0.53245488764484505 0.55078124999999989 0 0.47793794143994173 0.52940715638744962 0 0.53330375813596242 0.50827942741749099 0 0.53245488764484505 0.55078124999999989 0 0.53330375813596242 0.50827942741749099 0 0.57435499076887508 0.54267261987897775 0 0.57412547362576272 0.58273804879550706 0 0.53245488764484505 0.55078124999999989 0 0.57435499076887508 0.54267261987897775 0 0.57611405284611883 0.50165903596042916 0 0.57435499076887508 0.54267261987897775 0 0.53330375813596242 0.50827942741749099 0 0.57611405284611883 0.50165903596042916 0 0.62042975506801734 0.54295974692364424 0 0.57435499076887508 0.54267261987897775 0 0.57412547362576272 0.58273804879550706 0 0.57435499076887508 0.54267261987897775 0 0.62042975506801734 0.54295974692364424 0 0.57611405284611883 0.50165903596042916 0 0.61547661924074692 0.48539576058873962 0 0.62042975506801734 0.54295974692364424 0 0.6405463747586706 0.63290524857395714 0 0.5991018319127801 0.62925360607495295 0 0.63065402604362242 0.59661356661633302 0 0.57412547362576272 0.58273804879550706 0 0.63065402604362242 0.59661356661633302 0 0.5991018319127801 0.62925360607495295 0 0.57412547362576272 0.58273804879550706 0 0.62042975506801734 0.54295974692364424 0 0.63065402604362242 0.59661356661633302 0 0.57412547362576272 0.58273804879550706 0 0.5991018319127801 0.62925360607495295 0 0.5498280205245758 0.6290146943450976 0 0.46666084890304671 0.57634471035397938 0 0.53245488764484505 0.55078124999999989 0 0.5166924242153631 0.59825134841919447 0 0.57412547362576272 0.58273804879550706 0 0.5498280205245758 0.6290146943450976 0 0.5166924242153631 0.59825134841919447 0 0.57412547362576272 0.58273804879550706 0 0.5166924242153631 0.59825134841919447 0 0.53245488764484505 0.55078124999999989 0 0.50715858906372158 0.63295939104129484 0 0.5166924242153631 0.59825134841919447 0 0.5498280205245758 0.6290146943450976 0 0.50715858906372158 0.63295939104129484 0 0.52584555706968406 0.66664215091846768 0 0.47913475093885149 0.66010775372412711 0 0.50715858906372158 0.63295939104129484 0 0.5498280205245758 0.6290146943450976 0 0.52584555706968406 0.66664215091846768 0 0.5 0.69999999999999996 0 0.47913475093885149 0.66010775372412711 0 0.52584555706968406 0.66664215091846768 0 0.54999999999999993 0.69999999999999996 0 0.52584555706968406 0.66664215091846768 0 0.57484956128872922 0.66573805030881994 0 0.57484956128872922 0.66573805030881994 0 0.52584555706968406 0.66664215091846768 0 0.5498280205245758 0.6290146943450976 0 0.50945740445113552 0.75476055527778108 0 0.5 0.69999999999999996 0 0.55363780716230748 0.74348740161571747 0 0.5 0.69999999999999996 0 0.52584555706968406 0.66664215091846768 0 0.54999999999999993 0.69999999999999996 0 0.5 0.69999999999999996 0 0.54999999999999993 0.69999999999999996 0 0.5 0.69999999999999996 0 0.54999999999999993 0.69999999999999996 0 0.55363780716230748 0.74348740161571747 0 0.59999999999999976 0.69999999999999996 0 0.59636844454254345 0.75937156204589151 0 0.55363780716230748 0.74348740161571747 0 0.54999999999999993 0.69999999999999996 0 0.59999999999999976 0.69999999999999996 0 0.54999999999999993 0.69999999999999996 0 0.57484956128872922 0.66573805030881994 0 0.59999999999999976 0.69999999999999996 0 0.54999999999999993 0.69999999999999996 0 0.59999999999999976 0.69999999999999996 0 0.55363780716230748 0.74348740161571747 0 0.59999999999999976 0.69999999999999996 0 0.6499999999999998 0.69999999999999996 0 0.59999999999999976 0.69999999999999996 0 0.62460753523532009 0.66851202781000296 0 0.6499999999999998 0.69999999999999996 0 0.59999999999999976 0.69999999999999996 0 0.63221990677827677 0.73442891067859706 0 0.59636844454254345 0.75937156204589151 0 0.57484956128872922 0.66573805030881994 0 0.5498280205245758 0.6290146943450976 0 0.5991018319127801 0.62925360607495295 0 0.59999999999999976 0.69999999999999996 0 0.57484956128872922 0.66573805030881994 0 0.62460753523532009 0.66851202781000296 0 0.57484956128872922 0.66573805030881994 0 0.5991018319127801 0.62925360607495295 0 0.62460753523532009 0.66851202781000296 0 0.6405463747586706 0.63290524857395714 0 0.62460753523532009 0.66851202781000296 0 0.5991018319127801 0.62925360607495295 0 0.6405463747586706 0.63290524857395714 0 0.675261390228442 0.65996937624687813 0 0.62460753523532009 0.66851202781000296 0 0.6499999999999998 0.69999999999999996 0 0.62460753523532009 0.66851202781000296 0 0.675261390228442 0.65996937624687813 0 0.6499999999999998 0.69999999999999996 0 0.675261390228442 0.65996937624687813 0 0.69999999999999984 0.69999999999999996 0 0.6405463747586706 0.63290524857395714 0 0.67529834988829951 0.61613270668143583 0 0.675261390228442 0.65996937624687813 0 0.64753070846764316 0.77332939069435502 0 0.63221990677827677 0.73442891067859706 0 0.66427993341343905 0.73232764502436276 0 0.6499999999999998 0.69999999999999996 0 0.66427993341343905 0.73232764502436276 0 0.63221990677827677 0.73442891067859706 0 0.59999999999999976 0.69999999999999996 0 0.6499999999999998 0.69999999999999996 0 0.63221990677827677 0.73442891067859706 0 0.6499999999999998 0.69999999999999996 0 0.69999999999999984 0.69999999999999996 0 0.6499999999999998 0.69999999999999996 0 0.69999999999999984 0.69999999999999996 0 0.66427993341343905 0.73232764502436276 0 0.69999999999999984 0.69999999999999996 0 0.6916490518212759 0.75387992374886192 0 0.66427993341343905 0.73232764502436276 0 0.69999999999999984 0.69999999999999996 0 0.72501250972655151 0.74067302935308721 0 0.6916490518212759 0.75387992374886192 0 0.69999999999999984 0.69999999999999996 0 0.74999999999999989 0.69999999999999996 0 0.72501250972655151 0.74067302935308721 0 0.69999999999999984 0.69999999999999996 0 0.72500000000000064 0.67022701834392062 0 0.74999999999999989 0.69999999999999996 0 0.69999999999999984 0.69999999999999996 0 0.74999999999999989 0.69999999999999996 0 0.74999999999999989 0.69999999999999996 0 0.75841349681148107 0.75422312624214749 0 0.72501250972655151 0.74067302935308721 0 0.71406021706547751 0.63292083137662503 0 0.72500000000000064 0.67022701834392062 0 0.675261390228442 0.65996937624687813 0 0.71406021706547751 0.63292083137662503 0 0.675261390228442 0.65996937624687813 0 0.67529834988829951 0.61613270668143583 0 0.69999999999999984 0.69999999999999996 0 0.675261390228442 0.65996937624687813 0 0.72500000000000064 0.67022701834392062 0 0.71406021706547751 0.63292083137662503 0 0.74994237037456724 0.62775548192980357 0 0.72500000000000064 0.67022701834392062 0 0.7750489929959945 0.66593931409600093 0 0.72500000000000064 0.67022701834392062 0 0.74994237037456724 0.62775548192980357 0 0.71406021706547751 0.63292083137662503 0 0.71809016091162536 0.58185040402320831 0 0.74994237037456724 0.62775548192980357 0 0.77293540622714185 0.59448302402785813 0 0.74994237037456724 0.62775548192980357 0 0.71809016091162536 0.58185040402320831 0 0.71406021706547751 0.63292083137662503 0 0.67529834988829951 0.61613270668143583 0 0.71809016091162536 0.58185040402320831 0 0.67323294229744413 0.57556450033612505 0 0.67569444444444449 0.53500863336860327 0 0.71809016091162536 0.58185040402320831 0 0.67323294229744413 0.57556450033612505 0 0.71809016091162536 0.58185040402320831 0 0.67529834988829951 0.61613270668143583 0 0.7152569930854884 0.5237994455134295 0 0.77151014687832564 0.54436834383023036 0 0.71809016091162536 0.58185040402320831 0 0.7152569930854884 0.5237994455134295 0 0.73947346780852752 0.49062440112282169 0 0.77151014687832564 0.54436834383023036 0 0.7152569930854884 0.5237994455134295 0 0.67569444444444449 0.53500863336860327 0 0.69385896817107129 0.48377516041410151 0 0.7152569930854884 0.5237994455134295 0 0.71809016091162536 0.58185040402320831 0 0.67569444444444449 0.53500863336860327 0 0.67323294229744413 0.57556450033612505 0 0.62042975506801734 0.54295974692364424 0 0.67569444444444449 0.53500863336860327 0 0.6541250972820879 0.49999999999999989 0 0.69385896817107129 0.48377516041410151 0 0.67569444444444449 0.53500863336860327 0 0.6541250972820879 0.49999999999999989 0 0.67569444444444449 0.53500863336860327 0 0.62042975506801734 0.54295974692364424 0 0.6541250972820879 0.49999999999999989 0 0.62042975506801734 0.54295974692364424 0 0.61547661924074692 0.48539576058873962 0 0.67323294229744413 0.57556450033612505 0 0.63065402604362242 0.59661356661633302 0 0.62042975506801734 0.54295974692364424 0 0.6405463747586706 0.63290524857395714 0 0.63065402604362242 0.59661356661633302 0 0.67529834988829951 0.61613270668143583 0 0.67323294229744413 0.57556450033612505 0 0.67529834988829951 0.61613270668143583 0 0.63065402604362242 0.59661356661633302 0 0.60000000000138687 1 0 0.57382506491224949 0.9629411906298494 0 0.62065498684670595 0.95224934003983619 0 0.65000000000104008 1 0 0.60000000000138687 1 0 0.62065498684670595 0.95224934003983619 0 0.57724883562309992 0.92155686857100794 0 0.62065498684670595 0.95224934003983619 0 0.57382506491224949 0.9629411906298494 0 0.60000000000138687 1 0 0.55000000000173355 1 0 0.57382506491224949 0.9629411906298494 0 0.55000000000173355 1 0 0.50000000000205869 1 0 0.52122150208832174 0.94089974453840242 0 0.57724883562309992 0.92155686857100794 0 0.57382506491224949 0.9629411906298494 0 0.52122150208832174 0.94089974453840242 0 0.55000000000173355 1 0 0.52122150208832174 0.94089974453840242 0 0.57382506491224949 0.9629411906298494 0 0.57724883562309992 0.92155686857100794 0 0.52122150208832174 0.94089974453840242 0 0.54783390826260769 0.89287767010860219 0 0.50202631463681879 0.87892870825713787 0 0.54783390826260769 0.89287767010860219 0 0.52122150208832174 0.94089974453840242 0 0.55899371797446828 0.85003102233514438 0 0.5832743223239254 0.88483152652961872 0 0.54783390826260769 0.89287767010860219 0 0.57724883562309992 0.92155686857100794 0 0.54783390826260769 0.89287767010860219 0 0.5832743223239254 0.88483152652961872 0 0.57724883562309992 0.92155686857100794 0 0.5832743223239254 0.88483152652961872 0 0.61885627562261258 0.90282959257498208 0 0.57724883562309992 0.92155686857100794 0 0.61885627562261258 0.90282959257498208 0 0.62065498684670595 0.95224934003983619 0 0.61343887413683884 0.856862479058357 0 0.61885627562261258 0.90282959257498208 0 0.5832743223239254 0.88483152652961872 0 0.61343887413683884 0.856862479058357 0 0.60294066490120068 0.80851322453934582 0 0.65005442820240822 0.82644988530054031 0 0.61343887413683884 0.856862479058357 0 0.55899371797446828 0.85003102233514438 0 0.60294066490120068 0.80851322453934582 0 0.54782696902220018 0.79245182748204157 0 0.60294066490120068 0.80851322453934582 0 0.55899371797446828 0.85003102233514438 0 0.61343887413683884 0.856862479058357 0 0.5832743223239254 0.88483152652961872 0 0.55899371797446828 0.85003102233514438 0 0.50202631463681879 0.87892870825713787 0 0.55899371797446828 0.85003102233514438 0 0.54783390826260769 0.89287767010860219 0 0.50202631463681879 0.87892870825713787 0 0.50627822638148745 0.8263979829520941 0 0.55899371797446828 0.85003102233514438 0 0.54782696902220018 0.79245182748204157 0 0.55899371797446828 0.85003102233514438 0 0.50627822638148745 0.8263979829520941 0 0.54782696902220018 0.79245182748204157 0 0.50627822638148745 0.8263979829520941 0 0.50731287292894423 0.78963574450233831 0 0.54782696902220018 0.79245182748204157 0 0.50731287292894423 0.78963574450233831 0 0.50945740445113552 0.75476055527778108 0 0.54782696902220018 0.79245182748204157 0 0.50945740445113552 0.75476055527778108 0 0.55363780716230748 0.74348740161571747 0 0.54782696902220018 0.79245182748204157 0 0.55363780716230748 0.74348740161571747 0 0.59636844454254345 0.75937156204589151 0 0.54782696902220018 0.79245182748204157 0 0.59636844454254345 0.75937156204589151 0 0.60294066490120068 0.80851322453934582 0 0.64753070846764316 0.77332939069435502 0 0.60294066490120068 0.80851322453934582 0 0.59636844454254345 0.75937156204589151 0 0.64753070846764316 0.77332939069435502 0 0.59636844454254345 0.75937156204589151 0 0.63221990677827677 0.73442891067859706 0 0.64753070846764316 0.77332939069435502 0 0.65005442820240822 0.82644988530054031 0 0.60294066490120068 0.80851322453934582 0 0.64753070846764316 0.77332939069435502 0 0.68024162096458085 0.79868546898116533 0 0.65005442820240822 0.82644988530054031 0 0.64753070846764316 0.77332939069435502 0 0.6916490518212759 0.75387992374886192 0 0.68024162096458085 0.79868546898116533 0 0.64753070846764316 0.77332939069435502 0 0.66427993341343905 0.73232764502436276 0 0.6916490518212759 0.75387992374886192 0 0.6916490518212759 0.75387992374886192 0 0.72501250972655151 0.74067302935308721 0 0.72500000000000064 0.7952620967744265 0 0.72501250972655151 0.74067302935308721 0 0.75841349681148107 0.75422312624214749 0 0.72500000000000064 0.7952620967744265 0 0.72500000000000064 0.7952620967744265 0 0.68024162096458085 0.79868546898116533 0 0.6916490518212759 0.75387992374886192 0 0.72500000000000064 0.7952620967744265 0 0.68697391633157634 0.84450604838764298 0 0.68024162096458085 0.79868546898116533 0 0.72500000000000064 0.7952620967744265 0 0.72863726579783861 0.85390518901155588 0 0.68697391633157634 0.84450604838764298 0 0.72500000000000064 0.7952620967744265 0 0.76901770135486491 0.84293557325473656 0 0.72863726579783861 0.85390518901155588 0 0.7250000000005199 0.89375000000045834 0 0.68697391633157634 0.84450604838764298 0 0.72863726579783861 0.85390518901155588 0 0.7250000000005199 0.89375000000045834 0 0.66412543161245952 0.88015090885499059 0 0.68697391633157634 0.84450604838764298 0 0.68697391633157634 0.84450604838764298 0 0.66412543161245952 0.88015090885499059 0 0.65005442820240822 0.82644988530054031 0 0.68697391633157634 0.84450604838764298 0 0.65005442820240822 0.82644988530054031 0 0.68024162096458085 0.79868546898116533 0 0.61343887413683884 0.856862479058357 0 0.65005442820240822 0.82644988530054031 0 0.66412543161245952 0.88015090885499059 0 0.61343887413683884 0.856862479058357 0 0.66412543161245952 0.88015090885499059 0 0.61885627562261258 0.90282959257498208 0 0.65507451745379841 0.92229208810758578 0 0.61885627562261258 0.90282959257498208 0 0.66412543161245952 0.88015090885499059 0 0.65507451745379841 0.92229208810758578 0 0.62065498684670595 0.95224934003983619 0 0.61885627562261258 0.90282959257498208 0 0.65507451745379841 0.92229208810758578 0 0.68987011941058407 0.92105047536677087 0 0.68015064798562208 0.95924320340003011 0 0.65507451745379841 0.92229208810758578 0 0.66412543161245952 0.88015090885499059 0 0.68987011941058407 0.92105047536677087 0 0.7250000000005199 0.89375000000045834 0 0.68987011941058407 0.92105047536677087 0 0.66412543161245952 0.88015090885499059 0 0.7250000000005199 0.89375000000045834 0 0.72863726579783861 0.85390518901155588 0 0.76891166905518427 0.88835469571185499 0 0.7250000000005199 0.89375000000045834 0 0.75729602384198635 0.92353652857884294 0 0.7250000000005199 0.94981617647078953 0 0.7250000000005199 0.89375000000045834 0 0.7250000000005199 0.94981617647078953 0 0.68987011941058407 0.92105047536677087 0 0.7250000000005199 0.94981617647078953 0 0.68015064798562208 0.95924320340003011 0 0.68987011941058407 0.92105047536677087 0 0.75000000000034661 1 0 0.7000000000006934 1 0 0.7250000000005199 0.94981617647078953 0 0.75000000000034661 1 0 0.7250000000005199 0.94981617647078953 0 0.770759834363826 0.95919399014344442 0 0.7000000000006934 1 0 0.68015064798562208 0.95924320340003011 0 0.7250000000005199 0.94981617647078953 0 0.7000000000006934 1 0 0.65000000000104008 1 0 0.68015064798562208 0.95924320340003011 0 0.65507451745379841 0.92229208810758578 0 0.68015064798562208 0.95924320340003011 0 0.62065498684670595 0.95224934003983619 0 0.65000000000104008 1 0 0.62065498684670595 0.95224934003983619 0 0.68015064798562208 0.95924320340003011 0 0.84999999999965292 1 0 0.85170973911348691 0.93569607295217616 0 0.89898474358632463 0.95391965591118966 0 0.84999999999965292 1 0 0.81486180804382891 0.96321394949790495 0 0.85170973911348691 0.93569607295217616 0 0.79680861578988083 0.92656778056766709 0 0.85170973911348691 0.93569607295217616 0 0.81486180804382891 0.96321394949790495 0 0.84999999999965292 1 0 0.79999999999999982 1 0 0.81486180804382891 0.96321394949790495 0 0.79999999999999982 1 0 0.770759834363826 0.95919399014344442 0 0.81486180804382891 0.96321394949790495 0 0.79999999999999982 1 0 0.75000000000034661 1 0 0.770759834363826 0.95919399014344442 0 0.7250000000005199 0.94981617647078953 0 0.75729602384198635 0.92353652857884294 0 0.770759834363826 0.95919399014344442 0 0.79680861578988083 0.92656778056766709 0 0.81486180804382891 0.96321394949790495 0 0.770759834363826 0.95919399014344442 0 0.79680861578988083 0.92656778056766709 0 0.75729602384198635 0.92353652857884294 0 0.76891166905518427 0.88835469571185499 0 0.79680861578988083 0.92656778056766709 0 0.770759834363826 0.95919399014344442 0 0.75729602384198635 0.92353652857884294 0 0.7250000000005199 0.89375000000045834 0 0.76891166905518427 0.88835469571185499 0 0.75729602384198635 0.92353652857884294 0 0.79680861578988083 0.92656778056766709 0 0.76891166905518427 0.88835469571185499 0 0.81159157511211755 0.88795995483179491 0 0.85170973911348691 0.93569607295217616 0 0.81159157511211755 0.88795995483179491 0 0.85600844944837662 0.88483418979512773 0 0.79680861578988083 0.92656778056766709 0 0.81159157511211755 0.88795995483179491 0 0.85170973911348691 0.93569607295217616 0 0.90416666666660628 0.9041666666666166 0 0.85170973911348691 0.93569607295217616 0 0.85600844944837662 0.88483418979512773 0 0.82709327591091286 0.84937141670920724 0 0.88088768115933802 0.84674609810493673 0 0.85600844944837662 0.88483418979512773 0 0.82709327591091286 0.84937141670920724 0 0.84725310900444062 0.80779732082917555 0 0.88088768115933802 0.84674609810493673 0 0.82709327591091286 0.84937141670920724 0 0.80041942726660109 0.81543261647703358 0 0.84725310900444062 0.80779732082917555 0 0.82709327591091286 0.84937141670920724 0 0.85600844944837662 0.88483418979512773 0 0.81159157511211755 0.88795995483179491 0 0.76901770135486491 0.84293557325473656 0 0.81159157511211755 0.88795995483179491 0 0.76891166905518427 0.88835469571185499 0 0.82709327591091286 0.84937141670920724 0 0.81159157511211755 0.88795995483179491 0 0.76901770135486491 0.84293557325473656 0 0.76901770135486491 0.84293557325473656 0 0.76891166905518427 0.88835469571185499 0 0.72863726579783861 0.85390518901155588 0 0.76901770135486491 0.84293557325473656 0 0.77094201086366854 0.79647480515688507 0 0.80041942726660109 0.81543261647703358 0 0.82709327591091286 0.84937141670920724 0 0.76901770135486491 0.84293557325473656 0 0.80041942726660109 0.81543261647703358 0 0.80185942888539485 0.77452061303608133 0 0.80041942726660109 0.81543261647703358 0 0.77094201086366854 0.79647480515688507 0 0.72500000000000064 0.7952620967744265 0 0.75841349681148107 0.75422312624214749 0 0.77094201086366854 0.79647480515688507 0 0.72500000000000064 0.7952620967744265 0 0.77094201086366854 0.79647480515688507 0 0.76901770135486491 0.84293557325473656 0 0.80185942888539485 0.77452061303608133 0 0.77094201086366854 0.79647480515688507 0 0.75841349681148107 0.75422312624214749 0 0.80185942888539485 0.77452061303608133 0 0.75841349681148107 0.75422312624214749 0 0.78578450296893509 0.73292684821144505 0 0.80185942888539485 0.77452061303608133 0 0.85491058998424563 0.76004753345552634 0 0.84725310900444062 0.80779732082917555 0 0.80185942888539485 0.77452061303608133 0 0.81864958914779962 0.73589050177899629 0 0.85491058998424563 0.76004753345552634 0 0.80185942888539485 0.77452061303608133 0 0.84725310900444062 0.80779732082917555 0 0.80041942726660109 0.81543261647703358 0 0.90299850604011456 0.79563452813489832 0 0.84725310900444062 0.80779732082917555 0 0.85491058998424563 0.76004753345552634 0 0.90299850604011456 0.79563452813489832 0 0.85491058998424563 0.76004753345552634 0 0.89999166460796554 0.74528934923809909 0 0.90299850604011456 0.79563452813489832 0 0.94399509803918602 0.75600490196082126 0 0.95386563387742829 0.80414874155775029 0 0.90299850604011456 0.79563452813489832 0 0.89999166460796554 0.74528934923809909 0 0.94399509803918602 0.75600490196082126 0 0.94399509803918602 0.75600490196082126 0 0.97435614836745565 0.77499999999987745 0 0.95386563387742829 0.80414874155775029 0 0.94399509803918602 0.75600490196082126 0 0.97166519676947294 0.73337114490064459 0 0.97435614836745565 0.77499999999987745 0 1 0.74999999999993494 0 0.97435614836745565 0.77499999999987745 0 0.97166519676947294 0.73337114490064459 0 1 0.74999999999993494 0 1 0.7999999999998193 0 0.97435614836745565 0.77499999999987745 0 1 0.7999999999998193 0 0.95386563387742829 0.80414874155775029 0 0.97435614836745565 0.77499999999987745 0 1 0.84999999999982645 0 0.95391631417670719 0.89584263333814784 0 0.93677536231884972 0.85000000000000286 0 1 0.84999999999982645 0 0.93677536231884972 0.85000000000000286 0 0.95386563387742829 0.80414874155775029 0 1 0.7999999999998193 0 1 0.84999999999982645 0 0.95386563387742829 0.80414874155775029 0 0.90416666666660628 0.9041666666666166 0 0.88088768115933802 0.84674609810493673 0 0.93677536231884972 0.85000000000000286 0 0.90299850604011456 0.79563452813489832 0 0.95386563387742829 0.80414874155775029 0 0.93677536231884972 0.85000000000000286 0 0.90299850604011456 0.79563452813489832 0 0.93677536231884972 0.85000000000000286 0 0.88088768115933802 0.84674609810493673 0 0.90299850604011456 0.79563452813489832 0 0.88088768115933802 0.84674609810493673 0 0.84725310900444062 0.80779732082917555 0 0.90416666666660628 0.9041666666666166 0 0.85600844944837662 0.88483418979512773 0 0.88088768115933802 0.84674609810493673 0 0.90416666666660628 0.9041666666666166 0 0.89898474358632463 0.95391965591118966 0 0.85170973911348691 0.93569607295217616 0 0.90416666666660628 0.9041666666666166 0 0.95391631417670719 0.89584263333814784 0 0.94399509803919068 0.9439950980391687 0 0.90416666666660628 0.9041666666666166 0 0.94399509803919068 0.9439950980391687 0 0.89898474358632463 0.95391965591118966 0 0.90416666666660628 0.9041666666666166 0 0.93677536231884972 0.85000000000000286 0 0.95391631417670719 0.89584263333814784 0 1 0.84999999999982645 0 1 0.8999999999998336 0 0.95391631417670719 0.89584263333814784 0 1 0.8999999999998336 0 1 0.94999999999997109 0 0.97435614836744289 0.92499999999990257 0 1 0.8999999999998336 0 0.97435614836744289 0.92499999999990257 0 0.95391631417670719 0.89584263333814784 0 0.94399509803919068 0.9439950980391687 0 0.95391631417670719 0.89584263333814784 0 0.97435614836744289 0.92499999999990257 0 0.94399509803919068 0.9439950980391687 0 0.97435614836744289 0.92499999999990257 0 0.97166519676946206 0.96662885509935492 0 1 0.94999999999997109 0 0.97166519676946206 0.96662885509935492 0 0.97435614836744289 0.92499999999990257 0 1 1 0 0.97166519676946206 0.96662885509935492 0 1 0.94999999999997109 0 1 1 0 0.94999999999979179 1 0 0.97166519676946206 0.96662885509935492 0 0.94999999999979179 1 0 0.94399509803919068 0.9439950980391687 0 0.97166519676946206 0.96662885509935492 0 0.94999999999979179 1 0 0.89999999999958358 1 0 0.89898474358632463 0.95391965591118966 0 0.94999999999979179 1 0 0.89898474358632463 0.95391965591118966 0 0.94399509803919068 0.9439950980391687 0 0.89999999999958358 1 0 0.84999999999965292 1 0 0.89898474358632463 0.95391965591118966 0 0.86956835336234861 0.571283299838105 0 0.81723410853263523 0.59419663659258926 0 0.82862096804812391 0.55037090955459045 0 0.83758014339878906 0.63222013025741819 0 0.81723410853263523 0.59419663659258926 0 0.87159648282691515 0.61285406320581504 0 0.83758014339878906 0.63222013025741819 0 0.79884539758237771 0.62875045078114233 0 0.81723410853263523 0.59419663659258926 0 0.86956835336234861 0.571283299838105 0 0.87159648282691515 0.61285406320581504 0 0.81723410853263523 0.59419663659258926 0 0.86956835336234861 0.571283299838105 0 0.82862096804812391 0.55037090955459045 0 0.86907294890112186 0.52008116128001669 0 0.82862096804812391 0.55037090955459045 0 0.81441713509985358 0.51161854125224959 0 0.86907294890112186 0.52008116128001669 0 0.84723782639812573 0.48638347960178252 0 0.86907294890112186 0.52008116128001669 0 0.81441713509985358 0.51161854125224959 0 0.82862096804812391 0.55037090955459045 0 0.77151014687832564 0.54436834383023036 0 0.81441713509985358 0.51161854125224959 0 0.77846603114747959 0.49850927265137401 0 0.81441713509985358 0.51161854125224959 0 0.77151014687832564 0.54436834383023036 0 0.77846603114747959 0.49850927265137401 0 0.77151014687832564 0.54436834383023036 0 0.73947346780852752 0.49062440112282169 0 0.77293540622714185 0.59448302402785813 0 0.71809016091162536 0.58185040402320831 0 0.77151014687832564 0.54436834383023036 0 0.81723410853263523 0.59419663659258926 0 0.77293540622714185 0.59448302402785813 0 0.77151014687832564 0.54436834383023036 0 0.82862096804812391 0.55037090955459045 0 0.81723410853263523 0.59419663659258926 0 0.77151014687832564 0.54436834383023036 0 0.77293540622714185 0.59448302402785813 0 0.81723410853263523 0.59419663659258926 0 0.79884539758237771 0.62875045078114233 0 0.77293540622714185 0.59448302402785813 0 0.79884539758237771 0.62875045078114233 0 0.74994237037456724 0.62775548192980357 0 0.7750489929959945 0.66593931409600093 0 0.74994237037456724 0.62775548192980357 0 0.79884539758237771 0.62875045078114233 0 0.74999999999999989 0.69999999999999996 0 0.72500000000000064 0.67022701834392062 0 0.7750489929959945 0.66593931409600093 0 0.79999999999999982 0.69999999999999996 0 0.7750489929959945 0.66593931409600093 0 0.82457059160610424 0.66831947184359608 0 0.7750489929959945 0.66593931409600093 0 0.79884539758237771 0.62875045078114233 0 0.82457059160610424 0.66831947184359608 0 0.74999999999999989 0.69999999999999996 0 0.78578450296893509 0.73292684821144505 0 0.75841349681148107 0.75422312624214749 0 0.74999999999999989 0.69999999999999996 0 0.79999999999999982 0.69999999999999996 0 0.78578450296893509 0.73292684821144505 0 0.74999999999999989 0.69999999999999996 0 0.7750489929959945 0.66593931409600093 0 0.79999999999999982 0.69999999999999996 0 0.74999999999999989 0.69999999999999996 0 0.79999999999999982 0.69999999999999996 0 0.80185942888539485 0.77452061303608133 0 0.78578450296893509 0.73292684821144505 0 0.81864958914779962 0.73589050177899629 0 0.79999999999999982 0.69999999999999996 0 0.81864958914779962 0.73589050177899629 0 0.78578450296893509 0.73292684821144505 0 0.84999999999999987 0.69999999999999996 0 0.85491058998424563 0.76004753345552634 0 0.81864958914779962 0.73589050177899629 0 0.79999999999999982 0.69999999999999996 0 0.84999999999999987 0.69999999999999996 0 0.79999999999999982 0.69999999999999996 0 0.82457059160610424 0.66831947184359608 0 0.84999999999999987 0.69999999999999996 0 0.79999999999999982 0.69999999999999996 0 0.84999999999999987 0.69999999999999996 0 0.81864958914779962 0.73589050177899629 0 0.84999999999999987 0.69999999999999996 0 0.89999999999999991 0.69999999999999996 0 0.84999999999999987 0.69999999999999996 0 0.89999166460796554 0.74528934923809909 0 0.85491058998424563 0.76004753345552634 0 0.83758014339878906 0.63222013025741819 0 0.82457059160610424 0.66831947184359608 0 0.79884539758237771 0.62875045078114233 0 0.84999999999999987 0.69999999999999996 0 0.82457059160610424 0.66831947184359608 0 0.87712158428786946 0.65709029563313581 0 0.83758014339878906 0.63222013025741819 0 0.87159648282691515 0.61285406320581504 0 0.87712158428786946 0.65709029563313581 0 0.83758014339878906 0.63222013025741819 0 0.87712158428786946 0.65709029563313581 0 0.82457059160610424 0.66831947184359608 0 0.91750694127105259 0.63017627779935648 0 0.92057473616084773 0.66770436535372446 0 0.87712158428786946 0.65709029563313581 0 0.91750694127105259 0.63017627779935648 0 0.87712158428786946 0.65709029563313581 0 0.87159648282691515 0.61285406320581504 0 0.84999999999999987 0.69999999999999996 0 0.87712158428786946 0.65709029563313581 0 0.89999999999999991 0.69999999999999996 0 0.89999999999999991 0.69999999999999996 0 0.87712158428786946 0.65709029563313581 0 0.92057473616084773 0.66770436535372446 0 0.91750694127105259 0.63017627779935648 0 0.9578014258160763 0.65787212321113708 0 0.92057473616084773 0.66770436535372446 0 0.84999999999999987 0.69999999999999996 0 0.89999999999999991 0.69999999999999996 0 0.89999166460796554 0.74528934923809909 0 0.89999999999999991 0.69999999999999996 0 0.94999999999999996 0.69999999999999996 0 0.89999999999999991 0.69999999999999996 0 0.92057473616084773 0.66770436535372446 0 0.94999999999999996 0.69999999999999996 0 0.89999999999999991 0.69999999999999996 0 0.94999999999999996 0.69999999999999996 0 0.89999166460796554 0.74528934923809909 0 0.94999999999999996 0.69999999999999996 0 0.94399509803918602 0.75600490196082126 0 0.89999166460796554 0.74528934923809909 0 0.94999999999999996 0.69999999999999996 0 0.97166519676947294 0.73337114490064459 0 0.94399509803918602 0.75600490196082126 0 0.94999999999999996 0.69999999999999996 0 1 0.69999999999999996 0 1 0.69999999999999996 0 0.97166519676947294 0.73337114490064459 0 0.94999999999999996 0.69999999999999996 0 1 0.69999999999999996 0 1 0.74999999999993494 0 0.97166519676947294 0.73337114490064459 0 0.91750694127105259 0.63017627779935648 0 0.95867599106212187 0.60011091146651041 0 0.9578014258160763 0.65787212321113708 0 0.94999999999999996 0.69999999999999996 0 0.92057473616084773 0.66770436535372446 0 0.9578014258160763 0.65787212321113708 0 1 0.69999999999999996 0 0.94999999999999996 0.69999999999999996 0 0.9578014258160763 0.65787212321113708 0 1 0.69999999999999996 0 0.9578014258160763 0.65787212321113708 0 1 0.64999999999986979 0 1 0.64999999999986979 0 0.9578014258160763 0.65787212321113708 0 0.95867599106212187 0.60011091146651041 0 1 0.54999999999963112 0 0.95867599106212187 0.60011091146651041 0 0.93732437411268477 0.55911392101136159 0 1 0.59999999999973963 0 1 0.64999999999986979 0 0.95867599106212187 0.60011091146651041 0 1 0.54999999999963112 0 1 0.59999999999973963 0 0.95867599106212187 0.60011091146651041 0 0.91750694127105259 0.63017627779935648 0 0.91143117093204207 0.58709913730335972 0 0.95867599106212187 0.60011091146651041 0 0.93732437411268477 0.55911392101136159 0 0.95867599106212187 0.60011091146651041 0 0.91143117093204207 0.58709913730335972 0 0.86956835336234861 0.571283299838105 0 0.90900154012161016 0.53607784105648792 0 0.91143117093204207 0.58709913730335972 0 0.86956835336234861 0.571283299838105 0 0.91143117093204207 0.58709913730335972 0 0.87159648282691515 0.61285406320581504 0 0.91750694127105259 0.63017627779935648 0 0.87159648282691515 0.61285406320581504 0 0.91143117093204207 0.58709913730335972 0 0.91696753777131557 0.497780560203536 0 0.90900154012161016 0.53607784105648792 0 0.86907294890112186 0.52008116128001669 0 0.86956835336234861 0.571283299838105 0 0.86907294890112186 0.52008116128001669 0 0.90900154012161016 0.53607784105648792 0 0.93732437411268477 0.55911392101136159 0 0.90900154012161016 0.53607784105648792 0 0.95631871884947484 0.51827533208233789 0 0.93732437411268477 0.55911392101136159 0 0.91143117093204207 0.58709913730335972 0 0.90900154012161016 0.53607784105648792 0 0.91696753777131557 0.497780560203536 0 0.95631871884947484 0.51827533208233789 0 0.90900154012161016 0.53607784105648792 0 1 0.54999999999963112 0 0.93732437411268477 0.55911392101136159 0 0.95631871884947484 0.51827533208233789 0 1 0.49999999999950101 0 1 0.54999999999963112 0 0.95631871884947484 0.51827533208233789 0 1 0.49999999999950101 0 0.95631871884947484 0.51827533208233789 0 0.96228564064454991 0.48206450662049471 0 1 0.44999999999963131 0 1 0.49999999999950101 0 0.96228564064454991 0.48206450662049471 0 1 0.44999999999963131 0 0.96228564064454991 0.48206450662049471 0 0.93814194660195893 0.44426664081746747 0 0.91696753777131557 0.497780560203536 0 0.93814194660195893 0.44426664081746747 0 0.96228564064454991 0.48206450662049471 0 0.91696753777131557 0.497780560203536 0 0.96228564064454991 0.48206450662049471 0 0.95631871884947484 0.51827533208233789 0 1 0.34999999999993492 0 1 0.39999999999978308 0 0.95871855522754235 0.40006508612975411 0 1 0.39999999999978308 0 1 0.44999999999963131 0 0.95871855522754235 0.40006508612975411 0 1 0.44999999999963131 0 0.93814194660195893 0.44426664081746747 0 0.95871855522754235 0.40006508612975411 0 0.91750694127107502 0.36982372220068471 0 0.95871855522754235 0.40006508612975411 0 0.90594285160987287 0.4141265964174129 0 0.93814194660195893 0.44426664081746747 0 0.90594285160987287 0.4141265964174129 0 0.95871855522754235 0.40006508612975411 0 0.90594285160987287 0.4141265964174129 0 0.88594198078881503 0.46167788676578442 0 0.86411095495256451 0.42388805655111889 0 0.86411095495256451 0.42388805655111889 0 0.86844634540301924 0.38530937474099819 0 0.90594285160987287 0.4141265964174129 0 0.91750694127107502 0.36982372220068471 0 0.90594285160987287 0.4141265964174129 0 0.86844634540301924 0.38530937474099819 0 0.91696753777131557 0.497780560203536 0 0.88594198078881503 0.46167788676578442 0 0.93814194660195893 0.44426664081746747 0 0.93814194660195893 0.44426664081746747 0 0.88594198078881503 0.46167788676578442 0 0.90594285160987287 0.4141265964174129 0 0.91696753777131557 0.497780560203536 0 0.86907294890112186 0.52008116128001669 0 0.88594198078881503 0.46167788676578442 0 0.84723782639812573 0.48638347960178252 0 0.88594198078881503 0.46167788676578442 0 0.86907294890112186 0.52008116128001669 0 0.84723782639812573 0.48638347960178252 0 0.81441713509985358 0.51161854125224959 0 0.81400510706333218 0.47357325943904899 0 0.84723782639812573 0.48638347960178252 0 0.81400510706333218 0.47357325943904899 0 0.84925632466077294 0.45359738909549091 0 0.81973119833356312 0.43505687159469048 0 0.84925632466077294 0.45359738909549091 0 0.81400510706333218 0.47357325943904899 0 0.84723782639812573 0.48638347960178252 0 0.84925632466077294 0.45359738909549091 0 0.88594198078881503 0.46167788676578442 0 0.86411095495256451 0.42388805655111889 0 0.84925632466077294 0.45359738909549091 0 0.81973119833356312 0.43505687159469048 0 0.86411095495256451 0.42388805655111889 0 0.88594198078881503 0.46167788676578442 0 0.84925632466077294 0.45359738909549091 0 0.86411095495256451 0.42388805655111889 0 0.81308179852519835 0.39754945808726527 0 0.86844634540301924 0.38530937474099819 0 0.83573492347052902 0.36590755630746369 0 0.86844634540301924 0.38530937474099819 0 0.81308179852519835 0.39754945808726527 0 0.86411095495256451 0.42388805655111889 0 0.81973119833356312 0.43505687159469048 0 0.81308179852519835 0.39754945808726527 0 0.77354604466818633 0.40378688774472771 0 0.81973119833356312 0.43505687159469048 0 0.77972660463949339 0.45529290596363098 0 0.77354604466818633 0.40378688774472771 0 0.81308179852519835 0.39754945808726527 0 0.81973119833356312 0.43505687159469048 0 0.77354604466818633 0.40378688774472771 0 0.78145581580700685 0.34881365920033602 0 0.81308179852519835 0.39754945808726527 0 0.77354604466818633 0.40378688774472771 0 0.77972660463949339 0.45529290596363098 0 0.73483647259922602 0.44789725365921768 0 0.73483647259922602 0.44789725365921768 0 0.77972660463949339 0.45529290596363098 0 0.73947346780852752 0.49062440112282169 0 0.77846603114747959 0.49850927265137401 0 0.73947346780852752 0.49062440112282169 0 0.77972660463949339 0.45529290596363098 0 0.77846603114747959 0.49850927265137401 0 0.77972660463949339 0.45529290596363098 0 0.81400510706333218 0.47357325943904899 0 0.77846603114747959 0.49850927265137401 0 0.81400510706333218 0.47357325943904899 0 0.81441713509985358 0.51161854125224959 0 0.81973119833356312 0.43505687159469048 0 0.81400510706333218 0.47357325943904899 0 0.77972660463949339 0.45529290596363098 0 0.79999999999999982 0.29999999999999999 0 0.77075983436335049 0.25919399014334171 0 0.81486180804364938 0.26321394949780091 0 0.74999999999999989 0.29999999999999999 0 0.79999999999999982 0.29999999999999999 0 0.74999999999999989 0.29999999999999999 0 0.77075983436335049 0.25919399014334171 0 0.79999999999999982 0.29999999999999999 0 0.74999999999999989 0.29999999999999999 0 0.79999999999999982 0.29999999999999999 0 0.78145581580700685 0.34881365920033602 0 0.74999999999999989 0.29999999999999999 0 0.78145581580700685 0.34881365920033602 0 0.73090396928863699 0.33699297293167962 0 0.77354604466818633 0.40378688774472771 0 0.74764719760526988 0.3719647154012321 0 0.78145581580700685 0.34881365920033602 0 0.78145581580700685 0.34881365920033602 0 0.74764719760526988 0.3719647154012321 0 0.73090396928863699 0.33699297293167962 0 0.83573492347052902 0.36590755630746369 0 0.81308179852519835 0.39754945808726527 0 0.78145581580700685 0.34881365920033602 0 0.79999999999999982 0.29999999999999999 0 0.82500000000000062 0.33010209762754811 0 0.78145581580700685 0.34881365920033602 0 0.83573492347052902 0.36590755630746369 0 0.78145581580700685 0.34881365920033602 0 0.82500000000000062 0.33010209762754811 0 0.83573492347052902 0.36590755630746369 0 0.82500000000000062 0.33010209762754811 0 0.87430060258887643 0.34056085888204451 0 0.83573492347052902 0.36590755630746369 0 0.87430060258887643 0.34056085888204451 0 0.86844634540301924 0.38530937474099819 0 0.84999999999999987 0.29999999999999999 0 0.87430060258887643 0.34056085888204451 0 0.82500000000000062 0.33010209762754811 0 0.84999999999999987 0.29999999999999999 0 0.89999999999999991 0.29999999999999999 0 0.87430060258887643 0.34056085888204451 0 0.84999999999999987 0.29999999999999999 0 0.81486180804364938 0.26321394949780091 0 0.8517097391133297 0.2356960729520409 0 0.84999999999999987 0.29999999999999999 0 0.8517097391133297 0.2356960729520409 0 0.89898474358614167 0.25391965591104898 0 0.84999999999999987 0.29999999999999999 0 0.89999999999999991 0.29999999999999999 0 0.79999999999999982 0.29999999999999999 0 0.84999999999999987 0.29999999999999999 0 0.82500000000000062 0.33010209762754811 0 0.79999999999999982 0.29999999999999999 0 0.81486180804364938 0.26321394949780091 0 0.84999999999999987 0.29999999999999999 0 0.79999999999999982 0.29999999999999999 0 0.84999999999999987 0.29999999999999999 0 0.84999999999999987 0.29999999999999999 0 0.89898474358614167 0.25391965591104898 0 0.89999999999999991 0.29999999999999999 0 0.89999999999999991 0.29999999999999999 0 0.94999999999999996 0.29999999999999999 0 0.89999999999999991 0.29999999999999999 0 0.94999999999999996 0.29999999999999999 0 0.92012390126144183 0.33123581297173937 0 0.89999999999999991 0.29999999999999999 0 0.89898474358614167 0.25391965591104898 0 0.94999999999999996 0.29999999999999999 0 0.94999999999999996 0.29999999999999999 0 0.89898474358614167 0.25391965591104898 0 0.94399509803921056 0.24399509803922639 0 0.91750694127107502 0.36982372220068471 0 0.86844634540301924 0.38530937474099819 0 0.87430060258887643 0.34056085888204451 0 0.91750694127107502 0.36982372220068471 0 0.87430060258887643 0.34056085888204451 0 0.92012390126144183 0.33123581297173937 0 0.89999999999999991 0.29999999999999999 0 0.92012390126144183 0.33123581297173937 0 0.87430060258887643 0.34056085888204451 0 0.91750694127107502 0.36982372220068471 0 0.92012390126144183 0.33123581297173937 0 0.95780851984364423 0.34215720972155339 0 0.91750694127107502 0.36982372220068471 0 0.95780851984364423 0.34215720972155339 0 0.95871855522754235 0.40006508612975411 0 0.94999999999999996 0.29999999999999999 0 0.95780851984364423 0.34215720972155339 0 0.92012390126144183 0.33123581297173937 0 1 0.29999999999999999 0 0.95780851984364423 0.34215720972155339 0 0.94999999999999996 0.29999999999999999 0 1 0.29999999999999999 0 1 0.34999999999993492 0 0.95780851984364423 0.34215720972155339 0 1 0.34999999999993492 0 0.95871855522754235 0.40006508612975411 0 0.95780851984364423 0.34215720972155339 0 0.94999999999999996 0.29999999999999999 0 0.94399509803921056 0.24399509803922639 0 0.97166519676951801 0.26662885509932011 0 0.94999999999999996 0.29999999999999999 0 1 0.29999999999999999 0 1 0.29999999999999999 0 0.94999999999999996 0.29999999999999999 0 0.97166519676951801 0.26662885509932011 0 1 0.29999999999999999 0 0.97166519676951801 0.26662885509932011 0 1 0.24999999999987299 0 1 0.24999999999987299 0 0.97166519676951801 0.26662885509932011 0 0.97435614836740092 0.22499999999981049 0 1 0.19999999999974799 0 1 0.24999999999987299 0 0.97435614836740092 0.22499999999981049 0 0.94399509803921056 0.24399509803922639 0 0.95391631417672862 0.19584263333809451 0 0.97435614836740092 0.22499999999981049 0 0.94399509803921056 0.24399509803922639 0 0.97435614836740092 0.22499999999981049 0 0.97166519676951801 0.26662885509932011 0 1 0.19999999999974799 0 0.97435614836740092 0.22499999999981049 0 0.95391631417672862 0.19584263333809451 0 1 0.14999999999961891 0 0.95391631417672862 0.19584263333809451 0 0.93677536231883773 0.14999999999999089 0 1 0.14999999999961891 0 0.93677536231883773 0.14999999999999089 0 0.95386563387744361 0.1041487415577465 0 1 0.14999999999961891 0 1 0.19999999999974799 0 0.95391631417672862 0.19584263333809451 0 0.90416666666668166 0.20416666666667119 0 0.93677536231883773 0.14999999999999089 0 0.95391631417672862 0.19584263333809451 0 0.90416666666668166 0.20416666666667119 0 0.88088768115941807 0.14674609810479519 0 0.93677536231883773 0.14999999999999089 0 0.90299850604006393 0.09563452813493091 0 0.93677536231883773 0.14999999999999089 0 0.88088768115941807 0.14674609810479519 0 0.90416666666668166 0.20416666666667119 0 0.85600844944842547 0.1848341897950983 0 0.88088768115941807 0.14674609810479519 0 0.90416666666668166 0.20416666666667119 0 0.89898474358614167 0.25391965591104898 0 0.8517097391133297 0.2356960729520409 0 0.90416666666668166 0.20416666666667119 0 0.94399509803921056 0.24399509803922639 0 0.89898474358614167 0.25391965591104898 0 0.90416666666668166 0.20416666666667119 0 0.95391631417672862 0.19584263333809451 0 0.94399509803921056 0.24399509803922639 0 0.94999999999986839 0 0 0.97166519676946894 0.033371144900598393 0 0.94399509803922566 0.056004901960802607 0 1 0 0 0.97166519676946894 0.033371144900598393 0 0.94999999999986839 0 0 1 0 0 1 0.049999999999896842 0 0.97166519676946894 0.033371144900598393 0 1 0.049999999999896842 0 0.97435614836748241 0.074999999999825387 0 0.97166519676946894 0.033371144900598393 0 0.94399509803922566 0.056004901960802607 0 0.97166519676946894 0.033371144900598393 0 0.97435614836748241 0.074999999999825387 0 0.94399509803922566 0.056004901960802607 0 0.97435614836748241 0.074999999999825387 0 0.95386563387744361 0.1041487415577465 0 1 0.099999999999753911 0 0.95386563387744361 0.1041487415577465 0 0.97435614836748241 0.074999999999825387 0 1 0.049999999999896842 0 1 0.099999999999753911 0 0.97435614836748241 0.074999999999825387 0 1 0.099999999999753911 0 1 0.14999999999961891 0 0.95386563387744361 0.1041487415577465 0 0.90299850604006393 0.09563452813493091 0 0.95386563387744361 0.1041487415577465 0 0.93677536231883773 0.14999999999999089 0 0.90299850604006393 0.09563452813493091 0 0.88088768115941807 0.14674609810479519 0 0.84725310900442086 0.10779732082922661 0 0.90299850604006393 0.09563452813493091 0 0.85491058998398861 0.060047533455626502 0 0.899991664607802 0.045289349238254978 0 0.90299850604006393 0.09563452813493091 0 0.94399509803922566 0.056004901960802607 0 0.95386563387744361 0.1041487415577465 0 0.90299850604006393 0.09563452813493091 0 0.899991664607802 0.045289349238254978 0 0.94399509803922566 0.056004901960802607 0 0.94999999999986839 0 0 0.94399509803922566 0.056004901960802607 0 0.899991664607802 0.045289349238254978 0 0.84999999999960507 0 0 0.89999999999973679 0 0 0.899991664607802 0.045289349238254978 0 0.89999999999973679 0 0 0.94999999999986839 0 0 0.899991664607802 0.045289349238254978 0 0.79999999999947335 0 0 0.84999999999960507 0 0 0.81864958914740749 0.035890501779055867 0 0.84999999999960507 0 0 0.899991664607802 0.045289349238254978 0 0.85491058998398861 0.060047533455626502 0 0.80185942888501827 0.074520613036224564 0 0.81864958914740749 0.035890501779055867 0 0.85491058998398861 0.060047533455626502 0 0.84999999999960507 0 0 0.85491058998398861 0.060047533455626502 0 0.81864958914740749 0.035890501779055867 0 0.80185942888501827 0.074520613036224564 0 0.85491058998398861 0.060047533455626502 0 0.84725310900442086 0.10779732082922661 0 0.90299850604006393 0.09563452813493091 0 0.84725310900442086 0.10779732082922661 0 0.85491058998398861 0.060047533455626502 0 0.80185942888501827 0.074520613036224564 0 0.84725310900442086 0.10779732082922661 0 0.80076557130237269 0.1154587552654202 0 0.82709327591102189 0.14937141670914489 0 0.80076557130237269 0.1154587552654202 0 0.84725310900442086 0.10779732082922661 0 0.80185942888501827 0.074520613036224564 0 0.80076557130237269 0.1154587552654202 0 0.76878382444651716 0.097147941686331368 0 0.72525833953073282 0.1032114801687094 0 0.76878382444651716 0.097147941686331368 0 0.77144070960558853 0.14311854477243749 0 0.77144070960558853 0.14311854477243749 0 0.76878382444651716 0.097147941686331368 0 0.80076557130237269 0.1154587552654202 0 0.80185942888501827 0.074520613036224564 0 0.76878382444651716 0.097147941686331368 0 0.7527966693318906 0.053051678021508272 0 0.80185942888501827 0.074520613036224564 0 0.78393852574753176 0.032039079577822822 0 0.81864958914740749 0.035890501779055867 0 0.80185942888501827 0.074520613036224564 0 0.7527966693318906 0.053051678021508272 0 0.78393852574753176 0.032039079577822822 0 0.74999999999934175 0 0 0.78393852574753176 0.032039079577822822 0 0.7527966693318906 0.053051678021508272 0 0.74999999999934175 0 0 0.79999999999947335 0 0 0.78393852574753176 0.032039079577822822 0 0.79999999999947335 0 0 0.81864958914740749 0.035890501779055867 0 0.78393852574753176 0.032039079577822822 0 0.79680861578956375 0.22656778056752541 0 0.81283102246527783 0.1881007222486438 0 0.8517097391133297 0.2356960729520409 0 0.8517097391133297 0.2356960729520409 0 0.81283102246527783 0.1881007222486438 0 0.85600844944842547 0.1848341897950983 0 0.79680861578956375 0.22656778056752541 0 0.8517097391133297 0.2356960729520409 0 0.81486180804364938 0.26321394949780091 0 0.90416666666668166 0.20416666666667119 0 0.8517097391133297 0.2356960729520409 0 0.85600844944842547 0.1848341897950983 0 0.82709327591102189 0.14937141670914489 0 0.88088768115941807 0.14674609810479519 0 0.85600844944842547 0.1848341897950983 0 0.82709327591102189 0.14937141670914489 0 0.84725310900442086 0.10779732082922661 0 0.88088768115941807 0.14674609810479519 0 0.82709327591102189 0.14937141670914489 0 0.85600844944842547 0.1848341897950983 0 0.81283102246527783 0.1881007222486438 0 0.77144070960558853 0.14311854477243749 0 0.81283102246527783 0.1881007222486438 0 0.76587607630038135 0.18880039518954719 0 0.82709327591102189 0.14937141670914489 0 0.81283102246527783 0.1881007222486438 0 0.77144070960558853 0.14311854477243749 0 0.82709327591102189 0.14937141670914489 0 0.77144070960558853 0.14311854477243749 0 0.80076557130237269 0.1154587552654202 0 0.77144070960558853 0.14311854477243749 0 0.76587607630038135 0.18880039518954719 0 0.72634814642510737 0.16106886917518889 0 0.79680861578956375 0.22656778056752541 0 0.75668890529066124 0.2244279804069782 0 0.76587607630038135 0.18880039518954719 0 0.79680861578956375 0.22656778056752541 0 0.76587607630038135 0.18880039518954719 0 0.81283102246527783 0.1881007222486438 0 0.79680861578956375 0.22656778056752541 0 0.81486180804364938 0.26321394949780091 0 0.77075983436335049 0.25919399014334171 0 0.79680861578956375 0.22656778056752541 0 0.77075983436335049 0.25919399014334171 0 0.75668890529066124 0.2244279804069782 0 0.72500000000000064 0.2498161764706 0 0.75668890529066124 0.2244279804069782 0 0.77075983436335049 0.25919399014334171 0 0.72500000000001008 0.19776155966387679 0 0.75668890529066124 0.2244279804069782 0 0.72500000000000064 0.2498161764706 0 0.72500000000001008 0.19776155966387679 0 0.72500000000000064 0.2498161764706 0 0.69397719155551807 0.2245125647000914 0 0.72500000000000064 0.2498161764706 0 0.67933712972090698 0.25920070958121938 0 0.69397719155551807 0.2245125647000914 0 0.72500000000001008 0.19776155966387679 0 0.69397719155551807 0.2245125647000914 0 0.6865991819015953 0.189116534044597 0 0.72500000000001008 0.19776155966387679 0 0.76587607630038135 0.18880039518954719 0 0.75668890529066124 0.2244279804069782 0 0.72500000000001008 0.19776155966387679 0 0.72634814642510737 0.16106886917518889 0 0.76587607630038135 0.18880039518954719 0 0.72525833953073282 0.1032114801687094 0 0.77144070960558853 0.14311854477243749 0 0.72634814642510737 0.16106886917518889 0 0.72525833953073282 0.1032114801687094 0 0.72634814642510737 0.16106886917518889 0 0.68391457121233579 0.14440470121196541 0 0.72500000000001008 0.19776155966387679 0 0.6865991819015953 0.189116534044597 0 0.72634814642510737 0.16106886917518889 0 0.68391457121233579 0.14440470121196541 0 0.72634814642510737 0.16106886917518889 0 0.6865991819015953 0.189116534044597 0 0.68391457121233579 0.14440470121196541 0 0.6865991819015953 0.189116534044597 0 0.64011864159029941 0.18789607982138171 0 0.6236733212988993 0.14864538214901801 0 0.65290632656860115 0.11434202593454081 0 0.68391457121233579 0.14440470121196541 0 0.6236733212988993 0.14864538214901801 0 0.68391457121233579 0.14440470121196541 0 0.64011864159029941 0.18789607982138171 0 0.65394964615507722 0.22666784374016369 0 0.59814117807200873 0.23398510860739519 0 0.64011864159029941 0.18789607982138171 0 0.65394964615507722 0.22666784374016369 0 0.62657463266645097 0.26524202571255862 0 0.59814117807200873 0.23398510860739519 0 0.65394964615507722 0.22666784374016369 0 0.69397719155551807 0.2245125647000914 0 0.67933712972090698 0.25920070958121938 0 0.65394964615507722 0.22666784374016369 0 0.64011864159029941 0.18789607982138171 0 0.6865991819015953 0.189116534044597 0 0.65394964615507722 0.22666784374016369 0 0.6865991819015953 0.189116534044597 0 0.69397719155551807 0.2245125647000914 0 0.69999999999921003 0 0 0.72683645290270404 0.027797073151180601 0 0.7010294155333181 0.056779085686491267 0 0.69999999999921003 0 0 0.7010294155333181 0.056779085686491267 0 0.66369801598854572 0.036327466368102787 0 0.74999999999934175 0 0 0.7527966693318906 0.053051678021508272 0 0.72683645290270404 0.027797073151180601 0 0.69999999999921003 0 0 0.74999999999934175 0 0 0.72683645290270404 0.027797073151180601 0 0.7527966693318906 0.053051678021508272 0 0.7010294155333181 0.056779085686491267 0 0.72683645290270404 0.027797073151180601 0 0.72525833953073282 0.1032114801687094 0 0.68330259535470161 0.10038702501083881 0 0.7010294155333181 0.056779085686491267 0 0.72525833953073282 0.1032114801687094 0 0.7010294155333181 0.056779085686491267 0 0.7527966693318906 0.053051678021508272 0 0.72525833953073282 0.1032114801687094 0 0.7527966693318906 0.053051678021508272 0 0.76878382444651716 0.097147941686331368 0 0.72525833953073282 0.1032114801687094 0 0.68391457121233579 0.14440470121196541 0 0.68330259535470161 0.10038702501083881 0 0.65408113592120842 0.073941773121567966 0 0.68330259535470161 0.10038702501083881 0 0.65290632656860115 0.11434202593454081 0 0.68391457121233579 0.14440470121196541 0 0.65290632656860115 0.11434202593454081 0 0.68330259535470161 0.10038702501083881 0 0.6236733212988993 0.14864538214901801 0 0.61956000905586006 0.1043312481793135 0 0.65290632656860115 0.11434202593454081 0 0.65408113592120842 0.073941773121567966 0 0.65290632656860115 0.11434202593454081 0 0.61956000905586006 0.1043312481793135 0 0.65408113592120842 0.073941773121567966 0 0.61956000905586006 0.1043312481793135 0 0.61940220174112337 0.047251958781050582 0 0.65408113592120842 0.073941773121567966 0 0.7010294155333181 0.056779085686491267 0 0.68330259535470161 0.10038702501083881 0 0.65408113592120842 0.073941773121567966 0 0.66369801598854572 0.036327466368102787 0 0.7010294155333181 0.056779085686491267 0 0.65408113592120842 0.073941773121567966 0 0.61940220174112337 0.047251958781050582 0 0.66369801598854572 0.036327466368102787 0 0.64999999999907843 0 0 0.66369801598854572 0.036327466368102787 0 0.61940220174112337 0.047251958781050582 0 0.64999999999907843 0 0 0.69999999999921003 0 0 0.66369801598854572 0.036327466368102787 0 0.5499999999988151 0 0 0.59999999999894682 0 0 0.57396793757665954 0.037011367187645222 0 0.59999999999894682 0 0 0.64999999999907843 0 0 0.61940220174112337 0.047251958781050582 0 0.59999999999894682 0 0 0.61940220174112337 0.047251958781050582 0 0.57396793757665954 0.037011367187645222 0 0.57667858002728545 0.078486105337742612 0 0.57396793757665954 0.037011367187645222 0 0.61940220174112337 0.047251958781050582 0 0.57667858002728545 0.078486105337742612 0 0.61940220174112337 0.047251958781050582 0 0.61956000905586006 0.1043312481793135 0 0.6236733212988993 0.14864538214901801 0 0.58516465772821369 0.11653801664834119 0 0.61956000905586006 0.1043312481793135 0 0.57667858002728545 0.078486105337742612 0 0.61956000905586006 0.1043312481793135 0 0.58516465772821369 0.11653801664834119 0 0.56202748619534593 0.15054058349222879 0 0.54979595918804436 0.1060565713905809 0 0.58516465772821369 0.11653801664834119 0 0.57667858002728545 0.078486105337742612 0 0.58516465772821369 0.11653801664834119 0 0.54979595918804436 0.1060565713905809 0 0.51076801031701946 0.1202837388510348 0 0.52375890611712683 0.059318771819432882 0 0.54979595918804436 0.1060565713905809 0 0.51076801031701946 0.1202837388510348 0 0.47881186583059909 0.093591717165689425 0 0.52375890611712683 0.059318771819432882 0 0.57667858002728545 0.078486105337742612 0 0.54979595918804436 0.1060565713905809 0 0.52375890611712683 0.059318771819432882 0 0.5499999999988151 0 0 0.57396793757665954 0.037011367187645222 0 0.52375890611712683 0.059318771819432882 0 0.57667858002728545 0.078486105337742612 0 0.52375890611712683 0.059318771819432882 0 0.57396793757665954 0.037011367187645222 0 0.49999999999869432 0 0 0.5499999999988151 0 0 0.52375890611712683 0.059318771819432882 0 0.55306006949600994 0.20198184231352201 0 0.59443395090188023 0.18455690917515069 0 0.59814117807200873 0.23398510860739519 0 0.55306006949600994 0.20198184231352201 0 0.59814117807200873 0.23398510860739519 0 0.54248833945060504 0.2520322959927106 0 0.59814117807200873 0.23398510860739519 0 0.59443395090188023 0.18455690917515069 0 0.64011864159029941 0.18789607982138171 0 0.6236733212988993 0.14864538214901801 0 0.64011864159029941 0.18789607982138171 0 0.59443395090188023 0.18455690917515069 0 0.6236733212988993 0.14864538214901801 0 0.56202748619534593 0.15054058349222879 0 0.58516465772821369 0.11653801664834119 0 0.6236733212988993 0.14864538214901801 0 0.59443395090188023 0.18455690917515069 0 0.56202748619534593 0.15054058349222879 0 0.55306006949600994 0.20198184231352201 0 0.56202748619534593 0.15054058349222879 0 0.59443395090188023 0.18455690917515069 0 0.55306006949600994 0.20198184231352201 0 0.51729576145820033 0.1683240575987815 0 0.56202748619534593 0.15054058349222879 0 0.51076801031701946 0.1202837388510348 0 0.54979595918804436 0.1060565713905809 0 0.56202748619534593 0.15054058349222879 0 0.51076801031701946 0.1202837388510348 0 0.51729576145820033 0.1683240575987815 0 0.48466639505193998 0.1421439844745814 0 0.51076801031701946 0.1202837388510348 0 0.56202748619534593 0.15054058349222879 0 0.51729576145820033 0.1683240575987815 0 0.55306006949600994 0.20198184231352201 0 0.50760557329222289 0.20700468884612061 0 0.51729576145820033 0.1683240575987815 0 0.50760557329222289 0.20700468884612061 0 0.55306006949600994 0.20198184231352201 0 0.54248833945060504 0.2520322959927106 0 0.49695729691142171 0.25014895411178018 0 0.50760557329222289 0.20700468884612061 0 0.54248833945060504 0.2520322959927106 0 0.5 0.29999999999999999 0 0.49695729691142171 0.25014895411178018 0 0.54248833945060504 0.2520322959927106 0 0.5 0.29999999999999999 0 0.54999999999999993 0.29999999999999999 0 0.52752007115234678 0.33170632466418198 0 0.5 0.29999999999999999 0 0.54248833945060504 0.2520322959927106 0 0.54999999999999993 0.29999999999999999 0 0.5 0.29999999999999999 0 0.54999999999999993 0.29999999999999999 0 0.54999999999999993 0.29999999999999999 0 0.54248833945060504 0.2520322959927106 0 0.5794309697024993 0.27124795968204829 0 0.59814117807200873 0.23398510860739519 0 0.5794309697024993 0.27124795968204829 0 0.54248833945060504 0.2520322959927106 0 0.54999999999999993 0.29999999999999999 0 0.59999999999999976 0.29999999999999999 0 0.54999999999999993 0.29999999999999999 0 0.5794309697024993 0.27124795968204829 0 0.59999999999999976 0.29999999999999999 0 0.59999999999999976 0.29999999999999999 0 0.6499999999999998 0.29999999999999999 0 0.59999999999999976 0.29999999999999999 0 0.5794309697024993 0.27124795968204829 0 0.62657463266645097 0.26524202571255862 0 0.59814117807200873 0.23398510860739519 0 0.62657463266645097 0.26524202571255862 0 0.5794309697024993 0.27124795968204829 0 0.6084546825910605 0.37989672713932537 0 0.56836770495988642 0.3523062350852913 0 0.61959173890754571 0.33832250091341232 0 0.59999999999999976 0.29999999999999999 0 0.6499999999999998 0.29999999999999999 0 0.61959173890754571 0.33832250091341232 0 0.59999999999999976 0.29999999999999999 0 0.61959173890754571 0.33832250091341232 0 0.56836770495988642 0.3523062350852913 0 0.54999999999999993 0.29999999999999999 0 0.59999999999999976 0.29999999999999999 0 0.56836770495988642 0.3523062350852913 0 0.56836770495988642 0.3523062350852913 0 0.52289427570932567 0.3932284363388488 0 0.52752007115234678 0.33170632466418198 0 0.54999999999999993 0.29999999999999999 0 0.56836770495988642 0.3523062350852913 0 0.52752007115234678 0.33170632466418198 0 0.5 0.29999999999999999 0 0.52752007115234678 0.33170632466418198 0 0.49077833859261139 0.35229981449445641 0 0.52752007115234678 0.33170632466418198 0 0.52289427570932567 0.3932284363388488 0 0.49077833859261139 0.35229981449445641 0 0.52289427570932567 0.3932284363388488 0 0.56836770495988642 0.3523062350852913 0 0.57744073070774993 0.41535148636609359 0 0.52289427570932567 0.3932284363388488 0 0.57744073070774993 0.41535148636609359 0 0.53823865529665704 0.45873898050322898 0 0.52289427570932567 0.3932284363388488 0 0.53823865529665704 0.45873898050322898 0 0.48858720058566618 0.43964267759203868 0 0.49102375406324739 0.49123754822244059 0 0.53823865529665704 0.45873898050322898 0 0.53330375813596242 0.50827942741749099 0 0.49102375406324739 0.49123754822244059 0 0.48858720058566618 0.43964267759203868 0 0.53823865529665704 0.45873898050322898 0 0.57611405284611883 0.50165903596042916 0 0.53330375813596242 0.50827942741749099 0 0.53823865529665704 0.45873898050322898 0 0.57611405284611883 0.50165903596042916 0 0.57975577671020095 0.46172033326338591 0 0.61547661924074692 0.48539576058873962 0 0.57611405284611883 0.50165903596042916 0 0.53823865529665704 0.45873898050322898 0 0.57975577671020095 0.46172033326338591 0 0.61209567303293111 0.44669033081290321 0 0.57975577671020095 0.46172033326338591 0 0.57744073070774993 0.41535148636609359 0 0.53823865529665704 0.45873898050322898 0 0.57744073070774993 0.41535148636609359 0 0.57975577671020095 0.46172033326338591 0 0.61209567303293111 0.44669033081290321 0 0.61547661924074692 0.48539576058873962 0 0.57975577671020095 0.46172033326338591 0 0.6084546825910605 0.37989672713932537 0 0.57744073070774993 0.41535148636609359 0 0.56836770495988642 0.3523062350852913 0 0.61209567303293111 0.44669033081290321 0 0.57744073070774993 0.41535148636609359 0 0.63912439215427275 0.41063340167983359 0 0.6084546825910605 0.37989672713932537 0 0.63912439215427275 0.41063340167983359 0 0.57744073070774993 0.41535148636609359 0 0.6084546825910605 0.37989672713932537 0 0.65481233915350323 0.35652751921065562 0 0.63912439215427275 0.41063340167983359 0 0.6879972333610942 0.43038561374960838 0 0.65178832218679827 0.45929119821019959 0 0.63912439215427275 0.41063340167983359 0 0.6879972333610942 0.43038561374960838 0 0.63912439215427275 0.41063340167983359 0 0.68128176404677243 0.38629093627004979 0 0.65481233915350323 0.35652751921065562 0 0.68128176404677243 0.38629093627004979 0 0.63912439215427275 0.41063340167983359 0 0.6541250972820879 0.49999999999999989 0 0.61547661924074692 0.48539576058873962 0 0.65178832218679827 0.45929119821019959 0 0.61209567303293111 0.44669033081290321 0 0.65178832218679827 0.45929119821019959 0 0.61547661924074692 0.48539576058873962 0 0.61209567303293111 0.44669033081290321 0 0.63912439215427275 0.41063340167983359 0 0.65178832218679827 0.45929119821019959 0 0.6879972333610942 0.43038561374960838 0 0.69385896817107129 0.48377516041410151 0 0.65178832218679827 0.45929119821019959 0 0.6541250972820879 0.49999999999999989 0 0.65178832218679827 0.45929119821019959 0 0.69385896817107129 0.48377516041410151 0 0.7152569930854884 0.5237994455134295 0 0.69385896817107129 0.48377516041410151 0 0.73947346780852752 0.49062440112282169 0 0.6879972333610942 0.43038561374960838 0 0.73483647259922602 0.44789725365921768 0 0.69385896817107129 0.48377516041410151 0 0.73483647259922602 0.44789725365921768 0 0.73947346780852752 0.49062440112282169 0 0.69385896817107129 0.48377516041410151 0 0.71508799138962864 0.36622814920737751 0 0.72622533758026719 0.40265885511101601 0 0.68128176404677243 0.38629093627004979 0 0.6879972333610942 0.43038561374960838 0 0.72622533758026719 0.40265885511101601 0 0.73483647259922602 0.44789725365921768 0 0.6879972333610942 0.43038561374960838 0 0.68128176404677243 0.38629093627004979 0 0.72622533758026719 0.40265885511101601 0 0.77354604466818633 0.40378688774472771 0 0.73483647259922602 0.44789725365921768 0 0.72622533758026719 0.40265885511101601 0 0.71508799138962864 0.36622814920737751 0 0.74764719760526988 0.3719647154012321 0 0.72622533758026719 0.40265885511101601 0 0.77354604466818633 0.40378688774472771 0 0.72622533758026719 0.40265885511101601 0 0.74764719760526988 0.3719647154012321 0 0.71508799138962864 0.36622814920737751 0 0.73090396928863699 0.33699297293167962 0 0.74764719760526988 0.3719647154012321 0 0.71508799138962864 0.36622814920737751 0 0.68887083591306764 0.33632058575757479 0 0.73090396928863699 0.33699297293167962 0 0.71508799138962864 0.36622814920737751 0 0.68128176404677243 0.38629093627004979 0 0.68887083591306764 0.33632058575757479 0 0.69999999999999984 0.29999999999999999 0 0.73090396928863699 0.33699297293167962 0 0.68887083591306764 0.33632058575757479 0 0.69999999999999984 0.29999999999999999 0 0.72500000000000064 0.2498161764706 0 0.74999999999999989 0.29999999999999999 0 0.69999999999999984 0.29999999999999999 0 0.74999999999999989 0.29999999999999999 0 0.69999999999999984 0.29999999999999999 0 0.74999999999999989 0.29999999999999999 0 0.73090396928863699 0.33699297293167962 0 0.74999999999999989 0.29999999999999999 0 0.72500000000000064 0.2498161764706 0 0.77075983436335049 0.25919399014334171 0 0.69999999999999984 0.29999999999999999 0 0.67933712972090698 0.25920070958121938 0 0.72500000000000064 0.2498161764706 0 0.6499999999999998 0.29999999999999999 0 0.67933712972090698 0.25920070958121938 0 0.69999999999999984 0.29999999999999999 0 0.6499999999999998 0.29999999999999999 0 0.69999999999999984 0.29999999999999999 0 0.68887083591306764 0.33632058575757479 0 0.6499999999999998 0.29999999999999999 0 0.69999999999999984 0.29999999999999999 0 0.6499999999999998 0.29999999999999999 0 0.62657463266645097 0.26524202571255862 0 0.67933712972090698 0.25920070958121938 0 0.65394964615507722 0.22666784374016369 0 0.67933712972090698 0.25920070958121938 0 0.62657463266645097 0.26524202571255862 0 0.59999999999999976 0.29999999999999999 0 0.62657463266645097 0.26524202571255862 0 0.6499999999999998 0.29999999999999999 0 0.6499999999999998 0.29999999999999999 0 0.65481233915350323 0.35652751921065562 0 0.61959173890754571 0.33832250091341232 0 0.6084546825910605 0.37989672713932537 0 0.61959173890754571 0.33832250091341232 0 0.65481233915350323 0.35652751921065562 0 0.65481233915350323 0.35652751921065562 0 0.68887083591306764 0.33632058575757479 0 0.68128176404677243 0.38629093627004979 0 0.6499999999999998 0.29999999999999999 0 0.68887083591306764 0.33632058575757479 0 0.65481233915350323 0.35652751921065562 0 
</DataArray>
</Points>
<Cells>
<DataArray type="UInt32" Name="connectivity" format="ascii">
0 1 2 3 4 5 6 7 8 9 10 11 12 13 14 15 16 17 18 19 20 21 22 23 24 25 26 27 28 29 30 31 32 33 34 35 36 37 38 39 40 41 42 43 44 45 46 47 48 49 50 51 52 53 54 55 56 57 58 59 60 61 62 63 64 65 66 67 68 69 70 71 72 73 74 75 76 77 78 79 80 81 82 83 84 85 86 87 88 89 90 91 92 93 94 95 96 97 98 99 100 101 102 103 104 105 106 107 108 109 110 111 112 113 114 115 116 117 118 119 120 121 122 123 124 125 126 127 128 129 130 131 132 133 134 135 136 137 138 139 140 141 142 143 144 145 146 147 148 149 150 151 152 153 154 155 156 157 158 159 160 161 162 163 164 165 166 167 168 169 170 171 172 173 174 175 176 177 178 179 180 181 182 183 184 185 186 187 188 189 190 191 192 193 194 195 196 197 198 199 200 201 202 203 204 205 206 207 208 209 210 211 212 213 214 215 216 217 218 219 220 221 222 223 224 225 226 227 228 229 230 231 232 233 234 235 236 237 238 239 240 241 242 243 244 245 246 247 248 249 250 251 252 253 254 255 256 257 258 259 260 261 262 263 264 265 266 267 268 269 270 271 272 273 274 275 276 277 278 279 280 281 282 283 284 285 286 287 288 289 290 291 292 293 294 295 296 297 298 299 300 301 302 303 304 305 306 307 308 309 310 311 312 313 314 315 316 317 318 319 320 321 322 323 324 325 326 327 328 329 330 331 332 333 334 335 336 337 338 339 340 341 342 343 344 345 346 347 348 349 350 351 352 353 354 355 356 357 358 359 360 361 362 363 364 365 366 367 368 369 370 371 372 373 374 375 376 377 378 379 380 381 382 383 384 385 386 387 388 389 390 391 392 393 394 395 396 397 398 399 400 401 402 403 404 405 406 407 408 409 410 411 412 413 414 415 416 417 418 419 420 421 422 423 424 425 426 427 428 429 430 431 432 433 434 435 436 437 438 439 440 441 442 443 444 445 446 447 448 449 450 451 452 453 454 455 456 457 458 459 460 461 462 463 464 465 466 467 468 469 470 471 472 473 474 475 476 477 478 479 480 481 482 483 484 485 486 487 488 489 490 491 492 493 494 495 496 497 498 499 500 501 502 503 504 505 506 507 508 509 510 511 512 513 514 515 516 517 518 519 520 521 522 523 524 525 526 527 528 529 530 531 532 533 534 535 536 537 538 539 540 541 542 543 544 545 546 547 548 549 550 551 552 553 554 555 556 557 558 559 560 561 562 563 564 565 566 567 568 569 570 571 572 573 574 575 576 577 578 579 580 581 582 583 584 585 586 587 588 589 590 591 592 593 594 595 596 597 598 599 600 601 602 603 604 605 606 607 608 609 610 611 612 613 614 615 616 617 618 619 620 621 622 623 624 625 626 627 628 629 630 631 632 633 634 635 636 637 638 639 640 641 642 643 644 645 646 647 648 649 650 651 652 653 654 655 656 657 658 659 660 661 662 663 664 665 666 667 668 669 670 671 672 673 674 675 676 677 678 679 680 681 682 683 684 685 686 687 688 689 690 691 692 693 694 695 696 697 698 699 700 701 702 703 704 705 706 707 708 709 710 711 712 713 714 715 716 717 718 719 720 721 722 723 724 725 726 727 728 729 730 731 732 733 734 735 736 737 738 739 740 741 742 743 744 745 746 747 748 749 750 751 752 753 754 755 756 757 758 759 760 761 762 763 764 765 766 767 768 769 770 771 772 773 774 775 776 777 778 779 780 781 782 783 784 785 786 787 788 789 790 791 792 793 794 795 796 797 798 799 800 801 802 803 804 805 806 807 808 809 810 811 812 813 814 815 816 817 818 819 820 821 822 823 824 825 826 827 828 829 830 831 832 833 834 835 836 837 838 839 840 841 842 843 844 845 846 847 848 849 850 851 852 853 854 855 856 857 858 859 860 861 862 863 864 865 866 867 868 869 870 871 872 873 874 875 876 877 878 879 880 881 882 883 884 885 886 887 888 889 890 891 892 893 894 895 896 897 898 899 900 901 902 903 904 905 906 907 908 909 910 911 912 913 914 915 916 917 918 919 920 921 922 923 924 925 926 927 928 929 930 931 932 933 934 935 936 937 938 939 940 941 942 943 944 945 946 947 948 949 950 951 952 953 954 955 956 957 958 959 960 961 962 963 964 965 966 967 968 969 970 971 972 973 974 975 976 977 978 979 980 981 982 983 984 985 986 987 988 989 990 991 992 993 994 995 996 997 998 999 1000 1001 1002 1003 1004 1005 1006 1007 1008 1009 1010 1011 1012 1013 1014 1015 1016 1017 1018 1019 1020 1021 1022 1023 1024 1025 1026 1027 1028 1029 1030 1031 1032 1033 1034 1035 1036 1037 1038 1039 1040 1041 1042 1043 1044 1045 1046 1047 1048 1049 1050 1051 1052 1053 1054 1055 1056 1057 1058 1059 1060 1061 1062 1063 1064 1065 1066 1067 1068 1069 1070 1071 1072 1073 1074 1075 1076 1077 1078 1079 1080 1081 1082 1083 1084 1085 1086 1087 1088 1089 1090 1091 1092 1093 1094 1095 1096 1097 1098 1099 1100 1101 1102 1103 1104 1105 1106 1107 1108 1109 1110 1111 1112 1113 1114 1115 1116 1117 1118 1119 1120 1121 1122 1123 1124 1125 1126 1127 1128 1129 1130 1131 1132 1133 1134 1135 1136 1137 1138 1139 1140 1141 1142 1143 1144 1145 1146 1147 1148 1149 1150 1151 1152 1153 1154 1155 1156 1157 1158 1159 1160 1161 1162 1163 1164 1165 1166 1167 1168 1169 1170 1171 1172 1173 1174 1175 1176 1177 1178 1179 1180 1181 1182 1183 1184 1185 1186 1187 1188 1189 1190 1191 1192 1193 1194 1195 1196 1197 1198 1199 1200 1201 1202 1203 1204 1205 1206 1207 1208 1209 1210 1211 1212 1213 1214 1215 1216 1217 1218 1219 1220 1221 1222 1223 1224 1225 1226 1227 1228 1229 1230 1231 1232 1233 1234 1235 1236 1237 1238 1239 1240 1241 1242 1243 1244 1245 1246 1247 1248 1249 1250 1251 1252 1253 1254 1255 1256 1257 1258 1259 1260 1261 1262 1263 1264 1265 1266 1267 1268 1269 1270 1271 1272 1273 1274 1275 1276 1277 1278 1279 1280 1281 1282 1283 1284 1285 1286 1287 1288 1289 1290 1291 1292 1293 1294 1295 1296 1297 1298 1299 1300 1301 1302 1303 1304 1305 1306 1307 1308 1309 1310 1311 1312 1313 1314 1315 1316 1317 1318 1319 1320 1321 1322 1323 1324 1325 1326 1327 1328 1329 1330 1331 1332 1333 1334 1335 1336 1337 1338 1339 1340 1341 1342 1343 1344 1345 1346 1347 1348 1349 1350 1351 1352 1353 1354 1355 1356 1357 1358 1359 1360 1361 1362 1363 1364 1365 1366 1367 1368 1369 1370 1371 1372 1373 1374 1375 1376 1377 1378 1379 1380 1381 1382 1383 1384 1385 1386 1387 1388 1389 1390 1391 1392 1393 1394 1395 1396 1397 1398 1399 1400 1401 1402 1403 1404 1405 1406 1407 1408 1409 1410 1411 1412 1413 1414 1415 1416 1417 1418 1419 1420 1421 1422 1423 1424 1425 1426 1427 1428 1429 1430 1431 1432 1433 1434 1435 1436 1437 1438 1439 1440 1441 1442 1443 1444 1445 1446 1447 1448 1449 1450 1451 1452 1453 1454 1455 1456 1457 1458 1459 1460 1461 1462 1463 1464 1465 1466 1467 1468 1469 1470 1471 1472 1473 1474 1475 1476 1477 1478 1479 1480 1481 1482 1483 1484 1485 1486 1487 1488 1489 1490 1491 1492 1493 1494 1495 1496 1497 1498 1499 1500 1501 1502 1503 1504 1505 1506 1507 1508 1509 1510 1511 1512 1513 1514 1515 1516 1517 1518 1519 1520 1521 1522 1523 1524 1525 1526 1527 1528 1529 1530 1531 1532 1533 1534 1535 1536 1537 1538 1539 1540 1541 1542 1543 1544 1545 1546 1547 1548 1549 1550 1551 1552 1553 1554 1555 1556 1557 1558 1559 1560 1561 1562 1563 1564 1565 1566 1567 1568 1569 1570 1571 1572 1573 1574 1575 1576 1577 1578 1579 1580 1581 1582 1583 1584 1585 1586 1587 1588 1589 1590 1591 1592 1593 1594 1595 1596 1597 1598 1599 1600 1601 1602 1603 1604 1605 1606 1607 1608 1609 1610 1611 1612 1613 1614 1615 1616 1617 1618 1619 1620 1621 1622 1623 1624 1625 1626 1627 1628 1629 1630 1631 1632 1633 1634 1635 1636 1637 1638 1639 1640 1641 1642 1643 1644 1645 1646 1647 1648 1649 1650 1651 1652 1653 1654 1655 1656 1657 1658 1659 1660 1661 1662 1663 1664 1665 1666 1667 1668 1669 1670 1671 1672 1673 1674 1675 1676 1677 1678 1679 1680 1681 1682 1683 1684 1685 1686 1687 1688 1689 1690 1691 1692 1693 1694 1695 1696 1697 1698 1699 1700 1701 1702 1703 1704 1705 1706 1707 1708 1709 1710 1711 1712 1713 1714 1715 1716 1717 1718 1719 1720 1721 1722 1723 1724 1725 1726 1727 1728 1729 1730 1731 1732 1733 1734 1735 1736 1737 1738 1739 1740 1741 1742 1743 1744 1745 1746 1747 1748 1749 1750 1751 1752 1753 1754 1755 1756 1757 1758 1759 1760 1761 1762 1763 1764 1765 1766 1767 1768 1769 1770 1771 1772 1773 1774 1775 1776 1777 1778 1779 1780 1781 1782 1783 1784 1785 1786 1787 1788 1789 1790 1791 1792 1793 1794 1795 1796 1797 1798 1799 1800 1801 1802 1803 1804 1805 1806 1807 1808 1809 1810 1811 1812 1813 1814 1815 1816 1817 1818 1819 1820 1821 1822 1823 1824 1825 1826 1827 1828 1829 1830 1831 1832 1833 1834 1835 1836 1837 1838 1839 1840 1841 1842 1843 1844 1845 1846 1847 1848 1849 1850 1851 1852 1853 1854 1855 1856 1857 1858 1859 1860 1861 1862 1863 1864 1865 1866 1867 1868 1869 1870 1871 1872 1873 1874 1875 1876 1877 1878 1879 1880 1881 1882 1883 1884 1885 1886 1887 1888 1889 1890 1891 1892 1893 1894 1895 1896 1897 1898 1899 1900 1901 1902 1903 1904 1905 1906 1907 1908 1909 1910 1911 1912 1913 1914 1915 1916 1917 1918 1919 1920 1921 1922 1923 1924 1925 1926 1927 1928 1929 1930 1931 1932 1933 1934 1935 1936 1937 1938 1939 1940 1941 1942 1943 1944 1945 1946 1947 1948 1949 1950 1951 1952 1953 1954 1955 1956 1957 1958 1959 1960 1961 1962 1963 1964 1965 1966 1967 1968 1969 1970 1971 1972 1973 1974 1975 1976 1977 1978 1979 1980 1981 1982 1983 1984 1985 1986 1987 1988 1989 1990 1991 1992 1993 1994 1995 1996 1997 1998 1999 2000 2001 2002 2003 2004 2005 2006 2007 2008 2009 2010 2011 2012 2013 2014 2015 2016 2017 2018 2019 2020 2021 2022 2023 2024 2025 2026 2027 2028 2029 2030 2031 2032 2033 2034 2035 2036 2037 2038 2039 2040 2041 2042 2043 2044 2045 2046 2047 2048 2049 2050 2051 2052 2053 2054 2055 2056 2057 2058 2059 2060 2061 2062 2063 2064 2065 2066 2067 2068 2069 2070 2071 2072 2073 2074 2075 2076 2077 2078 2079 2080 2081 2082 2083 2084 2085 2086 2087 2088 2089 2090 2091 2092 2093 2094 2095 2096 2097 2098 2099 2100 2101 2102 2103 2104 2105 2106 2107 2108 2109 2110 2111 2112 2113 2114 2115 2116 2117 2118 2119 2120 2121 2122 2123 2124 2125 2126 2127 2128 2129 2130 2131 2132 2133 2134 2135 2136 2137 2138 2139 2140 2141 2142 2143 2144 2145 2146 2147 2148 2149 2150 2151 2152 2153 2154 2155 2156 2157 2158 2159 2160 2161 2162 2163 2164 2165 2166 2167 2168 2169 2170 2171 2172 2173 2174 2175 2176 2177 2178 2179 2180 2181 2182 2183 2184 2185 2186 2187 2188 2189 2190 2191 2192 2193 2194 2195 2196 2197 2198 2199 2200 2201 2202 2203 2204 2205 2206 2207 2208 2209 2210 2211 2212 2213 2214 2215 2216 2217 2218 2219 2220 2221 2222 2223 2224 2225 2226 2227 2228 2229 2230 2231 2232 2233 2234 2235 2236 2237 2238 2239 2240 2241 2242 2243 2244 2245 2246 2247 2248 2249 2250 2251 2252 2253 2254 2255 2256 2257 2258 2259 2260 2261 2262 2263 2264 2265 2266 2267 2268 2269 2270 2271 2272 2273 2274 2275 2276 2277 2278 2279 2280 2281 2282 2283 2284 2285 2286 2287 2288 2289 2290 2291 2292 2293 2294 2295 2296 2297 2298 2299 2300 2301 2302 2303 2304 2305 2306 2307 2308 2309 2310 2311 2312 2313 2314 2315 2316 2317 2318 2319 2320 2321 2322 2323 2324 2325 2326 2327 2328 2329 2330 2331 2332 2333 2334 2335 2336 2337 2338 2339 2340 2341 2342 2343 2344 2345 2346 2347 2348 2349 2350 2351 2352 2353 2354 2355 2356 2357 2358 2359 2360 2361 2362 2363 2364 2365 2366 2367 2368 2369 2370 2371 2372 2373 2374 2375 2376 2377 2378 2379 2380 2381 2382 2383 2384 2385 2386 2387 2388 2389 2390 2391 2392 2393 2394 2395 2396 2397 2398 2399 2400 2401 2402 2403 2404 2405 2406 2407 2408 2409 2410 2411 2412 2413 2414 2415 2416 2417 2418 2419 2420 2421 2422 2423 2424 2425 2426 2427 2428 2429 2430 2431 2432 2433 2434 2435 2436 2437 2438 2439 2440 2441 2442 2443 2444 2445 2446 2447 2448 2449 2450 2451 2452 2453 2454 2455 2456 2457 2458 2459 2460 2461 2462 2463 2464 2465 2466 2467 2468 2469 2470 2471 2472 2473 2474 2475 2476 2477 2478 2479 2480 2481 2482 2483 2484 2485 2486 2487 2488 2489 2490 2491 2492 2493 2494 2495 2496 2497 2498 2499 2500 2501 2502 2503 2504 2505 2506 2507 2508 2509 2510 2511 2512 2513 2514 2515 2516 2517 2518 2519 2520 2521 2522 2523 2524 2525 2526 2527 2528 2529 2530 2531 2532 2533 2534 2535 2536 2537 2538 2539 2540 2541 2542 2543 2544 2545 2546 2547 2548 2549 2550 2551 2552 2553 2554 2555 2556 2557 2558 2559 2560 2561 2562 2563 2564 2565 2566 2567 2568 2569 2570 2571 2572 2573 2574 2575 2576 2577 2578 2579 2580 2581 2582 2583 2584 2585 2586 2587 2588 2589 2590 2591 2592 2593 2594 2595 2596 2597 2598 2599 2600 2601 2602 2603 2604 2605 2606 2607 2608 2609 2610 2611 2612 2613 2614 2615 2616 2617 2618 2619 2620 2621 2622 2623 2624 2625 2626 2627 2628 2629 2630 2631 2632 2633 2634 2635 2636 2637 2638 2639 2640 2641 2642 2643 2644 2645 2646 2647 2648 2649 2650 2651 2652 2653 2654 2655 2656 2657 2658 2659 2660 2661 2662 2663 2664 2665 2666 2667 2668 2669 2670 2671 2672 2673 2674 2675 2676 2677 2678 2679 2680 2681 2682 2683 2684 2685 2686 2687 2688 2689 2690 2691 2692 2693 2694 2695 2696 2697 2698 2699 2700 2701 2702 2703 2704 2705 2706 2707 2708 2709 2710 2711 2712 2713 2714 2715 2716 2717 2718 2719 2720 2721 2722 2723 2724 2725 2726 2727 2728 2729 2730 2731 2732 2733 2734 2735 2736 2737 2738 2739 2740 2741 2742 2743 2744 2745 2746 2747 2748 2749 2750 2751 2752 2753 2754 2755 2756 2757 2758 2759 2760 2761 2762 2763 2764 2765 2766 2767 2768 2769 2770 2771 2772 2773 2774 2775 2776 2777 2778 2779 2780 2781 2782 2783 2784 2785 2786 2787 2788 2789 2790 2791 2792 2793 2794 2795 2796 2797 2798 2799 2800 2801 2802 2803 2804 2805 2806 2807 2808 2809 2810 2811 2812 2813 2814 2815 2816 2817 2818 2819 2820 2821 2822 2823 2824 2825 2826 2827 2828 2829 2830 2831 2832 2833 2834 2835 2836 2837 2838 2839 2840 2841 2842 2843 2844 2845 2846 2847 2848 2849 2850 2851 2852 2853 2854 2855 2856 2857 2858 2859 2860 2861 2862 2863 2864 2865 2866 2867 2868 2869 2870 2871 2872 2873 2874 2875 2876 2877 2878 2879 2880 2881 2882 2883 2884 2885 2886 2887 2888 2889 2890 2891 2892 2893 2894 2895 2896 2897 2898 2899 2900 2901 2902 2903 2904 2905 2906 2907 2908 2909 2910 2911 2912 2913 2914 2915 2916 2917 2918 2919 2920 2921 2922 2923 2924 2925 2926 2927 2928 2929 2930 2931 2932 2933 2934 2935 2936 2937 2938 2939 2940 2941 2942 2943 2944 2945 2946 2947 2948 2949 2950 2951 2952 2953 2954 2955 2956 2957 2958 2959 2960 2961 2962 2963 2964 2965 2966 2967 2968 2969 2970 2971 2972 2973 2974 2975 2976 2977 2978 2979 2980 2981 2982 2983 2984 2985 2986 2987 2988 2989 2990 2991 2992 2993 2994 2995 2996 2997 2998 2999 3000 3001 3002 3003 3004 3005 3006 3007 3008 3009 3010 3011 3012 3013 3014 3015 3016 3017 3018 3019 3020 3021 3022 3023 3024 3025 3026 3027 3028 3029 3030 3031 3032 3033 3034 3035 3036 3037 3038 3039 3040 3041 3042 3043 3044 3045 3046 3047 3048 3049 3050 3051 3052 3053 3054 3055 3056 3057 3058 3059 3060 3061 3062 3063 3064 3065 3066 3067 3068 3069 3070 3071 3072 3073 3074 3075 3076 3077 3078 3079 3080 3081 3082 3083 3084 3085 3086 3087 3088 3089 3090 3091 3092 3093 3094 3095 3096 3097 3098 3099 3100 3101 3102 3103 3104 3105 3106 3107 3108 3109 3110 3111 3112 3113 3114 3115 3116 3117 3118 3119 3120 3121 3122 3123 3124 3125 3126 3127 3128 3129 3130 3131 3132 3133 3134 3135 3136 3137 3138 3139 3140 3141 
</DataArray>
<DataArray type="UInt32" Name="offsets" format="ascii">
3 6 9 12 15 18 21 24 27 30 33 36 39 42 45 48 51 54 57 60 63 66 69 72 75 78 81 84 87 90 93 96 99 102 105 108 111 114 117 120 123 126 129 132 135 138 141 144 147 150 153 156 159 162 165 168 171 174 177 180 183 186 189 192 195 198 201 204 207 210 213 216 219 222 225 228 231 234 237 240 243 246 249 252 255 258 261 264 267 270 273 276 279 282 285 288 291 294 297 300 303 306 309 312 315 318 321 324 327 330 333 336 339 342 345 348 351 354 357 360 363 366 369 372 375 378 381 384 387 390 393 396 399 402 405 408 411 414 417 420 423 426 429 432 435 438 441 444 447 450 453 456 459 462 465 468 471 474 477 480 483 486 489 492 495 498 501 504 507 510 513 516 519 522 525 528 531 534 537 540 543 546 549 552 555 558 561 564 567 570 573 576 579 582 585 588 591 594 597 600 603 606 609 612 615 618 621 624 627 630 633 636 639 642 645 648 651 654 657 660 663 666 669 672 675 678 681 684 687 690 693 696 699 702 705 708 711 714 717 720 723 726 729 732 735 738 741 744 747 750 753 756 759 762 765 768 771 774 777 780 783 786 789 792 795 798 801 804 807 810 813 816 819 822 825 828 831 834 837 840 843 846 849 852 855 858 861 864 867 870 873 876 879 882 885 888 891 894 897 900 903 906 909 912 915 918 921 924 927 930 933 936 939 942 945 948 951 954 957 960 963 966 969 972 975 978 981 984 987 990 993 996 999 1002 1005 1008 1011 1014 1017 1020 1023 1026 1029 1032 1035 1038 1041 1044 1047 1050 1053 1056 1059 1062 1065 1068 1071 1074 1077 1080 1083 1086 1089 1092 1095 1098 1101 1104 1107 1110 1113 1116 1119 1122 1125 1128 1131 1134 1137 1140 1143 1146 1149 1152 1155 1158 1161 1164 1167 1170 1173 1176 1179 1182 1185 1188 1191 1194 1197 1200 1203 1206 1209 1212 1215 1218 1221 1224 1227 1230 1233 1236 1239 1242 1245 1248 1251 1254 1257 1260 1263 1266 1269 1272 1275 1278 1281 1284 1287 1290 1293 1296 1299 1302 1305 1308 1311 1314 1317 1320 1323 1326 1329 1332 1335 1338 1341 1344 1347 1350 1353 1356 1359 1362 1365 1368 1371 1374 1377 1380 1383 1386 1389 1392 1395 1398 1401 1404 1407 1410 1413 1416 1419 1422 1425 1428 1431 1434 1437 1440 1443 1446 1449 1452 1455 1458 1461 1464 1467 1470 1473 1476 1479 1482 1485 1488 1491 1494 1497 1500 1503 1506 1509 1512 1515 1518 1521 1524 1527 1530 1533 1536 1539 1542 1545 1548 1551 1554 1557 1560 1563 1566 1569 1572 1575 1578 1581 1584 1587 1590 1593 1596 1599 1602 1605 1608 1611 1614 1616 1619 1622 1624 1627 1630 1632 1635 1638 1641 1644 1647 1650 1653 1656 1659 1662 1665 1668 1671 1673 1676 1679 1682 1685 1688 1690 1693 1696 1699 1702 1705 1708 1711 1714 1717 1720 1723 1726 1729 1732 1735 1738 1741 1744 1747 1750 1753 1756 1759 1762 1765 1768 1771 1774 1777 1780 1783 1786 1789 1792 1795 1798 1801 1804 1807 1810 1813 1816 1819 1822 1825 1828 1831 1834 1837 1840 1843 1846 1849 1852 1855 1858 1861 1864 1867 1870 1873 1876 1879 1882 1885 1888 1891 1894 1897 1900 1903 1906 1909 1912 1915 1918 1921 1924 1927 1930 1933 1936 1939 1942 1945 1948 1951 1954 1957 1960 1963 1966 1969 1972 1975 1978 1981 1984 1987 1990 1993 1996 1999 2002 2005 2008 2011 2014 2017 2020 2023 2026 2029 2032 2035 2038 2041 2044 2047 2050 2053 2056 2059 2062 2065 2068 2071 2074 2077 2080 2083 2086 2089 2092 2095 2098 2101 2104 2107 2110 2113 2116 2119 2122 2125 2128 2131 2134 2137 2140 2143 2146 2149 2152 2155 2158 2161 2164 2167 2170 2173 2176 2179 2182 2185 2188 2191 2194 2196 2199 2202 2205 2207 2210 2213 2215 2218 2221 2224 2227 2230 2233 2236 2239 2242 2245 2248 2250 2253 2256 2259 2262 2264 2267 2270 2273 2276 2279 2282 2285 2288 2291 2294 2297 2300 2303 2306 2309 2312 2315 2318 2321 2324 2327 2330 2333 2336 2339 2342 2345 2348 2351 2354 2357 2360 2363 2366 2369 2372 2375 2378 2381 2384 2387 2390 2393 2396 2399 2402 2405 2408 2411 2414 2417 2420 2423 2426 2429 2432 2435 2438 2440 2443 2446 2449 2452 2455 2458 2461 2464 2467 2470 2473 2476 2479 2482 2484 2487 2490 2492 2495 2497 2500 2503 2506 2509 2512 2515 2518 2521 2524 2527 2530 2533 2536 2538 2541 2544 2547 2550 2553 2556 2559 2562 2565 2568 2571 2574 2577 2580 2583 2586 2589 2592 2595 2598 2601 2604 2607 2610 2613 2616 2619 2622 2625 2628 2631 2634 2637 2640 2643 2646 2649 2652 2655 2658 2661 2664 2667 2670 2673 2676 2679 2682 2685 2688 2691 2694 2697 2700 2703 2706 2709 2712 2715 2718 2721 2724 2727 2730 2733 2736 2739 2742 2745 2748 2751 2754 2757 2760 2763 2766 2769 2772 2775 2778 2781 2784 2787 2790 2793 2796 2799 2802 2805 2808 2811 2814 2817 2820 2823 2826 2829 2832 2835 2838 2841 2844 2847 2850 2853 2856 2859 2862 2865 2868 2871 2874 2877 2880 2883 2886 2889 2892 2895 2898 2901 2904 2907 2910 2913 2916 2919 2922 2925 2928 2931 2934 2937 2940 2943 2946 2948 2951 2954 2956 2959 2961 2964 2967 2970 2973 2976 2979 2982 2985 2988 2991 2994 2997 3000 3003 3006 3009 3012 3015 3018 3021 3024 3027 3030 3033 3036 3039 3042 3045 3048 3051 3054 3057 3060 3063 3066 3069 3072 3075 3078 3081 3084 3087 3090 3093 3096 3099 3102 3104 3107 3110 3113 3116 3119 3121 3124 3127 3130 3133 3136 3139 3142 
</DataArray>
<DataArray type="UInt32" Name="types" format="ascii">
5 5 5 5 5 5 5 5 5 5 5 5 5 5 5 5 5 5 5 5 5 5 5 5 5 5 5 5 5 5 5 5 5 5 5 5 5 5 5 5 5 5 5 5 5 5 5 5 5 5 5 5 5 5 5 5 5 5 5 5 5 5 5 5 5 5 5 5 5 5 5 5 5 5 5 5 5 5 5 5 5 5 5 5 5 5 5 5 5 5 5 5 5 5 5 5 5 5 5 5 5 5 5 5 5 5 5 5 5 5 5 5 5 5 5 5 5 5 5 5 5 5 5 5 5 5 5 5 5 5 5 5 5 5 5 5 5 5 5 5 5 5 5 5 5 5 5 5 5 5 5 5 5 5 5 5 5 5 5 5 5 5 5 5 5 5 5 5 5 5 5 5 5 5 5 5 5 5 5 5 5 5 5 5 5 5 5 5 5 5 5 5 5 5 5 5 5 5 5 5 5 5 5 5 5 5 5 5 5 5 5 5 5 5 5 5 5 5 5 5 5 5 5 5 5 5 5 5 5 5 5 5 5 5 5 5 5 5 5 5 5 5 5 5 5 5 5 5 5 5 5 5 5 5 5 5 5 5 5 5 5 5 5 5 5 5 5 5 5 5 5 5 5 5 5 5 5 5 5 5 5 5 5 5 5 5 5 5 5 5 5 5 5 5 5 5 5 5 5 5 5 5 5 5 5 5 5 5 5 5 5 5 5 5 5 5 5 5 5 5 5 5 5 5 5 5 5 5 5 5 5 5 5 5 5 5 5 5 5 5 5 5 5 5 5 5 5 5 5 5 5 5 5 5 5 5 5 5 5 5 5 5 5 5 5 5 5 5 5 5 5 5 5 5 5 5 5 5 5 5 5 5 5 5 5 5 5 5 5 5 5 5 5 5 5 5 5 5 5 5 5 5 5 5 5 5 5 5 5 5 5 5 5 5 5 5 5 5 5 5 5 5 5 5 5 5 5 5 5 5 5 5 5 5 5 5 5 5 5 5 5 5 5 5 5 5 5 5 5 5 5 5 5 5 5 5 5 5 5 5 5 5 5 5 5 5 5 5 5 5 5 5 5 5 5 5 5 5 5 5 5 5 5 5 5 5 5 5 5 5 5 5 5 5 5 5 5 5 5 5 5 5 5 5 5 5 5 5 5 5 5 5 5 5 5 5 5 5 5 5 5 5 5 5 5 5 5 5 5 5 5 5 5 5 5 5 5 5 3 5 5 3 5 5 3 5 5 5 5 5 5 5 5 5 5 5 5 5 3 5 5 5 5 5 3 5 5 5 5 5 5 5 5 5 5 5 5 5 5 5 5 5 5 5 5 5 5 5 5 5 5 5 5 5 5 5 5 5 5 5 5 5 5 5 5 5 5 5 5 5 5 5 5 5 5 5 5 5 5 5 5 5 5 5 5 5 5 5 5 5 5 5 5 5 5 5 5 5 5 5 5 5 5 5 5 5 5 5 5 5 5 5 5 5 5 5 5 5 5 5 5 5 5 5 5 5 5 5 5 5 5 5 5 5 5 5 5 5 5 5 5 5 5 5 5 5 5 5 5 5 5 5 5 5 5 5 5 5 5 5 5 5 5 5 5 5 5 5 5 5 5 5 5 5 5 5 5 5 5 5 5 5 5 5 5 5 5 5 5 5 5 5 5 3 5 5 5 3 5 5 3 5 5 5 5 5 5 5 5 5 5 5 3 5 5 5 5 3 5 5 5 5 5 5 5 5 5 5 5 5 5 5 5 5 5 5 5 5 5 5 5 5 5 5 5 5 5 5 5 5 5 5 5 5 5 5 5 5 5 5 5 5 5 5 5 5 5 5 5 5 5 5 5 5 5 5 3 5 5 5 5 5 5 5 5 5 5 5 5 5 5 3 5 5 3 5 3 5 5 5 5 5 5 5 5 5 5 5 5 5 3 5 5 5 5 5 5 5 5 5 5 5 5 5 5 5 5 5 5 5 5 5 5 5 5 5 5 5 5 5 5 5 5 5 5 5 5 5 5 5 5 5 5 5 5 5 5 5 5 5 5 5 5 5 5 5 5 5 5 5 5 5 5 5 5 5 5 5 5 5 5 5 5 5 5 5 5 5 5 5 5 5 5 5 5 5 5 5 5 5 5 5 5 5 5 5 5 5 5 5 5 5 5 5 5 5 5 5 5 5 5 5 5 5 5 5 5 5 5 5 5 5 5 5 5 5 5 5 5 5 5 5 5 5 5 5 5 3 5 5 3 5 3 5 5 5 5 5 5 5 5 5 5 5 5 5 5 5 5 5 5 5 5 5 5 5 5 5 5 5 5 5 5 5 5 5 5 5 5 5 5 5 5 5 5 5 5 5 5 5 3 5 5 5 5 5 3 5 5 5 5 5 5 5 
</DataArray>
</Cells>
<PointData Scalars="" Vectors="displacement," Tensors="">
<DataArray type="Float64" Name="displacement" NumberOfComponents="3" format="ascii">
-4.450166009238538e-09 -1.9005476755402963e-09 0 -3.8696517456637936e-06 -1.9623090228935619e-06 0 -1.630865031007131e-06 -6.2595643073491495e-07 0 -4.450166009238538e-09 -1.9005476755402963e-09 0 -1.6308650310071314e-06 -6.2595643073491506e-07 0 -2.4421112051992705e-09 2.3491225136186273e-10 0 -3.8696517456637936e-06 -1.9623090228935619e-06 0 -3.2483695621781823e-06 -9.1144795944384609e-07 0 -1.630865031007131e-06 -6.2595643073491495e-07 0 -2.4421112051992705e-09 2.3491225136186273e-10 0 -1.630865031007131e-06 -6.2595643073491495e-07 0 -3.2483695621781823e-06 -9.1144795944384609e-07 0 -2.7155280783062751e-09 -2.4152406569686505e-10 0 -2.4421112051992705e-09 2.3491225136186273e-10 0 -2.2636892249261402e-06 -1.6995304820243225e-07 0 -2.0050108308327981e-09 3.5144290830999403e-10 0 -2.7155280783062751e-09 -2.4152406569686505e-10 0 -2.2636892249261402e-06 -1.6995304820243225e-07 0 -4.6501042054607347e-06 -6.8803224928633844e-07 0 -2.2636892249261402e-06 -1.6995304820243225e-07 0 -3.2483695621781823e-06 -9.1144795944384609e-07 0 -2.4421112051992705e-09 2.3491225136186273e-10 0 -3.2483695621781823e-06 -9.1144795944384609e-07 0 -2.2636892249261402e-06 -1.6995304820243225e-07 0 -4.6501042054607347e-06 -6.8803224928633844e-07 0 -3.0597786123912897e-06 9.0260936125950235e-08 0 -2.2636892249261402e-06 -1.6995304820243225e-07 0 -4.6501042054607347e-06 -6.8803224928633844e-07 0 -5.3499962789383768e-06 -3.6720603315320139e-07 0 -3.0597786123912897e-06 9.0260936125950235e-08 0 -4.6501042054607347e-06 -6.8803224928633844e-07 0 -7.0669618086624295e-06 -1.1099769202867815e-06 0 -5.3499962789383768e-06 -3.6720603315320139e-07 0 -7.0175725994288263e-06 -5.6539104540265727e-07 0 -5.3499962789383768e-06 -3.6720603315320139e-07 0 -7.0669618086624287e-06 -1.1099769202867813e-06 0 -9.2937792020335362e-06 -2.1168468691223987e-06 0 -7.0669618086624287e-06 -1.1099769202867813e-06 0 -6.7018438668971634e-06 -1.8375932903832517e-06 0 -4.6501042054607347e-06 -6.8803224928633844e-07 0 -6.7018438668971634e-06 -1.8375932903832517e-06 0 -7.0669618086624287e-06 -1.1099769202867813e-06 0 -7.381641419857012e-06 -2.8144115824226821e-06 0 -1.1009821322033527e-05 -3.6138597420729169e-06 0 -6.7018438668971634e-06 -1.8375932903832517e-06 0 -3.8696517456637936e-06 -1.9623090228935619e-06 0 -7.381641419857012e-06 -2.8144115824226821e-06 0 -3.2483695621781823e-06 -9.1144795944384609e-07 0 -7.381641419857012e-06 -2.8144115824226821e-06 0 -6.7018438668971634e-06 -1.8375932903832517e-06 0 -3.2483695621781823e-06 -9.1144795944384609e-07 0 -4.6501042054607347e-06 -6.8803224928633844e-07 0 -3.2483695621781823e-06 -9.1144795944384609e-07 0 -6.7018438668971634e-06 -1.8375932903832517e-06 0 -1.5525873780647822e-09 2.9815524471828161e-10 0 -1.8887103477105956e-09 1.5162300895929208e-10 0 -1.5217772145050086e-06 4.5679208443211724e-07 0 -1.8887103477105956e-09 1.5162300895929208e-10 0 -1.5446398760461493e-06 2.7436145685888052e-07 0 -1.5217772145050086e-06 4.5679208443211724e-07 0 -3.2616663006063559e-06 4.2073770937747123e-07 0 -1.5217772145050086e-06 4.5679208443211724e-07 0 -1.5446398760461493e-06 2.7436145685888052e-07 0 -2.0050108308327981e-09 3.5144290830999403e-10 0 -3.0597786123912897e-06 9.0260936125950235e-08 0 -1.5446398760461493e-06 2.7436145685888052e-07 0 -2.0050108308327981e-09 3.5144290830999403e-10 0 -2.2636892249261402e-06 -1.6995304820243225e-07 0 -3.0597786123912897e-06 9.0260936125950235e-08 0 -3.2616663006063559e-06 4.2073770937747123e-07 0 -1.5446398760461493e-06 2.7436145685888052e-07 0 -3.0597786123912897e-06 9.0260936125950235e-08 0 -1.8887103477105956e-09 1.5162300895929208e-10 0 -2.0050108308327981e-09 3.5144290830999403e-10 0 -1.5446398760461493e-06 2.7436145685888052e-07 0 -3.0597786123912897e-06 9.0260936125950235e-08 0 -5.3499962789383768e-06 -3.672060331532015e-07 0 -4.8088505488766575e-06 3.4015384899128267e-08 0 -7.0175725994288263e-06 -5.6539104540265727e-07 0 -4.8088505488766575e-06 3.4015384899128267e-08 0 -5.3499962789383768e-06 -3.6720603315320139e-07 0 -3.2616663006063559e-06 4.2073770937747123e-07 0 -3.0597786123912897e-06 9.0260936125950235e-08 0 -4.8088505488766575e-06 3.4015384899128267e-08 0 -3.2616663006063559e-06 4.2073770937747123e-07 0 -5.4108393242051809e-06 1.607565030359293e-07 0 -3.1237905496607725e-06 6.5585842821373491e-07 0 -3.2616663006063559e-06 4.2073770937747123e-07 0 -4.8088505488766575e-06 3.4015384899128267e-08 0 -5.4108393242051809e-06 1.607565030359293e-07 0 -3.2616663006063559e-06 4.2073770937747123e-07 0 -3.1237905496607725e-06 6.5585842821373491e-07 0 -1.5217772145050086e-06 4.5679208443211724e-07 0 -1.4264401776656876e-06 5.9121888666839683e-07 0 -1.5217772145050086e-06 4.5679208443211724e-07 0 -3.1237905496607725e-06 6.5585842821373491e-07 0 -5.4108393242051809e-06 1.607565030359293e-07 0 -4.8603677275472057e-06 3.9192930716414219e-07 0 -3.1237905496607725e-06 6.5585842821373491e-07 0 -6.3292735810545467e-06 -4.3451030281700658e-08 0 -4.8603677275472049e-06 3.919293071641423e-07 0 -5.4108393242051809e-06 1.607565030359293e-07 0 -6.3292735810545467e-06 -4.3451030281700658e-08 0 -5.4108393242051809e-06 1.607565030359293e-07 0 -7.7169975226760196e-06 -5.666138071074437e-07 0 -7.0175725994288263e-06 -5.6539104540265727e-07 0 -9.4199279496896117e-06 -1.3183262984442199e-06 0 -7.7169975226760196e-06 -5.666138071074437e-07 0 -7.0175725994288263e-06 -5.6539104540265727e-07 0 -5.41083932420518e-06 1.6075650303592932e-07 0 -4.8088505488766575e-06 3.4015384899128267e-08 0 -7.0175725994288263e-06 -5.6539104540265727e-07 0 -7.7169975226760196e-06 -5.666138071074437e-07 0 -5.4108393242051809e-06 1.607565030359293e-07 0 -7.0175725994288263e-06 -5.6539104540265727e-07 0 -9.1489169373203052e-06 -1.5303481078934018e-06 0 -9.41992794968961e-06 -1.3183262984442197e-06 0 -9.6775244337927137e-06 -1.3833238545434882e-06 0 -9.41992794968961e-06 -1.3183262984442199e-06 0 -1.2257890729394883e-05 -2.4561445039651748e-06 0 -9.6775244337927137e-06 -1.3833238545434882e-06 0 -1.2257890729394883e-05 -2.4561445039651748e-06 0 -1.2359111381705494e-05 -2.6822724184039371e-06 0 -9.6775244337927137e-06 -1.3833238545434882e-06 0 -1.2359111381705494e-05 -2.6822724184039371e-06 0 -1.1189671130281665e-05 -2.3851334853443702e-06 0 -9.6775244337927137e-06 -1.3833238545434882e-06 0 -7.7169975226760196e-06 -5.666138071074437e-07 0 -9.41992794968961e-06 -1.3183262984442197e-06 0 -6.3292735810545467e-06 -4.3451030281700658e-08 0 -7.7169975226760196e-06 -5.666138071074437e-07 0 -8.4437563508609554e-06 -9.5743306308689236e-07 0 -9.6775244337927137e-06 -1.3833238545434882e-06 0 -8.4437563508609554e-06 -9.5743306308689236e-07 0 -7.7169975226760196e-06 -5.666138071074437e-07 0 -9.6775244337927137e-06 -1.3833238545434882e-06 0 -1.1189671130281665e-05 -2.3851334853443702e-06 0 -8.4437563508609554e-06 -9.5743306308689236e-07 0 -8.1821049857841117e-06 -1.1997103314571359e-06 0 -6.5002090673818052e-06 -2.1146929020673739e-07 0 -8.4437563508609554e-06 -9.5743306308689236e-07 0 -6.3292735810545467e-06 -4.3451030281700658e-08 0 -8.4437563508609554e-06 -9.5743306308689236e-07 0 -6.5002090673818052e-06 -2.1146929020673741e-07 0 -1.1009821322033527e-05 -3.6138597420729169e-06 0 -1.2590764450662451e-05 -3.3353903995211919e-06 0 -9.2937792020335362e-06 -2.1168468691223987e-06 0 -1.2079545565068522e-05 -2.5780576529245022e-06 0 -9.2937792020335362e-06 -2.1168468691223987e-06 0 -1.2590764450662453e-05 -3.3353903995211924e-06 0 -1.1009821322033527e-05 -3.6138597420729169e-06 0 -1.4901530452305096e-05 -4.6479251158382862e-06 0 -1.2590764450662453e-05 -3.3353903995211924e-06 0 -1.1009821322033527e-05 -3.6138597420729169e-06 0 -9.2937792020335362e-06 -2.1168468691223987e-06 0 -6.7018438668971634e-06 -1.8375932903832517e-06 0 -9.2937792020335362e-06 -2.1168468691223987e-06 0 -9.1489169373203052e-06 -1.5303481078934018e-06 0 -7.0669618086624287e-06 -1.1099769202867813e-06 0 -7.0175725994288263e-06 -5.6539104540265727e-07 0 -7.0669618086624287e-06 -1.1099769202867813e-06 0 -9.1489169373203052e-06 -1.5303481078934018e-06 0 -1.2079545565068522e-05 -2.5780576529245022e-06 0 -9.41992794968961e-06 -1.3183262984442197e-06 0 -9.1489169373203052e-06 -1.5303481078934018e-06 0 -1.2079545565068522e-05 -2.5780576529245022e-06 0 -9.1489169373203052e-06 -1.5303481078934018e-06 0 -9.2937792020335362e-06 -2.1168468691223987e-06 0 -1.2079545565068522e-05 -2.5780576529245022e-06 0 -1.2257890729394883e-05 -2.4561445039651748e-06 0 -9.41992794968961e-06 -1.3183262984442197e-06 0 -1.2079545565068522e-05 -2.5780576529245022e-06 0 -1.4756163960843367e-05 -3.6031425625099277e-06 0 -1.2257890729394883e-05 -2.4561445039651748e-06 0 -1.539617835515321e-05 -4.0284176009373272e-06 0 -1.2257890729394883e-05 -2.4561445039651748e-06 0 -1.4756163960843367e-05 -3.6031425625099277e-06 0 -1.2079545565068522e-05 -2.5780576529245022e-06 0 -1.5431127516944769e-05 -4.1564181171191615e-06 0 -1.4756163960843367e-05 -3.6031425625099277e-06 0 -1.8406086447468327e-05 -5.3328274682891975e-06 0 -1.4756163960843367e-05 -3.6031425625099277e-06 0 -1.5431127516944769e-05 -4.1564181171191615e-06 0 -1.2079545565068522e-05 -2.5780576529245022e-06 0 -1.2590764450662453e-05 -3.3353903995211924e-06 0 -1.5431127516944769e-05 -4.1564181171191615e-06 0 -1.4901530452305096e-05 -4.6479251158382862e-06 0 -1.5431127516944769e-05 -4.1564181171191615e-06 0 -1.2590764450662453e-05 -3.3353903995211924e-06 0 -1.4901530452305096e-05 -4.6479251158382862e-06 0 -1.9055675815230414e-05 -6.0714423471245752e-06 0 -1.5431127516944769e-05 -4.1564181171191615e-06 0 -1.9055675815230414e-05 -6.0714423471245752e-06 0 -2.3365698183505053e-05 -8.02162644241186e-06 0 -1.8406086447468327e-05 -5.3328274682891975e-06 0 -1.9055675815230414e-05 -6.0714423471245752e-06 0 -1.8406086447468327e-05 -5.3328274682891975e-06 0 -1.5431127516944769e-05 -4.1564181171191615e-06 0 -2.3365698183505053e-05 -8.02162644241186e-06 0 -2.3071785546487325e-05 -7.8777087300482725e-06 0 -1.8406086447468327e-05 -5.3328274682891975e-06 0 -2.3365698183505053e-05 -8.02162644241186e-06 0 -2.8079975342613809e-05 -1.0671547992571298e-05 0 -2.3071785546487325e-05 -7.8777087300482725e-06 0 -2.2487386085879623e-05 -8.4175755768180145e-06 0 -2.3071785546487325e-05 -7.8777087300482725e-06 0 -2.6742038692384429e-05 -1.0299129482464975e-05 0 -2.2487386085879623e-05 -8.4175755768180145e-06 0 -2.6742038692384429e-05 -1.0299129482464975e-05 0 -2.788182256973463e-05 -1.218996674639131e-05 0 -2.8079975342613809e-05 -1.0671547992571298e-05 0 -2.6742038692384429e-05 -1.0299129482464975e-05 0 -2.3071785546487325e-05 -7.8777087300482725e-06 0 -2.8079975342613809e-05 -1.0671547992571298e-05 0 -3.3106495855047836e-05 -1.4185920717265117e-05 0 -2.6742038692384429e-05 -1.0299129482464975e-05 0 -2.2487386085879623e-05 -8.4175755768180145e-06 0 -2.3352377452911614e-05 -1.0909370633977692e-05 0 -1.9029521062862268e-05 -7.7434676717996616e-06 0 -2.2487386085879623e-05 -8.4175755768180145e-06 0 -1.9029521062862268e-05 -7.7434676717996616e-06 0 -1.7971759702672012e-05 -5.9139614173936236e-06 0 -2.2487386085879623e-05 -8.4175755768180145e-06 0 -1.9454859090993467e-05 -6.1557143402723483e-06 0 -2.3071785546487325e-05 -7.8777087300482725e-06 0 -2.2487386085879623e-05 -8.4175755768180145e-06 0 -1.7971759702672012e-05 -5.9139614173936236e-06 0 -1.9454859090993467e-05 -6.1557143402723483e-06 0 -1.539617835515321e-05 -4.0284176009373272e-06 0 -1.9454859090993467e-05 -6.1557143402723492e-06 0 -1.7971759702672012e-05 -5.9139614173936236e-06 0 -1.8406086447468327e-05 -5.3328274682891975e-06 0 -2.3071785546487325e-05 -7.8777087300482725e-06 0 -1.9454859090993467e-05 -6.1557143402723483e-06 0 -1.9454859090993467e-05 -6.1557143402723483e-06 0 -1.539617835515321e-05 -4.0284176009373272e-06 0 -1.8406086447468327e-05 -5.3328274682891975e-06 0 -1.8406086447468327e-05 -5.3328274682891975e-06 0 -1.539617835515321e-05 -4.0284176009373272e-06 0 -1.4756163960843367e-05 -3.6031425625099277e-06 0 -1.539617835515321e-05 -4.0284176009373272e-06 0 -1.2359111381705494e-05 -2.6822724184039371e-06 0 -1.2257890729394883e-05 -2.4561445039651748e-06 0 -1.539617835515321e-05 -4.0284176009373272e-06 0 -1.4245335001873382e-05 -3.9651507296554867e-06 0 -1.2359111381705494e-05 -2.6822724184039371e-06 0 -1.1189671130281665e-05 -2.3851334853443702e-06 0 -1.2359111381705494e-05 -2.6822724184039367e-06 0 -1.4245335001873382e-05 -3.9651507296554867e-06 0 -1.5878236942542571e-05 -5.5476202739335339e-06 0 -1.3008611811633759e-05 -4.068638655199569e-06 0 -1.4245335001873382e-05 -3.9651507296554867e-06 0 -1.1189671130281665e-05 -2.3851334853443702e-06 0 -1.4245335001873382e-05 -3.9651507296554867e-06 0 -1.3008611811633759e-05 -4.068638655199569e-06 0 -1.539617835515321e-05 -4.0284176009373272e-06 0 -1.7971759702672012e-05 -5.9139614173936236e-06 0 -1.4245335001873382e-05 -3.9651507296554867e-06 0 -1.0240817216273883e-05 -2.3601894022861118e-06 0 -8.1821049857841117e-06 -1.1997103314571359e-06 0 -8.4437563508609554e-06 -9.5743306308689236e-07 0 -1.1189671130281665e-05 -2.3851334853443702e-06 0 -1.0240817216273883e-05 -2.3601894022861118e-06 0 -8.4437563508609554e-06 -9.5743306308689236e-07 0 -1.1189671130281665e-05 -2.3851334853443702e-06 0 -1.3008611811633759e-05 -4.068638655199569e-06 0 -1.0240817216273883e-05 -2.3601894022861118e-06 0 -1.187123079524293e-05 -4.4955182113883041e-06 0 -8.9740324971391036e-06 -2.1500175880974308e-06 0 -1.0240817216273883e-05 -2.3601894022861118e-06 0 -1.187123079524293e-05 -4.4955182113883041e-06 0 -1.0240817216273883e-05 -2.3601894022861118e-06 0 -1.3008611811633759e-05 -4.068638655199569e-06 0 -1.187123079524293e-05 -4.4955182113883041e-06 0 -1.3008611811633759e-05 -4.068638655199569e-06 0 -1.5486615530166683e-05 -6.4422473672288474e-06 0 -1.187123079524293e-05 -4.4955182113883041e-06 0 -1.5486615530166683e-05 -6.4422473672288474e-06 0 -1.4645682347496429e-05 -7.6685819557403081e-06 0 -1.187123079524293e-05 -4.4955182113883041e-06 0 -1.4645682347496429e-05 -7.6685819557403081e-06 0 -1.1619992200156159e-05 -6.0319611157971237e-06 0 -1.5878236942542571e-05 -5.5476202739335339e-06 0 -1.4245335001873382e-05 -3.9651507296554867e-06 0 -1.7971759702672012e-05 -5.9139614173936236e-06 0 -1.5878236942542571e-05 -5.5476202739335339e-06 0 -1.7971759702672012e-05 -5.9139614173936236e-06 0 -1.9029521062862268e-05 -7.7434676717996616e-06 0 -1.5878236942542571e-05 -5.5476202739335339e-06 0 -1.5486615530166683e-05 -6.4422473672288474e-06 0 -1.3008611811633759e-05 -4.068638655199569e-06 0 -1.8807409642146784e-05 -9.5403599997361576e-06 0 -1.5486615530166683e-05 -6.4422473672288474e-06 0 -1.9029521062862268e-05 -7.7434676717996616e-06 0 -1.5878236942542571e-05 -5.5476202739335339e-06 0 -1.9029521062862268e-05 -7.7434676717996616e-06 0 -1.5486615530166683e-05 -6.4422473672288474e-06 0 -1.8807409642146784e-05 -9.5403599997361576e-06 0 -1.9029521062862268e-05 -7.7434676717996616e-06 0 -2.3352377452911614e-05 -1.0909370633977692e-05 0 -1.8807409642146784e-05 -9.5403599997361576e-06 0 -2.330022803551925e-05 -1.4099892133329269e-05 0 -1.7500220789671622e-05 -1.1164172627644222e-05 0 -1.8807409642146784e-05 -9.5403599997361576e-06 0 -2.3352377452911614e-05 -1.0909370633977692e-05 0 -2.330022803551925e-05 -1.4099892133329269e-05 0 -1.3757247577747094e-05 -9.3217460329342216e-06 0 -1.1619992200156159e-05 -6.0319611157971237e-06 0 -1.4645682347496429e-05 -7.6685819557403081e-06 0 -1.8807409642146784e-05 -9.5403599997361576e-06 0 -1.4645682347496429e-05 -7.6685819557403081e-06 0 -1.5486615530166683e-05 -6.4422473672288474e-06 0 -1.8807409642146784e-05 -9.5403599997361576e-06 0 -1.7500220789671622e-05 -1.1164172627644222e-05 0 -1.4645682347496429e-05 -7.6685819557403081e-06 0 -1.3757247577747094e-05 -9.3217460329342216e-06 0 -1.4645682347496429e-05 -7.6685819557403081e-06 0 -1.7500220789671622e-05 -1.1164172627644222e-05 0 -1.3757247577747094e-05 -9.3217460329342216e-06 0 -1.7500220789671622e-05 -1.1164172627644222e-05 0 -1.6454670550584058e-05 -1.3518784643381486e-05 0 -2.0482757137379127e-05 -1.6042446153452595e-05 0 -1.6454670550584058e-05 -1.3518784643381485e-05 0 -1.7500220789671622e-05 -1.1164172627644222e-05 0 -2.0482757137379127e-05 -1.6042446153452595e-05 0 -2.4302173970946595e-05 -2.2528536890573661e-05 0 -1.9976906387529244e-05 -1.9750957304267255e-05 0 -2.0482757137379127e-05 -1.6042446153452595e-05 0 -1.9976906387529244e-05 -1.9750957304267255e-05 0 -1.6454670550584058e-05 -1.3518784643381486e-05 0 -1.5644531166228343e-05 -1.6352347793507696e-05 0 -1.6454670550584058e-05 -1.3518784643381486e-05 0 -1.9976906387529244e-05 -1.9750957304267255e-05 0 -2.0482757137379127e-05 -1.6042446153452595e-05 0 -2.330022803551925e-05 -1.4099892133329269e-05 0 -2.5501422945257327e-05 -1.886273217694799e-05 0 -2.0482757137379127e-05 -1.6042446153452595e-05 0 -1.7500220789671622e-05 -1.1164172627644222e-05 0 -2.330022803551925e-05 -1.4099892133329269e-05 0 -2.0482757137379127e-05 -1.6042446153452595e-05 0 -2.5501422945257327e-05 -1.886273217694799e-05 0 -2.4302173970946595e-05 -2.2528536890573661e-05 0 -2.330022803551925e-05 -1.4099892133329269e-05 0 -3.0290630753518433e-05 -1.946495533680971e-05 0 -2.5501422945257327e-05 -1.886273217694799e-05 0 -2.9287824584779214e-05 -2.2974679140184293e-05 0 -2.5501422945257327e-05 -1.886273217694799e-05 0 -3.0290630753518433e-05 -1.946495533680971e-05 0 -2.8797527088254501e-05 -1.5183906497031893e-05 0 -3.0290630753518433e-05 -1.946495533680971e-05 0 -2.330022803551925e-05 -1.4099892133329269e-05 0 -2.8797527088254501e-05 -1.5183906497031893e-05 0 -3.5199851392348007e-05 -1.9839787544451607e-05 0 -3.0290630753518433e-05 -1.946495533680971e-05 0 -3.7532282764516858e-05 -2.6534487810707386e-05 0 -3.0290630753518433e-05 -1.946495533680971e-05 0 -3.5199851392348007e-05 -1.9839787544451607e-05 0 -4.3414548550469366e-05 -2.5019557785977002e-05 0 -3.7532282764516858e-05 -2.6534487810707386e-05 0 -3.5199851392348007e-05 -1.9839787544451607e-05 0 -3.8290345189687721e-05 -1.8964563237235141e-05 0 -4.3414548550469366e-05 -2.5019557785977002e-05 0 -3.5199851392348007e-05 -1.9839787544451607e-05 0 -3.8290345189687721e-05 -1.8964563237235141e-05 0 -3.5199851392348007e-05 -1.9839787544451607e-05 0 -3.2672680138494097e-05 -1.5936238244875818e-05 0 -2.8797527088254501e-05 -1.5183906497031893e-05 0 -3.2672680138494097e-05 -1.5936238244875818e-05 0 -3.5199851392348007e-05 -1.9839787544451607e-05 0 -3.3106495855047836e-05 -1.4185920717265117e-05 0 -3.2672680138494097e-05 -1.5936238244875818e-05 0 -2.788182256973463e-05 -1.218996674639131e-05 0 -2.8797527088254501e-05 -1.5183906497031893e-05 0 -2.788182256973463e-05 -1.218996674639131e-05 0 -3.2672680138494097e-05 -1.5936238244875818e-05 0 -3.3106495855047836e-05 -1.4185920717265117e-05 0 -3.8290345189687721e-05 -1.8964563237235141e-05 0 -3.2672680138494097e-05 -1.5936238244875818e-05 0 -3.3106495855047836e-05 -1.4185920717265117e-05 0 -2.788182256973463e-05 -1.218996674639131e-05 0 -2.6742038692384429e-05 -1.0299129482464975e-05 0 -2.2487386085879623e-05 -8.4175755768180145e-06 0 -2.788182256973463e-05 -1.218996674639131e-05 0 -2.3352377452911614e-05 -1.0909370633977692e-05 0 -2.8797527088254501e-05 -1.5183906497031893e-05 0 -2.330022803551925e-05 -1.4099892133329269e-05 0 -2.3352377452911614e-05 -1.0909370633977692e-05 0 -2.8797527088254501e-05 -1.5183906497031893e-05 0 -2.3352377452911614e-05 -1.0909370633977692e-05 0 -2.788182256973463e-05 -1.218996674639131e-05 0 -1.0400921304405736e-05 -2.0089467530934316e-06 0 -8.5665141507210156e-06 -1.4560449800487796e-06 0 -1.0600983361540888e-05 -3.9281035219522269e-06 0 -9.0204155013654442e-06 -2.854341818088649e-06 0 -1.0600983361540888e-05 -3.9281035219522269e-06 0 -8.5665141507210156e-06 -1.4560449800487796e-06 0 -9.0204155013654442e-06 -2.854341818088649e-06 0 -1.034237634703646e-05 -5.1085025566781666e-06 0 -1.0600983361540888e-05 -3.9281035219522269e-06 0 -1.0400921304405736e-05 -2.0089467530934316e-06 0 -7.6906910972848336e-06 6.0059880306857962e-07 0 -8.5665141507210156e-06 -1.4560449800487796e-06 0 -6.0577496405353249e-06 3.0061118049577913e-06 0 -7.6906910972848336e-06 6.0059880306857962e-07 0 -9.0703019315391489e-06 1.1127155791700478e-06 0 -1.0400921304405736e-05 -2.0089467530934316e-06 0 -9.0703019315391489e-06 1.1127155791700478e-06 0 -7.6906910972848336e-06 6.0059880306857962e-07 0 -1.0400921304405736e-05 -2.0089467530934316e-06 0 -1.1225466270414201e-05 -1.5424518169225575e-06 0 -9.0703019315391489e-06 1.1127155791700478e-06 0 -1.0400921304405736e-05 -2.0089467530934316e-06 0 -1.3353077347077945e-05 -4.0005294719973778e-06 0 -1.1225466270414201e-05 -1.5424518169225571e-06 0 -1.2097565394233667e-05 -1.4430584339474782e-06 0 -9.0703019315391489e-06 1.1127155791700478e-06 0 -1.1225466270414201e-05 -1.5424518169225571e-06 0 -1.2097565394233667e-05 -1.4430584339474782e-06 0 -1.1225466270414199e-05 -1.5424518169225567e-06 0 -1.3353077347077945e-05 -4.0005294719973778e-06 0 -1.6127437233160413e-05 -7.499773606150416e-06 0 -1.3353077347077945e-05 -4.0005294719973778e-06 0 -1.2924754366470002e-05 -5.5299809470471289e-06 0 -1.0400921304405736e-05 -2.0089467530934316e-06 0 -1.2924754366470002e-05 -5.5299809470471281e-06 0 -1.3353077347077945e-05 -4.0005294719973778e-06 0 -1.0400921304405736e-05 -2.0089467530934316e-06 0 -1.0600983361540888e-05 -3.9281035219522269e-06 0 -1.2924754366470002e-05 -5.5299809470471289e-06 0 -1.1870967291334529e-05 -6.6872459420643229e-06 0 -1.2924754366470002e-05 -5.5299809470471281e-06 0 -1.0600983361540888e-05 -3.9281035219522269e-06 0 -1.6127437233160413e-05 -7.499773606150416e-06 0 -1.2924754366470002e-05 -5.5299809470471289e-06 0 -1.4743143313397886e-05 -8.9448665420196542e-06 0 -1.2850771190132977e-05 -1.3479453295509538e-05 0 -1.4743143313397888e-05 -8.9448665420196542e-06 0 -1.2397307769734699e-05 -9.8344034144712206e-06 0 -1.1870967291334529e-05 -6.6872459420643229e-06 0 -1.2397307769734699e-05 -9.8344034144712206e-06 0 -1.4743143313397886e-05 -8.9448665420196542e-06 0 -1.1870967291334529e-05 -6.6872459420643229e-06 0 -1.1357228637264928e-05 -7.4700314368691326e-06 0 -1.2397307769734699e-05 -9.8344034144712206e-06 0 -1.1870967291334529e-05 -6.6872459420643229e-06 0 -1.4743143313397886e-05 -8.9448665420196542e-06 0 -1.2924754366470002e-05 -5.5299809470471289e-06 0 -1.2850771190132977e-05 -1.3479453295509538e-05 0 -1.3130965914666994e-05 -1.1303435274177242e-05 0 -1.5644531166228343e-05 -1.6352347793507696e-05 0 -1.5644531166228343e-05 -1.6352347793507696e-05 0 -1.3130965914666994e-05 -1.1303435274177242e-05 0 -1.6454670550584058e-05 -1.3518784643381486e-05 0 -1.2850771190132977e-05 -1.3479453295509538e-05 0 -1.2397307769734699e-05 -9.8344034144712206e-06 0 -1.3130965914666994e-05 -1.1303435274177242e-05 0 -1.1357228637264928e-05 -7.4700314368691326e-06 0 -1.3130965914666994e-05 -1.1303435274177242e-05 0 -1.2397307769734699e-05 -9.8344034144712206e-06 0 -1.3757247577747094e-05 -9.3217460329342216e-06 0 -1.6454670550584058e-05 -1.3518784643381486e-05 0 -1.3130965914666994e-05 -1.1303435274177242e-05 0 -1.3757247577747094e-05 -9.3217460329342216e-06 0 -1.3130965914666994e-05 -1.1303435274177243e-05 0 -1.1357228637264928e-05 -7.4700314368691326e-06 0 -1.3757247577747094e-05 -9.3217460329342216e-06 0 -1.1357228637264928e-05 -7.4700314368691326e-06 0 -1.1619992200156159e-05 -6.0319611157971237e-06 0 -9.7184408797032531e-06 -4.358573891934475e-06 0 -1.1619992200156159e-05 -6.0319611157971237e-06 0 -1.1357228637264928e-05 -7.4700314368691326e-06 0 -1.1870967291334529e-05 -6.6872459420643229e-06 0 -1.0600983361540888e-05 -3.9281035219522269e-06 0 -1.034237634703646e-05 -5.1085025566781666e-06 0 -1.1870967291334529e-05 -6.6872459420643229e-06 0 -1.034237634703646e-05 -5.1085025566781666e-06 0 -1.1357228637264928e-05 -7.4700314368691326e-06 0 -9.7184408797032531e-06 -4.358573891934475e-06 0 -1.1357228637264928e-05 -7.4700314368691326e-06 0 -1.034237634703646e-05 -5.1085025566781666e-06 0 -1.034237634703646e-05 -5.1085025566781666e-06 0 -7.6646027686376813e-06 -1.7409274012282039e-06 0 -9.7184408797032531e-06 -4.358573891934475e-06 0 -9.0204155013654442e-06 -2.854341818088649e-06 0 -7.6646027686376813e-06 -1.7409274012282039e-06 0 -1.034237634703646e-05 -5.1085025566781666e-06 0 -9.7184408797032531e-06 -4.358573891934475e-06 0 -7.6646027686376813e-06 -1.7409274012282037e-06 0 -8.365993885335291e-06 -2.5013660966083032e-06 0 -7.6646027686376813e-06 -1.7409274012282039e-06 0 -6.9118155583488763e-06 -1.1076355342705003e-06 0 -8.365993885335291e-06 -2.5013660966083032e-06 0 -1.187123079524293e-05 -4.4955182113883041e-06 0 -1.1619992200156159e-05 -6.0319611157971237e-06 0 -9.6590691036775889e-06 -3.4856262482057533e-06 0 -9.7184408797032531e-06 -4.358573891934475e-06 0 -9.6590691036775889e-06 -3.4856262482057533e-06 0 -1.1619992200156159e-05 -6.0319611157971237e-06 0 -9.7184408797032531e-06 -4.358573891934475e-06 0 -8.365993885335291e-06 -2.5013660966083032e-06 0 -9.6590691036775889e-06 -3.4856262482057533e-06 0 -7.7199362095832533e-06 -1.6150231264568756e-06 0 -9.6590691036775889e-06 -3.4856262482057533e-06 0 -8.365993885335291e-06 -2.5013660966083032e-06 0 -1.187123079524293e-05 -4.4955182113883041e-06 0 -9.6590691036775889e-06 -3.4856262482057533e-06 0 -8.9740324971391036e-06 -2.1500175880974308e-06 0 -7.7199362095832533e-06 -1.6150231264568756e-06 0 -8.9740324971391036e-06 -2.1500175880974313e-06 0 -9.6590691036775889e-06 -3.4856262482057533e-06 0 -7.7199362095832533e-06 -1.6150231264568756e-06 0 -6.659586643507574e-06 -5.1085572134588479e-07 0 -8.9740324971391036e-06 -2.1500175880974308e-06 0 -8.1821049857841117e-06 -1.1997103314571359e-06 0 -8.9740324971391036e-06 -2.1500175880974308e-06 0 -6.659586643507574e-06 -5.1085572134588479e-07 0 -8.1821049857841117e-06 -1.1997103314571359e-06 0 -1.0240817216273883e-05 -2.3601894022861118e-06 0 -8.9740324971391036e-06 -2.1500175880974308e-06 0 -5.628918045708281e-06 -1.0804926739257128e-08 0 -6.9118155583488754e-06 -1.1076355342705003e-06 0 -7.6646027686376813e-06 -1.7409274012282039e-06 0 -7.7199362095832533e-06 -1.6150231264568756e-06 0 -8.365993885335291e-06 -2.5013660966083032e-06 0 -6.9118155583488763e-06 -1.1076355342705003e-06 0 -7.7199362095832533e-06 -1.6150231264568756e-06 0 -6.9118155583488763e-06 -1.1076355342705003e-06 0 -5.9893734283322177e-06 -3.1660819031371678e-07 0 -7.7199362095832533e-06 -1.6150231264568756e-06 0 -5.9893734283322177e-06 -3.1660819031371678e-07 0 -6.659586643507574e-06 -5.1085572134588479e-07 0 -5.628918045708281e-06 -1.0804926739257128e-08 0 -5.9893734283322177e-06 -3.1660819031371678e-07 0 -6.9118155583488763e-06 -1.1076355342705003e-06 0 -5.628918045708281e-06 -1.0804926739257128e-08 0 -4.4614581254276297e-06 5.5418844624028243e-07 0 -5.9893734283322177e-06 -3.1660819031371678e-07 0 -5.628918045708281e-06 -1.0804926739257128e-08 0 -4.9999236348520636e-06 7.7251298752317796e-07 0 -4.1476371232950893e-06 8.3791213757435116e-07 0 -4.9999236348520636e-06 7.7251298752317796e-07 0 -3.70874566670655e-06 1.4343925658205371e-06 0 -4.1476371232950893e-06 8.3791213757435116e-07 0 -5.628918045708281e-06 -1.0804926739257128e-08 0 -6.3448796750259913e-06 -3.2769136626518788e-07 0 -4.9999236348520636e-06 7.7251298752317796e-07 0 -5.628918045708281e-06 -1.0804926739257128e-08 0 -7.6646027686376813e-06 -1.7409274012282039e-06 0 -6.3448796750259913e-06 -3.2769136626518788e-07 0 -7.6646027686376813e-06 -1.7409274012282039e-06 0 -7.5418456392027301e-06 -1.1944728118121336e-06 0 -6.3448796750259913e-06 -3.2769136626518788e-07 0 -6.3415332763199686e-06 4.0677018433468523e-07 0 -6.3448796750259913e-06 -3.2769136626518788e-07 0 -7.5418456392027301e-06 -1.1944728118121336e-06 0 -6.3415332763199686e-06 4.0677018433468523e-07 0 -4.9999236348520636e-06 7.7251298752317796e-07 0 -6.3448796750259913e-06 -3.2769136626518788e-07 0 -6.3415332763199686e-06 4.0677018433468523e-07 0 -7.5418456392027301e-06 -1.1944728118121336e-06 0 -8.5665141507210156e-06 -1.4560449800487796e-06 0 -9.0204155013654442e-06 -2.854341818088649e-06 0 -8.5665141507210156e-06 -1.4560449800487796e-06 0 -7.5418456392027301e-06 -1.1944728118121336e-06 0 -9.0204155013654442e-06 -2.854341818088649e-06 0 -7.5418456392027301e-06 -1.1944728118121338e-06 0 -7.6646027686376813e-06 -1.7409274012282039e-06 0 -6.0577496405353249e-06 3.0061118049577913e-06 0 -5.6518023918721446e-06 1.8678688748478235e-06 0 -7.6906910972848336e-06 6.0059880306857962e-07 0 -6.3415332763199686e-06 4.0677018433468523e-07 0 -7.6906910972848336e-06 6.0059880306857962e-07 0 -5.6518023918721446e-06 1.8678688748478235e-06 0 -6.3415332763199686e-06 4.0677018433468523e-07 0 -8.5665141507210156e-06 -1.4560449800487796e-06 0 -7.6906910972848336e-06 6.0059880306857962e-07 0 -6.3415332763199686e-06 4.0677018433468523e-07 0 -4.6524170605394645e-06 1.6853889664927944e-06 0 -4.9999236348520636e-06 7.7251298752317796e-07 0 -5.6518023918721446e-06 1.8678688748478235e-06 0 -4.0624919586847172e-06 3.3244758596314316e-06 0 -4.6524170605394645e-06 1.6853889664927944e-06 0 -6.3415332763199686e-06 4.0677018433468523e-07 0 -5.6518023918721446e-06 1.8678688748478235e-06 0 -4.6524170605394645e-06 1.6853889664927944e-06 0 -3.3481160484509188e-06 2.32125199941131e-06 0 -3.70874566670655e-06 1.4343925658205371e-06 0 -4.6524170605394645e-06 1.6853889664927944e-06 0 -4.9999236348520636e-06 7.7251298752317796e-07 0 -4.6524170605394645e-06 1.6853889664927944e-06 0 -3.70874566670655e-06 1.4343925658205371e-06 0 -3.3481160484509188e-06 2.32125199941131e-06 0 -2.7980531717253524e-06 1.7815552017363245e-06 0 -3.70874566670655e-06 1.4343925658205371e-06 0 -3.1858565109638552e-06 1.2601751054293331e-06 0 -2.798053171725352e-06 1.7815552017363245e-06 0 -2.3643019074500102e-06 1.3451068529077948e-06 0 -3.1858565109638552e-06 1.2601751054293331e-06 0 -2.3643019074500102e-06 1.3451068529077948e-06 0 -2.9597388006455953e-06 1.1135049262719061e-06 0 -3.1858565109638552e-06 1.2601751054293331e-06 0 -4.1476371232950893e-06 8.3791213757435116e-07 0 -3.70874566670655e-06 1.4343925658205371e-06 0 -3.1858565109638552e-06 1.2601751054293331e-06 0 -3.70874566670655e-06 1.4343925658205371e-06 0 -2.7980531717253524e-06 1.7815552017363245e-06 0 -5.628918045708281e-06 -1.0804926739257128e-08 0 -4.1476371232950893e-06 8.3791213757435106e-07 0 -4.4614581254276297e-06 5.5418844624028264e-07 0 -3.0013169733149353e-06 9.9502091932421623e-07 0 -4.4614581254276297e-06 5.5418844624028264e-07 0 -2.9597388006455953e-06 1.1135049262719061e-06 0 -4.4614581254276297e-06 5.5418844624028264e-07 0 -4.1476371232950893e-06 8.3791213757435106e-07 0 -2.9597388006455953e-06 1.1135049262719061e-06 0 -3.1858565109638552e-06 1.2601751054293331e-06 0 -2.9597388006455953e-06 1.1135049262719061e-06 0 -4.1476371232950893e-06 8.3791213757435116e-07 0 -2.0214870867941408e-06 1.1426964553497757e-06 0 -2.0848807287577863e-06 1.0496163178435312e-06 0 -2.9597388006455953e-06 1.1135049262719061e-06 0 -3.0013169733149353e-06 9.9502091932421623e-07 0 -2.9597388006455953e-06 1.1135049262719061e-06 0 -2.0848807287577863e-06 1.0496163178435312e-06 0 -3.0013169733149353e-06 9.9502091932421623e-07 0 -2.0848807287577863e-06 1.0496163178435312e-06 0 -1.9839766660489744e-06 9.6240416785430416e-07 0 -2.0214870867941408e-06 1.1426964553497757e-06 0 -1.4623384172690379e-06 8.8491864101664584e-07 0 -2.0848807287577863e-06 1.0496163178435312e-06 0 -1.2855345953653971e-06 8.2408741265317257e-07 0 -1.4623384172690379e-06 8.8491864101664584e-07 0 -2.0214870867941408e-06 1.1426964553497757e-06 0 -1.2855345953653971e-06 8.2408741265317257e-07 0 -2.0214870867941408e-06 1.1426964553497757e-06 0 -1.7309661752132573e-06 1.1819768757984359e-06 0 -2.0214870867941408e-06 1.1426964553497757e-06 0 -2.3643019074500102e-06 1.3451068529077948e-06 0 -1.7309661752132573e-06 1.1819768757984359e-06 0 -2.0214870867941408e-06 1.1426964553497757e-06 0 -2.9597388006455953e-06 1.1135049262719061e-06 0 -2.3643019074500102e-06 1.3451068529077948e-06 0 -8.1821049857841117e-06 -1.1997103314571359e-06 0 -6.659586643507574e-06 -5.108557213458849e-07 0 -6.5002090673818052e-06 -2.1146929020673741e-07 0 -4.9859870378948188e-06 3.6950183802722625e-07 0 -6.5002090673818052e-06 -2.1146929020673741e-07 0 -6.659586643507574e-06 -5.1085572134588479e-07 0 -4.9859870378948188e-06 3.6950183802722625e-07 0 -4.8822741961031888e-06 4.3187559345017565e-07 0 -6.5002090673818052e-06 -2.1146929020673741e-07 0 -4.9859870378948188e-06 3.6950183802722625e-07 0 -5.3338590719557015e-06 1.3967927617067813e-07 0 -3.9584606104891102e-06 7.0735679059290819e-07 0 -4.9859870378948188e-06 3.6950183802722625e-07 0 -6.659586643507574e-06 -5.1085572134588479e-07 0 -5.3338590719557015e-06 1.3967927617067813e-07 0 -6.659586643507574e-06 -5.1085572134588479e-07 0 -5.9893734283322177e-06 -3.1660819031371678e-07 0 -5.3338590719557015e-06 1.3967927617067813e-07 0 -4.4614581254276297e-06 5.5418844624028264e-07 0 -5.3338590719557015e-06 1.3967927617067813e-07 0 -5.9893734283322177e-06 -3.1660819031371678e-07 0 -4.4614581254276297e-06 5.5418844624028264e-07 0 -3.9584606104891102e-06 7.0735679059290819e-07 0 -5.3338590719557015e-06 1.3967927617067813e-07 0 -3.0013169733149353e-06 9.9502091932421623e-07 0 -3.9584606104891102e-06 7.073567905929083e-07 0 -4.4614581254276297e-06 5.5418844624028264e-07 0 -3.0013169733149353e-06 9.9502091932421623e-07 0 -3.2433523736008289e-06 8.8700205962219429e-07 0 -3.9584606104891102e-06 7.0735679059290819e-07 0 -3.0013169733149353e-06 9.9502091932421623e-07 0 -1.9839766660489744e-06 9.6240416785430416e-07 0 -3.2433523736008289e-06 8.8700205962219429e-07 0 -4.9859870378948188e-06 3.6950183802722625e-07 0 -3.9584606104891094e-06 7.0735679059290819e-07 0 -3.2433523736008289e-06 8.8700205962219429e-07 0 -4.9859870378948188e-06 3.6950183802722625e-07 0 -3.2433523736008289e-06 8.8700205962219429e-07 0 -4.8822741961031888e-06 4.3187559345017565e-07 0 -3.7236203110028908e-06 6.7797766294827655e-07 0 -4.8822741961031888e-06 4.3187559345017565e-07 0 -3.2433523736008289e-06 8.8700205962219429e-07 0 -3.7236203110028908e-06 6.7797766294827655e-07 0 -4.8603677275472057e-06 3.9192930716414219e-07 0 -4.8822741961031888e-06 4.3187559345017565e-07 0 -6.3292735810545467e-06 -4.3451030281700658e-08 0 -6.5002090673818052e-06 -2.1146929020673741e-07 0 -4.8822741961031888e-06 4.3187559345017565e-07 0 -6.3292735810545467e-06 -4.3451030281700658e-08 0 -4.8822741961031888e-06 4.3187559345017565e-07 0 -4.8603677275472057e-06 3.9192930716414219e-07 0 -1.4264401776656876e-06 5.9121888666839683e-07 0 -3.1237905496607725e-06 6.5585842821373491e-07 0 -2.4018956089520765e-06 8.3114508914485232e-07 0 -3.7236203110028908e-06 6.7797766294827655e-07 0 -3.1237905496607725e-06 6.5585842821373491e-07 0 -4.8603677275472057e-06 3.9192930716414219e-07 0 -3.7236203110028908e-06 6.7797766294827655e-07 0 -2.4018956089520765e-06 8.3114508914485232e-07 0 -3.1237905496607725e-06 6.5585842821373491e-07 0 -3.7236203110028908e-06 6.7797766294827655e-07 0 -3.2433523736008289e-06 8.8700205962219429e-07 0 -2.4018956089520765e-06 8.3114508914485232e-07 0 -1.4264401776656876e-06 5.9121888666839683e-07 0 -2.4018956089520765e-06 8.3114508914485232e-07 0 -1.0808917326258972e-06 5.822312544984864e-07 0 -1.8495829771425491e-06 8.6218990372408271e-07 0 -1.0808917326258972e-06 5.822312544984864e-07 0 -2.4018956089520765e-06 8.3114508914485232e-07 0 -1.8495829771425491e-06 8.6218990372408271e-07 0 -2.4018956089520765e-06 8.3114508914485232e-07 0 -3.2433523736008289e-06 8.8700205962219429e-07 0 -1.8495829771425491e-06 8.6218990372408271e-07 0 -3.2433523736008289e-06 8.8700205962219429e-07 0 -1.9839766660489744e-06 9.6240416785430416e-07 0 -1.8495829771425491e-06 8.6218990372408271e-07 0 -1.9839766660489744e-06 9.6240416785430416e-07 0 -9.3913193732357437e-07 6.0970075103719717e-07 0 -1.8495829771425491e-06 8.6218990372408271e-07 0 -9.3913193732357437e-07 6.0970075103719717e-07 0 -1.0808917326258972e-06 5.822312544984864e-07 0 -1.0874338363555795e-09 2.985222648219449e-10 0 -1.0808917326258972e-06 5.822312544984864e-07 0 -9.3913193732357437e-07 6.0970075103719717e-07 0 -1.0874338363555795e-09 2.985222648219449e-10 0 -1.2798798590138677e-09 2.8671348620871302e-10 0 -1.0808917326258972e-06 5.822312544984864e-07 0 -1.2798798590138677e-09 2.8671348620871302e-10 0 -1.4264401776656876e-06 5.9121888666839683e-07 0 -1.0808917326258972e-06 5.822312544984864e-07 0 -1.2798798590138677e-09 2.8671348620871302e-10 0 -1.5525873780647822e-09 2.9815524471828161e-10 0 -1.4264401776656876e-06 5.9121888666839683e-07 0 -1.5525873780647822e-09 2.9815524471828161e-10 0 -1.5217772145050086e-06 4.5679208443211724e-07 0 -1.4264401776656876e-06 5.9121888666839683e-07 0 -1.1547356239849827e-06 7.3584823846370965e-07 0 -1.4623384172690379e-06 8.8491864101664584e-07 0 -8.2049016494735375e-07 5.0944656877114122e-07 0 -1.2855345953653971e-06 8.2408741265317257e-07 0 -8.2049016494735375e-07 5.0944656877114122e-07 0 -1.4623384172690379e-06 8.8491864101664584e-07 0 -1.4623384172690379e-06 8.8491864101664584e-07 0 -1.1547356239849827e-06 7.3584823846370965e-07 0 -2.0848807287577863e-06 1.0496163178435312e-06 0 -1.1547356239849827e-06 7.3584823846370965e-07 0 -1.9839766660489744e-06 9.6240416785430416e-07 0 -2.0848807287577863e-06 1.0496163178435312e-06 0 -1.1547356239849827e-06 7.3584823846370965e-07 0 -9.3913193732357448e-07 6.0970075103719717e-07 0 -1.9839766660489744e-06 9.6240416785430416e-07 0 -1.1547356239849827e-06 7.3584823846370965e-07 0 -5.5776054397331116e-07 4.0293635990205362e-07 0 -9.3913193732357437e-07 6.0970075103719717e-07 0 -8.6515507074437931e-10 2.214098377979338e-10 0 -1.0874338363555795e-09 2.985222648219449e-10 0 -9.3913193732357437e-07 6.0970075103719717e-07 0 -8.6515507074437931e-10 2.214098377979338e-10 0 -9.3913193732357437e-07 6.0970075103719717e-07 0 -5.5776054397331126e-07 4.0293635990205362e-07 0 -7.3574947813228359e-10 1.9239612112897809e-10 0 -8.6515507074437931e-10 2.214098377979338e-10 0 -5.5776054397331126e-07 4.0293635990205362e-07 0 -7.3574947813228359e-10 1.9239612112897809e-10 0 -5.5776054397331126e-07 4.0293635990205367e-07 0 -4.6669276390124927e-07 3.2799820974200863e-07 0 -6.8269900841680047e-10 1.6667480923754576e-10 0 -4.6669276390124927e-07 3.2799820974200863e-07 0 -8.2049016494735375e-07 5.0944656877114122e-07 0 -1.1547356239849827e-06 7.3584823846370965e-07 0 -8.2049016494735375e-07 5.0944656877114122e-07 0 -4.6669276390124927e-07 3.2799820974200863e-07 0 -1.1547356239849827e-06 7.3584823846370965e-07 0 -4.6669276390124927e-07 3.2799820974200863e-07 0 -5.5776054397331126e-07 4.0293635990205362e-07 0 -6.8269900841680047e-10 1.6667480923754576e-10 0 -7.3574947813228359e-10 1.9239612112897809e-10 0 -4.6669276390124927e-07 3.2799820974200863e-07 0 -6.8269900841680047e-10 1.6667480923754576e-10 0 -8.2049016494735375e-07 5.0944656877114122e-07 0 -5.2887372346643955e-07 1.9092905357211412e-07 0 -6.5948432331902126e-10 -3.2743909536457669e-11 0 -6.8269900841682931e-10 1.6667480923755617e-10 0 -5.2887372346643955e-07 1.9092905357211412e-07 0 -6.5948432331902126e-10 -3.2743909536457669e-11 0 -5.2887372346643955e-07 1.9092905357211412e-07 0 -4.3682772850983823e-07 -4.6001764007286276e-09 0 -8.5327458433938648e-07 1.7107573951517531e-07 0 -4.3682772850983823e-07 -4.6001764007286276e-09 0 -5.2887372346643955e-07 1.9092905357211412e-07 0 -8.2049016494735375e-07 5.0944656877114122e-07 0 -9.2378377071865658e-07 4.2412452537717611e-07 0 -5.2887372346643955e-07 1.9092905357211412e-07 0 -1.2855345953653971e-06 8.2408741265317257e-07 0 -9.2378377071865658e-07 4.2412452537717611e-07 0 -8.2049016494735375e-07 5.0944656877114122e-07 0 -8.5327458433938648e-07 1.7107573951517531e-07 0 -5.2887372346643955e-07 1.9092905357211412e-07 0 -9.2378377071865658e-07 4.2412452537717611e-07 0 -8.5327458433938648e-07 1.7107573951517531e-07 0 -9.2378377071865658e-07 4.2412452537717611e-07 0 -1.1423772785088692e-06 4.5660417670441632e-07 0 -9.2378377071865658e-07 4.2412452537717611e-07 0 -1.2855345953653971e-06 8.2408741265317257e-07 0 -1.1423772785088692e-06 4.5660417670441632e-07 0 -8.5327458433938648e-07 1.7107573951517531e-07 0 -1.1423772785088692e-06 4.5660417670441632e-07 0 -1.1765540804503974e-06 4.0999413340891915e-08 0 -1.2951334558840511e-06 -3.4707128095396205e-07 0 -6.9355866234298036e-07 -1.9761545064101577e-07 0 -1.1765540804503974e-06 4.0999413340891915e-08 0 -8.5327458433938648e-07 1.7107573951517531e-07 0 -1.1765540804503974e-06 4.0999413340891915e-08 0 -6.9355866234298036e-07 -1.9761545064101577e-07 0 -8.5327458433938648e-07 1.7107573951517531e-07 0 -6.9355866234298036e-07 -1.9761545064101577e-07 0 -4.3682772850983823e-07 -4.6001764007286276e-09 0 -6.7447877493080433e-10 2.6602631999438355e-11 0 -6.5948432331894123e-10 -3.2743909536456828e-11 0 -4.3682772850983823e-07 -4.6001764007286276e-09 0 -9.5401614147412844e-10 -2.5428074203209084e-10 0 -6.7447877493080433e-10 2.6602631999438355e-11 0 -6.9355866234298036e-07 -1.9761545064101577e-07 0 -6.7447877493080433e-10 2.6602631999438355e-11 0 -4.3682772850983828e-07 -4.6001764007286525e-09 0 -6.9355866234298036e-07 -1.9761545064101577e-07 0 -1.2257999885822486e-09 -3.3210921745805562e-10 0 -9.5401614147412844e-10 -2.5428074203209084e-10 0 -8.7497634682241991e-07 -4.7124262872625545e-07 0 -1.2951334558840511e-06 -3.4707128095396205e-07 0 -8.7497634682242002e-07 -4.7124262872625545e-07 0 -6.9355866234298036e-07 -1.9761545064101577e-07 0 -9.5401614147412844e-10 -2.5428074203209084e-10 0 -6.9355866234298036e-07 -1.9761545064101577e-07 0 -8.7497634682241991e-07 -4.7124262872625545e-07 0 -1.6472644551178582e-09 -4.9195551617764132e-10 0 -1.2257999885822486e-09 -3.3210921745805562e-10 0 -1.3592790909840009e-06 -7.5973306605580379e-07 0 -1.2257999885822486e-09 -3.3210921745805562e-10 0 -8.7497634682241991e-07 -4.7124262872625545e-07 0 -1.3592790909840009e-06 -7.5973306605580379e-07 0 -1.6472644551178582e-09 -4.9195551617764132e-10 0 -1.3592790909840009e-06 -7.5973306605580379e-07 0 -1.6412889418994322e-06 -8.0158524023334181e-07 0 -1.3592790909840009e-06 -7.5973306605580379e-07 0 -2.0780800044408285e-06 -6.577334159524724e-07 0 -2.9631640658296495e-06 -9.9528536539876001e-07 0 -3.1898894054271191e-06 -6.865349840363902e-07 0 -2.9631640658296495e-06 -9.9528536539876001e-07 0 -2.0780800044408285e-06 -6.577334159524724e-07 0 -1.3592790909840009e-06 -7.5973306605580379e-07 0 -8.7497634682241991e-07 -4.7124262872625545e-07 0 -2.0780800044408285e-06 -6.577334159524724e-07 0 -3.1898894054271191e-06 -6.865349840363902e-07 0 -4.5684402111061862e-06 -4.9047922843583841e-07 0 -2.9631640658296495e-06 -9.9528536539876001e-07 0 -1.2951334558840511e-06 -3.4707128095396205e-07 0 -2.0780800044408285e-06 -6.577334159524724e-07 0 -8.7497634682241991e-07 -4.7124262872625545e-07 0 -1.2951334558840511e-06 -3.4707128095396205e-07 0 -1.6795094032879716e-06 -1.9633036639948724e-08 0 -2.0780800044408285e-06 -6.577334159524724e-07 0 -1.2951334558840511e-06 -3.4707128095396205e-07 0 -1.1765540804503974e-06 4.0999413340891948e-08 0 -1.6795094032879716e-06 -1.9633036639948734e-08 0 -2.3801406936346301e-06 3.1481490407974111e-07 0 -2.0780800044408285e-06 -6.577334159524724e-07 0 -1.6795094032879716e-06 -1.9633036639948734e-08 0 -1.5491561653274776e-06 6.5969797531846107e-07 0 -2.3801406936346301e-06 3.1481490407974111e-07 0 -1.6795094032879716e-06 -1.9633036639948734e-08 0 -1.5491561653274776e-06 6.5969797531846107e-07 0 -1.9462253522682991e-06 1.3508931782465595e-06 0 -2.3801406936346301e-06 3.1481490407974111e-07 0 -2.3801406936346301e-06 3.1481490407974111e-07 0 -3.3243080134040938e-06 -1.7419250781498743e-07 0 -2.0780800044408285e-06 -6.577334159524724e-07 0 -3.1898894054271191e-06 -6.865349840363902e-07 0 -3.3243080134040938e-06 -1.7419250781498743e-07 0 -4.5684402111061862e-06 -4.9047922843583841e-07 0 -3.1898894054271191e-06 -6.865349840363902e-07 0 -2.0780800044408285e-06 -6.577334159524724e-07 0 -3.3243080134040938e-06 -1.7419250781498743e-07 0 -2.3801406936346301e-06 3.1481490407974111e-07 0 -3.8650866729782532e-06 5.952685539745491e-07 0 -3.3243080134040938e-06 -1.7419250781498743e-07 0 -5.7514288203161462e-06 1.1455589541214772e-07 0 -4.5684402111061862e-06 -4.9047922843583841e-07 0 -3.3243080134040938e-06 -1.7419250781498743e-07 0 -5.7514288203161462e-06 1.1455589541214772e-07 0 -3.3243080134040938e-06 -1.7419250781498743e-07 0 -3.8650866729782532e-06 5.952685539745491e-07 0 -5.7514288203161462e-06 1.1455589541214772e-07 0 -3.8650866729782532e-06 5.952685539745491e-07 0 -4.9345631090058175e-06 1.4236022223061929e-06 0 -2.9838759762127264e-06 1.6812416246888333e-06 0 -4.9345631090058175e-06 1.4236022223061929e-06 0 -3.8650866729782532e-06 5.952685539745491e-07 0 -2.9838759762127264e-06 1.6812416246888333e-06 0 -4.2748349000404358e-06 3.0475040651654309e-06 0 -4.9345631090058175e-06 1.4236022223061929e-06 0 -6.4603013108812333e-06 2.6331604401746541e-06 0 -8.1193288476879361e-06 1.336116355386367e-06 0 -4.9345631090058175e-06 1.4236022223061929e-06 0 -6.4603013108812333e-06 2.6331604401746541e-06 0 -4.9345631090058175e-06 1.4236022223061929e-06 0 -4.2748349000404358e-06 3.0475040651654301e-06 0 -2.9838759762127264e-06 1.6812416246888333e-06 0 -2.3801406936346305e-06 3.1481490407974116e-07 0 -1.9462253522682991e-06 1.3508931782465595e-06 0 -2.9838759762127264e-06 1.6812416246888333e-06 0 -3.8650866729782532e-06 5.9526855397454921e-07 0 -2.3801406936346301e-06 3.1481490407974111e-07 0 -2.9838759762127264e-06 1.6812416246888333e-06 0 -1.9462253522682991e-06 1.3508931782465595e-06 0 -2.2506983600658389e-06 2.6171067047284022e-06 0 -2.9838759762127264e-06 1.6812416246888333e-06 0 -2.2506983600658389e-06 2.6171067047284022e-06 0 -2.6113595514765268e-06 3.7502027402202937e-06 0 -1.8744852030783891e-06 2.0707145258737712e-06 0 -2.2506983600658389e-06 2.6171067047284022e-06 0 -1.9462253522682991e-06 1.3508931782465595e-06 0 -2.1334995396303807e-06 3.1166132381741774e-06 0 -2.2506983600658389e-06 2.6171067047284022e-06 0 -1.8744852030783891e-06 2.0707145258737712e-06 0 -1.8744852030783891e-06 2.0707145258737712e-06 0 -1.9462253522682991e-06 1.3508931782465595e-06 0 -1.619029403874788e-06 1.2490436993385174e-06 0 -1.8812243098640309e-06 1.5664790063649073e-06 0 -1.8744852030783889e-06 2.0707145258737712e-06 0 -1.619029403874788e-06 1.2490436993385174e-06 0 -2.1334995396303807e-06 3.1166132381741774e-06 0 -1.8744852030783891e-06 2.0707145258737712e-06 0 -2.2882373243879655e-06 2.4141305745359885e-06 0 -1.8812243098640309e-06 1.5664790063649073e-06 0 -2.2882373243879655e-06 2.4141305745359885e-06 0 -1.8744852030783891e-06 2.0707145258737712e-06 0 -1.8812243098640309e-06 1.5664790063649073e-06 0 -2.7980531717253524e-06 1.7815552017363245e-06 0 -2.2882373243879655e-06 2.4141305745359885e-06 0 -1.8812243098640309e-06 1.5664790063649073e-06 0 -1.7309661752132573e-06 1.1819768757984356e-06 0 -2.3643019074500102e-06 1.3451068529077948e-06 0 -1.8812243098640309e-06 1.5664790063649073e-06 0 -2.3643019074500102e-06 1.3451068529077948e-06 0 -2.7980531717253524e-06 1.7815552017363245e-06 0 -1.8812243098640309e-06 1.5664790063649073e-06 0 -1.619029403874788e-06 1.2490436993385174e-06 0 -1.3995940201170191e-06 8.9234511019212016e-07 0 -1.8812243098640309e-06 1.5664790063649073e-06 0 -1.3995940201170191e-06 8.9234511019212016e-07 0 -1.7309661752132573e-06 1.1819768757984359e-06 0 -1.2855345953653971e-06 8.2408741265317257e-07 0 -1.7309661752132573e-06 1.1819768757984359e-06 0 -1.3995940201170191e-06 8.9234511019212016e-07 0 -1.1423772785088692e-06 4.5660417670441632e-07 0 -1.2855345953653971e-06 8.2408741265317257e-07 0 -1.3995940201170191e-06 8.9234511019212016e-07 0 -1.5491561653274776e-06 6.5969797531846107e-07 0 -1.1423772785088692e-06 4.5660417670441632e-07 0 -1.3995940201170191e-06 8.9234511019212016e-07 0 -1.5491561653274776e-06 6.5969797531846107e-07 0 -1.1765540804503974e-06 4.0999413340891915e-08 0 -1.1423772785088692e-06 4.5660417670441632e-07 0 -1.5491561653274776e-06 6.5969797531846107e-07 0 -1.6795094032879716e-06 -1.9633036639948734e-08 0 -1.1765540804503974e-06 4.0999413340891915e-08 0 -1.619029403874788e-06 1.2490436993385174e-06 0 -1.9462253522682991e-06 1.3508931782465595e-06 0 -1.5491561653274776e-06 6.5969797531846107e-07 0 -1.5491561653274776e-06 6.5969797531846107e-07 0 -1.3995940201170191e-06 8.9234511019212027e-07 0 -1.619029403874788e-06 1.2490436993385174e-06 0 -1.5915746392104626e-05 4.0669691906022976e-06 0 -1.0413311631538696e-05 3.1368116371878558e-06 0 -9.4697910300363396e-06 1.6701602862967364e-06 0 -6.3544817441029896e-06 1.8669731181480354e-07 0 -9.4697910300363396e-06 1.6701602862967364e-06 0 -4.5406246666866732e-06 7.5352955848163896e-07 0 -5.3187129643535579e-06 2.2983085175240199e-06 0 -4.5406246666866732e-06 7.5352955848163896e-07 0 -1.0413311631538696e-05 3.1368116371878558e-06 0 -1.0413311631538696e-05 3.1368116371878558e-06 0 -4.5406246666866732e-06 7.5352955848163896e-07 0 -9.4697910300363396e-06 1.6701602862967364e-06 0 -5.3187129643535579e-06 2.2983085175240199e-06 0 -2.2511883145428836e-06 6.4548906256434875e-07 0 -4.5406246666866732e-06 7.5352955848163896e-07 0 -5.8662236799794808e-09 2.4994752100222757e-09 0 -2.2511883145428836e-06 6.4548906256434875e-07 0 -5.3187129643535579e-06 2.2983085175240199e-06 0 -5.8662236799794808e-09 2.4994752100222757e-09 0 -3.4790229991387242e-09 -5.131159989286838e-10 0 -2.2511883145428836e-06 6.4548906256434875e-07 0 -3.4790229991387242e-09 -5.131159989286838e-10 0 -4.5406246666866732e-06 7.5352955848163896e-07 0 -2.2511883145428836e-06 6.4548906256434875e-07 0 -3.4790229991387242e-09 -5.131159989286838e-10 0 -3.0617197702251674e-06 -2.191381326633423e-07 0 -4.5406246666866732e-06 7.5352955848163896e-07 0 -6.3544817441029896e-06 1.8669731181480354e-07 0 -4.5406246666866732e-06 7.5352955848163896e-07 0 -3.061719770225167e-06 -2.1913813266334254e-07 0 -3.4790229991387242e-09 -5.131159989286838e-10 0 -3.6708945975590295e-09 1.903476669074664e-10 0 -3.061719770225167e-06 -2.1913813266334254e-07 0 -3.670894597558972e-09 1.9034766690747059e-10 0 -2.5436915805978898e-09 -7.4855472769946456e-10 0 -3.061719770225167e-06 -2.1913813266334254e-07 0 -6.3544817441029896e-06 1.8669731181480354e-07 0 -3.061719770225167e-06 -2.1913813266334254e-07 0 -3.9108366234510318e-06 -6.8274597929290322e-07 0 -6.3544817441029896e-06 1.8669731181480354e-07 0 -3.9108366234510318e-06 -6.8274597929290322e-07 0 -6.99779283379925e-06 -3.1629182726048502e-07 0 -6.3544817441029896e-06 1.8669731181480354e-07 0 -9.6885611414124308e-06 5.518861797358421e-07 0 -9.4697910300363396e-06 1.6701602862967364e-06 0 -1.315429065990871e-05 1.8659550505441901e-06 0 -9.4697910300363396e-06 1.6701602862967364e-06 0 -9.6885611414124308e-06 5.518861797358421e-07 0 -8.9699354329906585e-06 -8.0977377661833179e-08 0 -9.6885611414124291e-06 5.5188617973584188e-07 0 -6.99779283379925e-06 -3.1629182726048502e-07 0 -6.3544817441029896e-06 1.8669731181480354e-07 0 -6.99779283379925e-06 -3.1629182726048502e-07 0 -9.6885611414124308e-06 5.518861797358421e-07 0 -8.9699354329906585e-06 -8.0977377661833179e-08 0 -6.99779283379925e-06 -3.1629182726048502e-07 0 -5.9193366165795315e-06 -7.3113452061937298e-07 0 -3.7128993418058719e-06 -9.8175833647161516e-07 0 -5.9193366165795315e-06 -7.3113452061937298e-07 0 -3.9108366234510318e-06 -6.8274597929290322e-07 0 -3.9108366234510318e-06 -6.8274597929290322e-07 0 -5.9193366165795315e-06 -7.3113452061937309e-07 0 -6.99779283379925e-06 -3.1629182726048502e-07 0 -2.5436915805978898e-09 -7.4855472769946456e-10 0 -1.8450625295051557e-06 -6.6091436722578004e-07 0 -3.9108366234510318e-06 -6.8274597929290322e-07 0 -2.5436915805978898e-09 -7.4855472769946456e-10 0 -3.9108366234510318e-06 -6.8274597929290333e-07 0 -3.061719770225167e-06 -2.1913813266334254e-07 0 -2.5436915805978898e-09 -7.4855472769946456e-10 0 -2.2162188207032501e-09 -3.4837429319392482e-10 0 -1.8450625295051557e-06 -6.6091436722578004e-07 0 -3.7128993418058719e-06 -9.8175833647161516e-07 0 -3.9108366234510326e-06 -6.8274597929290311e-07 0 -1.8450625295051557e-06 -6.6091436722578004e-07 0 -3.7128993418058719e-06 -9.8175833647161516e-07 0 -1.8450625295051557e-06 -6.6091436722578004e-07 0 -1.6412889418994322e-06 -8.0158524023334181e-07 0 -2.2162188207032501e-09 -3.4837429319392482e-10 0 -1.6412889418994322e-06 -8.0158524023334181e-07 0 -1.8450625295051557e-06 -6.6091436722578004e-07 0 -2.2162188207032501e-09 -3.4837429319392482e-10 0 -1.6472644551178582e-09 -4.9195551617764132e-10 0 -1.6412889418994322e-06 -8.0158524023334181e-07 0 -1.3592790909840009e-06 -7.5973306605580379e-07 0 -2.9631640658296495e-06 -9.9528536539876001e-07 0 -1.6412889418994322e-06 -8.0158524023334181e-07 0 -3.7128993418058719e-06 -9.8175833647161516e-07 0 -1.6412889418994322e-06 -8.0158524023334181e-07 0 -2.9631640658296495e-06 -9.9528536539876001e-07 0 -3.7128993418058719e-06 -9.8175833647161516e-07 0 -5.9400504344256219e-06 -6.7028984245964683e-07 0 -5.9193366165795315e-06 -7.3113452061937298e-07 0 -3.7128993418058719e-06 -9.8175833647161516e-07 0 -2.9631640658296491e-06 -9.9528536539876001e-07 0 -5.9400504344256219e-06 -6.7028984245964683e-07 0 -5.9400504344256219e-06 -6.7028984245964683e-07 0 -2.9631640658296495e-06 -9.9528536539876001e-07 0 -4.5684402111061862e-06 -4.9047922843583841e-07 0 -5.7514288203161462e-06 1.1455589541214772e-07 0 -5.9400504344256219e-06 -6.7028984245964683e-07 0 -4.5684402111061862e-06 -4.9047922843583841e-07 0 -5.7514288203161462e-06 1.1455589541214772e-07 0 -8.8079028191764354e-06 1.382434574312525e-07 0 -5.9400504344256219e-06 -6.7028984245964683e-07 0 -5.7514288203161462e-06 1.1455589541214772e-07 0 -4.9345631090058175e-06 1.4236022223061929e-06 0 -8.1193288476879361e-06 1.336116355386367e-06 0 -1.0899209831176757e-05 1.4180508186757558e-06 0 -8.1193288476879361e-06 1.336116355386367e-06 0 -1.2326475538595042e-05 3.0687656683125515e-06 0 -1.0899209831176757e-05 1.4180508186757558e-06 0 -8.8079028191764354e-06 1.382434574312525e-07 0 -8.1193288476879361e-06 1.336116355386367e-06 0 -5.7514288203161462e-06 1.1455589541214772e-07 0 -8.1193288476879361e-06 1.336116355386367e-06 0 -8.8079028191764354e-06 1.382434574312525e-07 0 -1.0899209831176757e-05 1.4180508186757558e-06 0 -1.3254414177737793e-05 1.267793343681347e-06 0 -8.8079028191764354e-06 1.382434574312525e-07 0 -1.0899209831176757e-05 1.4180508186757558e-06 0 -1.2326475538595042e-05 3.0687656683125515e-06 0 -1.5263363819260169e-05 2.7070372810999928e-06 0 -1.0899209831176757e-05 1.4180508186757558e-06 0 -1.5263363819260169e-05 2.7070372810999928e-06 0 -1.3254414177737793e-05 1.2677933436813468e-06 0 -8.9699354329906585e-06 -8.0977377661833179e-08 0 -8.8079028191764354e-06 1.382434574312525e-07 0 -1.3254414177737793e-05 1.2677933436813468e-06 0 -8.9699354329906585e-06 -8.0977377661833179e-08 0 -1.3254414177737793e-05 1.2677933436813468e-06 0 -1.242778934991803e-05 1.0613178211930099e-06 0 -8.9699354329906585e-06 -8.0977377661833179e-08 0 -5.9400504344256219e-06 -6.7028984245964683e-07 0 -8.8079028191764354e-06 1.382434574312525e-07 0 -8.9699354329906585e-06 -8.0977377661833179e-08 0 -5.9193366165795315e-06 -7.3113452061937309e-07 0 -5.9400504344256219e-06 -6.7028984245964683e-07 0 -8.9699354329906585e-06 -8.0977377661833179e-08 0 -1.242778934991803e-05 1.0613178211930099e-06 0 -9.6885611414124308e-06 5.518861797358421e-07 0 -1.315429065990871e-05 1.8659550505441901e-06 0 -9.6885611414124308e-06 5.518861797358421e-07 0 -1.242778934991803e-05 1.0613178211930099e-06 0 -1.7027197039488334e-05 2.5853357961231826e-06 0 -1.3154290659908708e-05 1.8659550505441899e-06 0 -1.242778934991803e-05 1.0613178211930099e-06 0 -1.7027197039488334e-05 2.5853357961231826e-06 0 -1.242778934991803e-05 1.0613178211930099e-06 0 -1.3254414177737793e-05 1.2677933436813468e-06 0 -1.7027197039488334e-05 2.5853357961231826e-06 0 -1.3254414177737793e-05 1.2677933436813468e-06 0 -2.0453387737245315e-05 3.992526988653084e-06 0 -1.3254414177737793e-05 1.2677933436813468e-06 0 -1.5263363819260166e-05 2.7070372810999928e-06 0 -2.0453387737245315e-05 3.992526988653084e-06 0 -1.7027197039488334e-05 2.5853357961231826e-06 0 -2.0453387737245315e-05 3.992526988653084e-06 0 -2.2932873352347269e-05 4.9195636146936131e-06 0 -1.7027197039488334e-05 2.5853357961231826e-06 0 -2.2932873352347269e-05 4.9195636146936131e-06 0 -1.8340944720443683e-05 3.6138152009487414e-06 0 -2.8097317977283819e-05 7.2610148263304206e-06 0 -2.2932873352347269e-05 4.9195636146936131e-06 0 -2.0453387737245315e-05 3.992526988653084e-06 0 -2.8804543465648037e-05 7.8646855825005531e-06 0 -2.2011303254159987e-05 5.5677357351884604e-06 0 -2.2932873352347269e-05 4.9195636146936131e-06 0 -2.2011303254159987e-05 5.5677357351884604e-06 0 -1.8340944720443683e-05 3.6138152009487414e-06 0 -2.2932873352347269e-05 4.9195636146936131e-06 0 -2.2011303254159987e-05 5.5677357351884604e-06 0 -1.5915746392104626e-05 4.0669691906022976e-06 0 -1.8340944720443683e-05 3.6138152009487414e-06 0 -1.7027197039488334e-05 2.5853357961231826e-06 0 -1.8340944720443683e-05 3.6138152009487414e-06 0 -1.315429065990871e-05 1.8659550505441901e-06 0 -1.5915746392104626e-05 4.0669691906022976e-06 0 -1.315429065990871e-05 1.8659550505441901e-06 0 -1.8340944720443683e-05 3.6138152009487414e-06 0 -1.5915746392104626e-05 4.0669691906022976e-06 0 -9.4697910300363413e-06 1.6701602862967364e-06 0 -1.315429065990871e-05 1.8659550505441901e-06 0 -4.4671121564657917e-05 1.681552218446739e-05 0 -3.495320102618302e-05 1.1600771481418478e-05 0 -4.1521452695325254e-05 1.6359490895727978e-05 0 -5.4022891181442463e-05 2.4189331762840583e-05 0 -4.4671121564657917e-05 1.681552218446739e-05 0 -4.1521452695325254e-05 1.6359490895727978e-05 0 -3.3507803498513482e-05 1.3576601648049154e-05 0 -4.1521452695325254e-05 1.6359490895727978e-05 0 -3.495320102618302e-05 1.1600771481418478e-05 0 -3.3507803498513482e-05 1.3576601648049154e-05 0 -4.285223033377966e-05 2.0578913730989616e-05 0 -4.1521452695325254e-05 1.6359490895727978e-05 0 -4.4671121564657917e-05 1.681552218446739e-05 0 -3.628104502595102e-05 1.1448730170411785e-05 0 -3.495320102618302e-05 1.1600771481418478e-05 0 -3.628104502595102e-05 1.1448730170411785e-05 0 -2.8804543465648037e-05 7.8646855825005531e-06 0 -2.8097317977283819e-05 7.2610148263304206e-06 0 -2.8804543465648037e-05 7.8646855825005531e-06 0 -2.2932873352347269e-05 4.9195636146936131e-06 0 -2.8097317977283819e-05 7.2610148263304206e-06 0 -3.628104502595102e-05 1.1448730170411785e-05 0 -2.8097317977283819e-05 7.2610148263304206e-06 0 -3.495320102618302e-05 1.1600771481418478e-05 0 -2.8097317977283819e-05 7.2610148263304206e-06 0 -2.5549287478135202e-05 7.7723443666378576e-06 0 -3.495320102618302e-05 1.1600771481418478e-05 0 -1.9772691549461145e-05 4.7759067557251427e-06 0 -2.5549287478135202e-05 7.7723443666378593e-06 0 -2.0453387737245315e-05 3.992526988653084e-06 0 -2.8097317977283819e-05 7.2610148263304206e-06 0 -2.0453387737245315e-05 3.992526988653084e-06 0 -2.5549287478135202e-05 7.7723443666378593e-06 0 -1.9772691549461145e-05 4.7759067557251427e-06 0 -2.0453387737245315e-05 3.992526988653084e-06 0 -1.5263363819260169e-05 2.7070372810999928e-06 0 -3.3507803498513482e-05 1.3576601648049154e-05 0 -2.5549287478135202e-05 7.7723443666378593e-06 0 -2.7045411848191797e-05 1.2262027327425838e-05 0 -3.3507803498513482e-05 1.3576601648049154e-05 0 -3.495320102618302e-05 1.1600771481418478e-05 0 -2.5549287478135202e-05 7.7723443666378593e-06 0 -3.3507803498513482e-05 1.3576601648049154e-05 0 -2.7045411848191797e-05 1.2262027327425838e-05 0 -3.3679984016871201e-05 1.8549836730306147e-05 0 -2.7045411848191797e-05 1.2262027327425838e-05 0 -1.9648180429017429e-05 8.4743123183692771e-06 0 -2.2791579568079451e-05 1.5496538516629136e-05 0 -1.9648180429017429e-05 8.4743123183692771e-06 0 -1.5581944750408966e-05 9.8514373496959274e-06 0 -2.2791579568079451e-05 1.5496538516629136e-05 0 -1.9648180429017429e-05 8.4743123183692771e-06 0 -1.3938357237310489e-05 5.7813246288124749e-06 0 -1.5581944750408966e-05 9.8514373496959274e-06 0 -1.9648180429017429e-05 8.4743123183692771e-06 0 -2.7045411848191797e-05 1.2262027327425838e-05 0 -2.5549287478135202e-05 7.7723443666378593e-06 0 -1.9648180429017429e-05 8.4743123183692771e-06 0 -2.5549287478135202e-05 7.7723443666378593e-06 0 -1.7430771048111417e-05 5.2784434711445284e-06 0 -1.9772691549461145e-05 4.7759067557251427e-06 0 -1.7430771048111417e-05 5.2784434711445284e-06 0 -2.5549287478135202e-05 7.7723443666378593e-06 0 -1.9772691549461145e-05 4.7759067557251427e-06 0 -1.5263363819260169e-05 2.7070372810999928e-06 0 -1.7430771048111417e-05 5.2784434711445284e-06 0 -1.2326475538595042e-05 3.0687656683125515e-06 0 -1.7430771048111417e-05 5.2784434711445284e-06 0 -1.5263363819260169e-05 2.7070372810999928e-06 0 -1.2326475538595042e-05 3.0687656683125515e-06 0 -1.3938357237310489e-05 5.781324628812474e-06 0 -1.7430771048111417e-05 5.2784434711445284e-06 0 -1.9648180429017429e-05 8.4743123183692771e-06 0 -1.7430771048111414e-05 5.2784434711445284e-06 0 -1.3938357237310489e-05 5.7813246288124749e-06 0 -1.2326475538595042e-05 3.0687656683125515e-06 0 -9.4453147314039722e-06 3.7212620336905047e-06 0 -1.3938357237310489e-05 5.7813246288124749e-06 0 -1.0449319433068725e-05 7.0557113393529008e-06 0 -1.3938357237310489e-05 5.7813246288124749e-06 0 -9.4453147314039739e-06 3.7212620336905052e-06 0 -1.2326475538595042e-05 3.0687656683125515e-06 0 -8.1193288476879361e-06 1.336116355386367e-06 0 -9.4453147314039739e-06 3.7212620336905052e-06 0 -6.4603013108812333e-06 2.6331604401746541e-06 0 -6.6885638341962208e-06 4.7191628551164053e-06 0 -9.4453147314039739e-06 3.7212620336905052e-06 0 -6.4603013108812333e-06 2.6331604401746541e-06 0 -9.4453147314039739e-06 3.7212620336905052e-06 0 -8.1193288476879361e-06 1.336116355386367e-06 0 -1.0449319433068725e-05 7.0557113393529008e-06 0 -9.4453147314039739e-06 3.7212620336905047e-06 0 -6.6885638341962208e-06 4.7191628551164053e-06 0 -1.0449319433068725e-05 7.0557113393529008e-06 0 -6.6885638341962208e-06 4.7191628551164053e-06 0 -6.3650889886519508e-06 8.4358727252060603e-06 0 -1.0449319433068725e-05 7.0557113393529008e-06 0 -1.5581944750408966e-05 9.8514373496959274e-06 0 -1.3938357237310489e-05 5.7813246288124749e-06 0 -1.0449319433068725e-05 7.0557113393529008e-06 0 -1.2005163869810006e-05 1.2229795385667285e-05 0 -1.5581944750408966e-05 9.8514373496959274e-06 0 -1.0449319433068725e-05 7.0557113393529008e-06 0 -6.3650889886519508e-06 8.4358727252060603e-06 0 -1.2005163869810006e-05 1.2229795385667285e-05 0 -5.4894727703974531e-06 1.2867492474747137e-05 0 -1.0213180590190305e-05 1.6959600093984966e-05 0 -1.2005163869810006e-05 1.2229795385667285e-05 0 -5.4894727703974531e-06 1.2867492474747137e-05 0 -1.2005163869810006e-05 1.2229795385667285e-05 0 -6.3650889886519508e-06 8.4358727252060603e-06 0 -2.2791579568079451e-05 1.5496538516629136e-05 0 -1.2005163869810006e-05 1.2229795385667287e-05 0 -1.7215055534661919e-05 1.8927086100805254e-05 0 -2.2791579568079451e-05 1.5496538516629136e-05 0 -1.5581944750408966e-05 9.8514373496959274e-06 0 -1.2005163869810006e-05 1.2229795385667285e-05 0 -1.2005163869810006e-05 1.2229795385667285e-05 0 -1.0213180590190305e-05 1.6959600093984966e-05 0 -1.7215055534661919e-05 1.8927086100805254e-05 0 -1.4881418974555023e-05 2.569814129878337e-05 0 -1.0213180590190304e-05 1.6959600093984966e-05 0 -4.9178437492775709e-06 1.927534543293065e-05 0 -1.4881418974555023e-05 2.569814129878337e-05 0 -4.9178437492775709e-06 1.927534543293065e-05 0 -9.3827042719953068e-06 3.4652310344764894e-05 0 -1.4881418974555023e-05 2.569814129878337e-05 0 -9.3827042719953068e-06 3.4652310344764894e-05 0 -1.7731453804601715e-05 3.8013782703934635e-05 0 -1.4881418974555023e-05 2.569814129878337e-05 0 -1.7731453804601715e-05 3.8013782703934635e-05 0 -2.7026050252436823e-05 4.0516342247721181e-05 0 -1.4881418974555023e-05 2.569814129878337e-05 0 -2.7478839388549865e-05 2.7537130284487145e-05 0 -1.7215055534661919e-05 1.8927086100805254e-05 0 -1.4881418974555023e-05 2.569814129878337e-05 0 -1.7215055534661919e-05 1.8927086100805251e-05 0 -1.0213180590190305e-05 1.6959600093984966e-05 0 -1.4881418974555023e-05 2.569814129878337e-05 0 -2.7026050252436823e-05 4.0516342247721181e-05 0 -2.7478839388549865e-05 2.7537130284487145e-05 0 -3.9986511368416659e-05 4.2265203575626533e-05 0 -2.7478839388549865e-05 2.7537130284487145e-05 0 -2.7026050252436823e-05 4.0516342247721181e-05 0 -3.9986511368416659e-05 4.2265203575626533e-05 0 -3.4643098569884107e-05 2.5793511226591068e-05 0 -2.7478839388549865e-05 2.7537130284487145e-05 0 -2.2791579568079451e-05 1.5496538516629136e-05 0 -2.7478839388549861e-05 2.7537130284487145e-05 0 -3.4643098569884107e-05 2.5793511226591071e-05 0 -2.2791579568079451e-05 1.5496538516629136e-05 0 -3.4643098569884107e-05 2.5793511226591071e-05 0 -3.3679984016871201e-05 1.8549836730306147e-05 0 -2.2791579568079451e-05 1.5496538516629136e-05 0 -1.7215055534661919e-05 1.8927086100805258e-05 0 -2.7478839388549865e-05 2.7537130284487145e-05 0 -2.2791579568079451e-05 1.5496538516629136e-05 0 -3.3679984016871201e-05 1.8549836730306147e-05 0 -2.7045411848191797e-05 1.2262027327425838e-05 0 -3.3507803498513482e-05 1.3576601648049154e-05 0 -3.3679984016871201e-05 1.8549836730306147e-05 0 -4.285223033377966e-05 2.0578913730989616e-05 0 -4.3206246589971173e-05 2.7182359879447469e-05 0 -4.285223033377966e-05 2.0578913730989616e-05 0 -3.3679984016871201e-05 1.8549836730306147e-05 0 -4.3206246589971173e-05 2.7182359879447469e-05 0 -3.3679984016871201e-05 1.8549836730306147e-05 0 -3.4643098569884107e-05 2.5793511226591071e-05 0 -4.3206246589971173e-05 2.7182359879447469e-05 0 -3.4643098569884107e-05 2.5793511226591071e-05 0 -4.6360334539559835e-05 3.628855236055257e-05 0 -3.9986511368416659e-05 4.2265203575626533e-05 0 -4.6360334539559835e-05 3.628855236055257e-05 0 -3.4643098569884107e-05 2.5793511226591071e-05 0 -5.9020701393329912e-05 5.1900705047621774e-05 0 -5.6219508017787368e-05 3.754585934507504e-05 0 -4.6360334539559835e-05 3.628855236055257e-05 0 -3.9986511368416659e-05 4.2265203575626533e-05 0 -5.9020701393329912e-05 5.1900705047621774e-05 0 -4.6360334539559835e-05 3.628855236055257e-05 0 -4.3206246589971173e-05 2.7182359879447469e-05 0 -4.6360334539559835e-05 3.628855236055257e-05 0 -5.6219508017787368e-05 3.754585934507504e-05 0 -4.3206246589971173e-05 2.7182359879447469e-05 0 -5.6219508017787368e-05 3.754585934507504e-05 0 -5.2087245077899446e-05 2.8237582928221106e-05 0 -7.3593076188475855e-05 4.8482355358476831e-05 0 -5.6219508017787368e-05 3.754585934507504e-05 0 -5.9020701393329912e-05 5.1900705047621774e-05 0 -7.3593076188475855e-05 4.8482355358476831e-05 0 -6.3921581910723695e-05 3.4749696961578201e-05 0 -5.6219508017787368e-05 3.754585934507504e-05 0 -6.3921581910723695e-05 3.4749696961578201e-05 0 -5.2087245077899446e-05 2.8237582928221106e-05 0 -5.6219508017787368e-05 3.754585934507504e-05 0 -6.3921581910723695e-05 3.4749696961578201e-05 0 -5.4022891181442463e-05 2.4189331762840583e-05 0 -5.2087245077899446e-05 2.8237582928221106e-05 0 -5.4022891181442463e-05 2.4189331762840583e-05 0 -4.285223033377966e-05 2.0578913730989616e-05 0 -5.2087245077899446e-05 2.8237582928221106e-05 0 -4.3206246589971173e-05 2.7182359879447469e-05 0 -5.2087245077899446e-05 2.8237582928221106e-05 0 -4.285223033377966e-05 2.0578913730989616e-05 0 -5.4022891181442463e-05 2.4189331762840583e-05 0 -4.1521452695325254e-05 1.6359490895727978e-05 0 -4.285223033377966e-05 2.0578913730989616e-05 0 -3.0473872534656818e-06 4.7236321419013197e-06 0 -2.9802485991489521e-06 6.2830786640219108e-06 0 -2.3565852361773745e-06 4.9988729519373423e-06 0 -2.3619737230338649e-06 7.4285188233165636e-06 0 -2.3565852361773745e-06 4.9988729519373423e-06 0 -2.9802485991489521e-06 6.2830786640219108e-06 0 -2.3619737230338649e-06 7.4285188233165636e-06 0 -2.9802485991489521e-06 6.2830786640219108e-06 0 -2.9378340160233118e-06 8.6875652321150768e-06 0 -3.0473872534656818e-06 4.7236321419013197e-06 0 -4.2996465584867551e-06 5.1266719788079968e-06 0 -2.9802485991489521e-06 6.2830786640219108e-06 0 -6.0577496405353249e-06 3.0061118049577913e-06 0 -4.2996465584867551e-06 5.1266719788079968e-06 0 -4.0624919586847172e-06 3.3244758596314316e-06 0 -3.0473872534656818e-06 4.7236321419013197e-06 0 -4.0624919586847172e-06 3.3244758596314316e-06 0 -4.2996465584867551e-06 5.1266719788079968e-06 0 -6.0577496405353249e-06 3.0061118049577913e-06 0 -4.0624919586847172e-06 3.3244758596314316e-06 0 -5.6518023918721446e-06 1.8678688748478235e-06 0 -3.0473872534656818e-06 4.7236321419013197e-06 0 -2.5773379434515867e-06 3.5277356251673886e-06 0 -4.0624919586847172e-06 3.3244758596314316e-06 0 -3.3481160484509188e-06 2.32125199941131e-06 0 -4.0624919586847172e-06 3.324475859631432e-06 0 -2.5773379434515867e-06 3.5277356251673886e-06 0 -4.6524170605394645e-06 1.6853889664927944e-06 0 -4.0624919586847172e-06 3.3244758596314316e-06 0 -3.3481160484509188e-06 2.32125199941131e-06 0 -3.3481160484509188e-06 2.32125199941131e-06 0 -2.2882373243879655e-06 2.4141305745359885e-06 0 -2.7980531717253524e-06 1.7815552017363245e-06 0 -3.3481160484509188e-06 2.32125199941131e-06 0 -2.5773379434515867e-06 3.5277356251673886e-06 0 -2.2882373243879655e-06 2.4141305745359885e-06 0 -2.1334995396303807e-06 3.1166132381741774e-06 0 -2.2882373243879655e-06 2.4141305745359885e-06 0 -2.5773379434515867e-06 3.5277356251673886e-06 0 -3.0473872534656818e-06 4.7236321419013197e-06 0 -2.3565852361773745e-06 4.9988729519373423e-06 0 -2.5773379434515867e-06 3.5277356251673886e-06 0 -2.1334995396303807e-06 3.1166132381741774e-06 0 -2.5773379434515867e-06 3.5277356251673886e-06 0 -2.3565852361773745e-06 4.9988729519373423e-06 0 -2.1334995396303807e-06 3.1166132381741774e-06 0 -2.3565852361773745e-06 4.9988729519373423e-06 0 -2.6113595514765268e-06 3.7502027402202937e-06 0 -2.1334995396303807e-06 3.1166132381741774e-06 0 -2.6113595514765268e-06 3.7502027402202937e-06 0 -2.2506983600658389e-06 2.6171067047284022e-06 0 -2.9838759762127264e-06 1.6812416246888333e-06 0 -2.6113595514765268e-06 3.7502027402202937e-06 0 -4.2748349000404358e-06 3.0475040651654301e-06 0 -4.1074810906892382e-06 5.5159072902186531e-06 0 -2.6113595514765264e-06 3.7502027402202941e-06 0 -2.6862082345521187e-06 5.8517097561464313e-06 0 -4.1074810906892382e-06 5.5159072902186531e-06 0 -4.2748349000404358e-06 3.0475040651654301e-06 0 -2.6113595514765268e-06 3.7502027402202937e-06 0 -2.6113595514765268e-06 3.7502027402202937e-06 0 -2.3565852361773745e-06 4.9988729519373423e-06 0 -2.6862082345521187e-06 5.8517097561464313e-06 0 -6.4603013108812333e-06 2.6331604401746541e-06 0 -4.2748349000404358e-06 3.0475040651654301e-06 0 -6.6885638341962208e-06 4.7191628551164053e-06 0 -4.1074810906892382e-06 5.5159072902186531e-06 0 -6.6885638341962208e-06 4.7191628551164053e-06 0 -4.2748349000404358e-06 3.0475040651654301e-06 0 -4.1074810906892382e-06 5.5159072902186531e-06 0 -6.3650889886519508e-06 8.4358727252060603e-06 0 -6.6885638341962208e-06 4.7191628551164053e-06 0 -4.1074810906892382e-06 5.5159072902186531e-06 0 -3.0537055916859588e-06 8.7802157860781444e-06 0 -6.3650889886519508e-06 8.4358727252060603e-06 0 -5.4894727703974531e-06 1.2867492474747137e-05 0 -6.3650889886519508e-06 8.4358727252060603e-06 0 -3.0537055916859588e-06 8.7802157860781444e-06 0 -2.3619737230338649e-06 7.4285188233165636e-06 0 -2.6862082345521187e-06 5.8517097561464313e-06 0 -2.3565852361773745e-06 4.9988729519373423e-06 0 -4.1074810906892382e-06 5.5159072902186531e-06 0 -2.6862082345521187e-06 5.8517097561464313e-06 0 -3.0537055916859588e-06 8.7802157860781444e-06 0 -2.3619737230338649e-06 7.4285188233165636e-06 0 -3.0537055916859588e-06 8.7802157860781444e-06 0 -2.6862082345521187e-06 5.8517097561464313e-06 0 -2.3619737230338649e-06 7.4285188233165636e-06 0 -2.1167563480126206e-06 1.0333969481884384e-05 0 -3.0537055916859588e-06 8.7802157860781444e-06 0 -2.3619737230338649e-06 7.4285188233165636e-06 0 -2.9378340160233118e-06 8.6875652321150768e-06 0 -2.1167563480126211e-06 1.0333969481884384e-05 0 -3.0537055916859588e-06 8.7802157860781444e-06 0 -2.1167563480126211e-06 1.0333969481884384e-05 0 -1.2996533179175448e-06 1.4310437771341448e-05 0 -2.4638118690105542e-06 1.171808919403264e-05 0 -1.2996533179175448e-06 1.4310437771341448e-05 0 -2.1167563480126211e-06 1.0333969481884384e-05 0 -2.4638118690105542e-06 1.171808919403264e-05 0 -2.9378340160233118e-06 8.6875652321150768e-06 0 -4.4819079447156033e-06 8.7122902855924646e-06 0 -2.4638118690105542e-06 1.171808919403264e-05 0 -2.1167563480126211e-06 1.0333969481884382e-05 0 -2.9378340160233118e-06 8.6875652321150768e-06 0 -5.4894727703974531e-06 1.2867492474747137e-05 0 -3.0537055916859588e-06 8.7802157860781444e-06 0 -1.2996533179175448e-06 1.4310437771341448e-05 0 -5.4894727703974531e-06 1.2867492474747137e-05 0 -1.2996533179175448e-06 1.4310437771341448e-05 0 -4.9178437492775709e-06 1.927534543293065e-05 0 -5.4894727703974531e-06 1.2867492474747137e-05 0 -4.9178437492775709e-06 1.927534543293065e-05 0 -1.0213180590190305e-05 1.6959600093984966e-05 0 3.2681359515348718e-06 2.168676247094754e-05 0 -4.9178437492775701e-06 1.927534543293065e-05 0 -1.2996533179175448e-06 1.4310437771341448e-05 0 3.2681359515348718e-06 2.168676247094754e-05 0 -9.3827042719953068e-06 3.4652310344764894e-05 0 -4.9178437492775709e-06 1.927534543293065e-05 0 3.2681359515348718e-06 2.168676247094754e-05 0 -1.2996533179175448e-06 1.4310437771341448e-05 0 -2.374938191550574e-06 1.4948022442685553e-05 0 -2.4638118690105542e-06 1.171808919403264e-05 0 -5.5154416623364554e-06 9.4158552516048378e-06 0 -2.374938191550574e-06 1.4948022442685553e-05 0 -2.4638118690105542e-06 1.171808919403264e-05 0 -4.4819079447156033e-06 8.7122902855924646e-06 0 -5.5154416623364554e-06 9.4158552516048378e-06 0 -2.4638118690105542e-06 1.171808919403264e-05 0 -2.374938191550574e-06 1.4948022442685553e-05 0 -1.2996533179175448e-06 1.4310437771341448e-05 0 -6.7155798166803421e-06 7.2543511515262183e-06 0 -2.374938191550574e-06 1.4948022442685553e-05 0 -5.5154416623364554e-06 9.4158552516048378e-06 0 -6.7155798166803421e-06 7.2543511515262183e-06 0 -5.5154416623364554e-06 9.4158552516048378e-06 0 -9.2956981446250305e-06 3.1044499385024091e-06 0 -7.6897964825755981e-06 5.5621035468259287e-06 0 -9.2956981446250305e-06 3.1044499385024091e-06 0 -5.5154416623364554e-06 9.4158552516048378e-06 0 -7.6897964825755981e-06 5.5621035468259287e-06 0 -5.5154416623364554e-06 9.4158552516048378e-06 0 -4.4819079447156033e-06 8.7122902855924646e-06 0 -4.6252495086182746e-06 6.9891103080708613e-06 0 -4.4819079447156033e-06 8.7122902855924646e-06 0 -2.9378340160233118e-06 8.6875652321150768e-06 0 -4.4819079447156033e-06 8.7122902855924646e-06 0 -4.6252495086182746e-06 6.9891103080708613e-06 0 -7.6897964825755981e-06 5.5621035468259287e-06 0 -4.6252495086182746e-06 6.9891103080708613e-06 0 -6.9436829608352449e-06 4.2750112236969246e-06 0 -7.6897964825755981e-06 5.5621035468259287e-06 0 -4.6252495086182746e-06 6.9891103080708613e-06 0 -4.2996465584867551e-06 5.1266719788079968e-06 0 -6.9436829608352458e-06 4.2750112236969246e-06 0 -4.6252495086182746e-06 6.9891103080708613e-06 0 -2.9802485991489521e-06 6.2830786640219108e-06 0 -4.2996465584867551e-06 5.1266719788079968e-06 0 -4.6252495086182746e-06 6.9891103080708613e-06 0 -2.9378340160233118e-06 8.6875652321150768e-06 0 -2.9802485991489521e-06 6.2830786640219108e-06 0 -6.0577496405353249e-06 3.0061118049577913e-06 0 -6.9436829608352458e-06 4.2750112236969246e-06 0 -4.2996465584867551e-06 5.1266719788079968e-06 0 -6.0577496405353249e-06 3.0061118049577913e-06 0 -9.0703019315391489e-06 1.1127155791700478e-06 0 -6.9436829608352458e-06 4.2750112236969246e-06 0 -7.6897964825755981e-06 5.5621035468259287e-06 0 -1.0206191371919491e-05 1.5276100154280312e-06 0 -1.1941717261748122e-05 -1.3206721694680125e-06 0 -1.2097565394233667e-05 -1.4430584339474782e-06 0 -1.0206191371919491e-05 1.5276100154280312e-06 0 -9.0703019315391489e-06 1.1127155791700478e-06 0 -9.0703019315391489e-06 1.1127155791700478e-06 0 -1.0206191371919491e-05 1.5276100154280312e-06 0 -6.9436829608352458e-06 4.2750112236969246e-06 0 -7.6897964825755981e-06 5.5621035468259287e-06 0 -6.9436829608352458e-06 4.2750112236969246e-06 0 -1.0206191371919491e-05 1.5276100154280312e-06 0 -1.2097565394233667e-05 -1.4430584339474782e-06 0 -1.347399801728387e-05 -3.3890093484875379e-06 0 -1.0206191371919491e-05 1.5276100154280312e-06 0 -1.1941717261748122e-05 -1.3206721694680125e-06 0 -1.0206191371919491e-05 1.5276100154280312e-06 0 -1.347399801728387e-05 -3.3890093484875379e-06 0 -1.1941717261748122e-05 -1.3206721694680125e-06 0 -1.347399801728387e-05 -3.3890093484875379e-06 0 -1.3660043816282425e-05 -5.8537739942567027e-06 0 -1.1956737917424014e-05 -4.7273187924259754e-06 0 -1.1941717261748122e-05 -1.3206721694680131e-06 0 -1.3660043816282425e-05 -5.8537739942567027e-06 0 -1.5316415496092983e-05 -7.1060008677553155e-06 0 -1.3660043816282425e-05 -5.8537739942567027e-06 0 -1.347399801728387e-05 -3.3890093484875379e-06 0 -1.5316415496092983e-05 -7.1060008677553155e-06 0 -1.490664482404785e-05 -1.0463783255750936e-05 0 -1.3660043816282425e-05 -5.8537739942567027e-06 0 -1.1956737917424014e-05 -4.7273187924259754e-06 0 -1.3660043816282425e-05 -5.8537739942567027e-06 0 -1.490664482404785e-05 -1.0463783255750936e-05 0 -1.5316415496092983e-05 -7.1060008677553155e-06 0 -1.7017058628818105e-05 -1.077877884550784e-05 0 -1.490664482404785e-05 -1.0463783255750936e-05 0 -9.239146838081405e-06 -1.1829177603355445e-05 0 -8.979227609299416e-06 -7.3231100280662149e-06 0 -1.1867183282391788e-05 -1.1161306606052952e-05 0 -1.1956737917424014e-05 -4.7273187924259754e-06 0 -1.1867183282391788e-05 -1.1161306606052952e-05 0 -8.979227609299416e-06 -7.3231100280662149e-06 0 -1.1956737917424014e-05 -4.7273187924259754e-06 0 -1.490664482404785e-05 -1.0463783255750936e-05 0 -1.1867183282391788e-05 -1.1161306606052952e-05 0 -1.1956737917424014e-05 -4.7273187924259754e-06 0 -8.979227609299416e-06 -7.3231100280662157e-06 0 -8.6673791423655152e-06 3.2858273953604727e-07 0 -7.6897964825755981e-06 5.5621035468259287e-06 0 -1.1941717261748122e-05 -1.3206721694680118e-06 0 -9.2956981446250305e-06 3.1044499385024091e-06 0 -1.1956737917424014e-05 -4.7273187924259754e-06 0 -8.6673791423655135e-06 3.2858273953604843e-07 0 -9.2956981446250305e-06 3.1044499385024091e-06 0 -1.1956737917424014e-05 -4.7273187924259754e-06 0 -9.2956981446250305e-06 3.1044499385024091e-06 0 -1.1941717261748122e-05 -1.3206721694680125e-06 0 -6.7155798166803421e-06 7.2543511515262183e-06 0 -9.2956981446250305e-06 3.1044499385024091e-06 0 -8.6673791423655152e-06 3.2858273953604727e-07 0 -6.7155798166803421e-06 7.2543511515262183e-06 0 -4.8361553316287494e-06 7.6586782651123931e-06 0 -2.374938191550574e-06 1.4948022442685553e-05 0 -6.7155798166803421e-06 7.2543511515262183e-06 0 -8.6673791423655152e-06 3.2858273953604721e-07 0 -4.8361553316287494e-06 7.6586782651123931e-06 0 3.2681359515348718e-06 2.168676247094754e-05 0 -2.3749381915505732e-06 1.4948022442685554e-05 0 -4.8361553316287494e-06 7.6586782651123931e-06 0 2.0799256602235884e-06 1.7237748363133386e-06 0 -4.8361553316287494e-06 7.6586782651123931e-06 0 -4.7600327390827208e-06 -3.6099011594318492e-06 0 -4.7600327390827208e-06 -3.6099011594318492e-06 0 -4.8361553316287494e-06 7.6586782651123931e-06 0 -8.6673791423655152e-06 3.2858273953604727e-07 0 -9.3827042719953068e-06 3.4652310344764894e-05 0 3.2681359515348718e-06 2.168676247094754e-05 0 -5.2592922987916857e-06 5.5989486668073769e-05 0 3.2681359515348718e-06 2.168676247094754e-05 0 -4.8361553316287494e-06 7.6586782651123931e-06 0 2.0799256602235884e-06 1.7237748363133386e-06 0 4.3919880090443816e-06 1.9273665396638894e-05 0 7.853052198755981e-06 3.005554361866463e-05 0 3.2681359515348718e-06 2.168676247094754e-05 0 1.2304454007036944e-05 5.4277116756626979e-05 0 -5.2592922987916857e-06 5.5989486668073769e-05 0 1.5433105152256971e-05 7.8129488688367534e-05 0 -9.0250163084373251e-06 7.6584896001202199e-05 0 -5.2592922987916857e-06 5.5989486668073769e-05 0 7.853052198755981e-06 3.005554361866463e-05 0 7.5309548168502415e-06 3.5255830219899082e-05 0 2.0799256602235884e-06 1.7237748363133386e-06 0 -4.7600327390827208e-06 -3.6099011594318492e-06 0 -7.6101178488760325e-07 -5.6594544946370663e-06 0 1.2304454007036944e-05 5.4277116756626979e-05 0 1.5433105152256971e-05 7.8129488688367534e-05 0 -5.2592922987916857e-06 5.5989486668073769e-05 0 7.5309548168502415e-06 3.5255830219899082e-05 0 6.9911700806675526e-06 4.5659375013523928e-05 0 -7.6101178488760325e-07 -5.6594544946370663e-06 0 -5.4365459725985066e-06 -9.5460471644806354e-06 0 -3.2765122661522335e-06 -1.0214607959451082e-05 0 1.5433105152256971e-05 7.8129488688367534e-05 0 2.2431207969727634e-06 9.350097241897192e-05 0 -9.0250163084373251e-06 7.6584896001202199e-05 0 -4.7600327390827208e-06 -3.6099011594318492e-06 0 -8.6673791423655152e-06 3.2858273953604727e-07 0 -8.979227609299416e-06 -7.3231100280662149e-06 0 -7.6101178488760325e-07 -5.6594544946370663e-06 0 -4.7600327390827208e-06 -3.6099011594318488e-06 0 -5.4365459725985066e-06 -9.5460471644806354e-06 0 -4.7600327390827208e-06 -3.6099011594318492e-06 0 -8.9792276092994143e-06 -7.3231100280662149e-06 0 -5.4365459725985066e-06 -9.5460471644806354e-06 0 -9.239146838081405e-06 -1.1829177603355445e-05 0 -5.4365459725985066e-06 -9.5460471644806354e-06 0 -8.979227609299416e-06 -7.3231100280662149e-06 0 -9.239146838081405e-06 -1.1829177603355445e-05 0 -7.7675669422736845e-06 -1.4265787910676244e-05 0 -5.4365459725985066e-06 -9.5460471644806354e-06 0 -3.2765122661522335e-06 -1.0214607959451082e-05 0 -5.4365459725985066e-06 -9.5460471644806354e-06 0 -7.7675669422736845e-06 -1.4265787910676244e-05 0 -3.2765122661522335e-06 -1.0214607959451082e-05 0 -7.7675669422736845e-06 -1.4265787910676244e-05 0 -5.2408834372217465e-06 -1.3810643938170745e-05 0 -9.239146838081405e-06 -1.1829177603355445e-05 0 -1.1263420069252051e-05 -1.520330203571967e-05 0 -7.7675669422736845e-06 -1.4265787910676244e-05 0 -1.3038355047603598e-05 0.00010098150681495353 0 2.2431207969727629e-06 9.350097241897192e-05 0 3.6496940493670807e-06 0.00010835744765518918 0 1.7170947386964001e-05 0.00010056086087983117 0 3.6496940493670807e-06 0.00010835744765518918 0 2.2431207969727634e-06 9.350097241897192e-05 0 1.5433105152256971e-05 7.8129488688367534e-05 0 1.7170947386964001e-05 0.00010056086087983117 0 2.2431207969727634e-06 9.350097241897192e-05 0 6.9911700806675526e-06 4.5659375013523928e-05 0 6.113687198248749e-06 5.4624725649844667e-05 0 1.7170947386964001e-05 0.00010056086087983117 0 1.7753949112804558e-05 0.00012353905524412306 0 3.6496940493670807e-06 0.00010835744765518918 0 1.7753949112804555e-05 0.00012353905524412306 0 -5.1247238583613326e-06 0.00012177162784284375 0 3.6496940493670807e-06 0.00010835744765518918 0 1.7753949112804555e-05 0.00012353905524412306 0 2.2085026404216964e-07 0.0001373704116087232 0 -5.1247238583613326e-06 0.00012177162784284375 0 1.7753949112804555e-05 0.00012353905524412306 0 1.7615358880070748e-05 0.00014692953012801068 0 2.2085026404216964e-07 0.0001373704116087232 0 -5.2408834372217465e-06 -1.3810643938170745e-05 0 -8.5750929890292592e-06 -1.7579940145716823e-05 0 -7.0975065839228035e-06 -1.7244859923792207e-05 0 6.113687198248749e-06 5.4624725649844667e-05 0 4.9371840213121548e-06 6.4738169266577848e-05 0 1.7615358880070748e-05 0.00014692953012801068 0 -5.8219635344975806e-06 0.00015392191796418365 0 2.2085026404216964e-07 0.0001373704116087232 0 -1.098346166144826e-05 -1.8093382569853049e-05 0 -8.5750929890292592e-06 -1.7579940145716823e-05 0 -7.7675669422736845e-06 -1.4265787910676244e-05 0 -1.098346166144826e-05 -1.8093382569853049e-05 0 -7.7675669422736845e-06 -1.4265787910676244e-05 0 -1.1263420069252051e-05 -1.5203302035719672e-05 0 -5.2408834372217465e-06 -1.3810643938170745e-05 0 -7.7675669422736845e-06 -1.4265787910676244e-05 0 -8.5750929890292592e-06 -1.7579940145716823e-05 0 -1.098346166144826e-05 -1.8093382569853049e-05 0 -1.2345552723864976e-05 -2.1133695549384628e-05 0 -8.5750929890292592e-06 -1.7579940145716823e-05 0 -1.049558372905925e-05 -2.157583973931319e-05 0 -8.5750929890292592e-06 -1.7579940145716823e-05 0 -1.2345552723864976e-05 -2.1133695549384628e-05 0 -1.098346166144826e-05 -1.8093382569853049e-05 0 -1.4526750552145106e-05 -1.9164339596749442e-05 0 -1.2345552723864976e-05 -2.1133695549384628e-05 0 -1.5028582209822627e-05 -2.348493106149814e-05 0 -1.2345552723864976e-05 -2.1133695549384628e-05 0 -1.4526750552145106e-05 -1.9164339596749442e-05 0 -1.098346166144826e-05 -1.8093382569853049e-05 0 -1.1263420069252051e-05 -1.5203302035719672e-05 0 -1.4526750552145106e-05 -1.9164339596749442e-05 0 -1.3969637961056049e-05 -1.5292009894795092e-05 0 -1.6302528163780609e-05 -1.5630282359988815e-05 0 -1.4526750552145106e-05 -1.9164339596749442e-05 0 -1.3969637961056049e-05 -1.5292009894795092e-05 0 -1.4526750552145106e-05 -1.9164339596749442e-05 0 -1.1263420069252051e-05 -1.5203302035719672e-05 0 -1.7651776720933953e-05 -1.8961232550252753e-05 0 -1.7715974263996968e-05 -2.3506451108583859e-05 0 -1.4526750552145106e-05 -1.9164339596749442e-05 0 -1.7651776720933953e-05 -1.8961232550252753e-05 0 -1.9719532722713214e-05 -2.0828893628663541e-05 0 -1.7715974263996968e-05 -2.3506451108583859e-05 0 -1.7651776720933953e-05 -1.8961232550252753e-05 0 -1.6302528163780609e-05 -1.5630282359988815e-05 0 -1.9043309181439464e-05 -1.726021854393762e-05 0 -1.7651776720933953e-05 -1.8961232550252753e-05 0 -1.4526750552145106e-05 -1.9164339596749442e-05 0 -1.6302528163780609e-05 -1.5630282359988815e-05 0 -1.3969637961056049e-05 -1.5292009894795092e-05 0 -1.490664482404785e-05 -1.0463783255750936e-05 0 -1.6302528163780609e-05 -1.5630282359988815e-05 0 -1.7441933792672067e-05 -1.3869081351118229e-05 0 -1.9043309181439464e-05 -1.726021854393762e-05 0 -1.6302528163780609e-05 -1.5630282359988815e-05 0 -1.7441933792672067e-05 -1.3869081351118229e-05 0 -1.6302528163780609e-05 -1.5630282359988815e-05 0 -1.490664482404785e-05 -1.0463783255750936e-05 0 -1.7441933792672067e-05 -1.3869081351118229e-05 0 -1.490664482404785e-05 -1.0463783255750936e-05 0 -1.7017058628818105e-05 -1.077877884550784e-05 0 -1.3969637961056049e-05 -1.5292009894795092e-05 0 -1.1867183282391788e-05 -1.1161306606052952e-05 0 -1.490664482404785e-05 -1.0463783255750936e-05 0 -9.239146838081405e-06 -1.1829177603355445e-05 0 -1.1867183282391788e-05 -1.1161306606052952e-05 0 -1.1263420069252051e-05 -1.5203302035719672e-05 0 -1.3969637961056049e-05 -1.5292009894795092e-05 0 -1.1263420069252051e-05 -1.5203302035719672e-05 0 -1.1867183282391788e-05 -1.1161306606052952e-05 0 -9.0470342259602054e-05 8.4962215341644409e-05 0 -7.2916522367573219e-05 7.2562539357182547e-05 0 -7.4313772912143418e-05 9.1755963732768818e-05 0 -9.6857725246275305e-05 0.00010649144280037808 0 -9.0470342259602054e-05 8.4962215341644409e-05 0 -7.4313772912143418e-05 9.1755963732768818e-05 0 -5.9417452513484268e-05 7.2151795323278312e-05 0 -7.4313772912143418e-05 9.1755963732768818e-05 0 -7.2916522367573219e-05 7.2562539357182547e-05 0 -9.0470342259602054e-05 8.4962215341644409e-05 0 -8.2283873467279298e-05 6.5249029293131084e-05 0 -7.2916522367573219e-05 7.2562539357182547e-05 0 -8.2283873467279298e-05 6.5249029293131084e-05 0 -7.3593076188475855e-05 4.8482355358476831e-05 0 -5.9020701393329912e-05 5.1900705047621774e-05 0 -5.9417452513484268e-05 7.2151795323278312e-05 0 -7.2916522367573219e-05 7.2562539357182547e-05 0 -5.9020701393329912e-05 5.1900705047621774e-05 0 -8.2283873467279298e-05 6.5249029293131084e-05 0 -5.9020701393329912e-05 5.1900705047621774e-05 0 -7.2916522367573219e-05 7.2562539357182547e-05 0 -5.9417452513484268e-05 7.2151795323278312e-05 0 -5.9020701393329912e-05 5.1900705047621774e-05 0 -4.7913026988020583e-05 5.9606169095542159e-05 0 -3.9986511368416659e-05 4.2265203575626533e-05 0 -4.7913026988020583e-05 5.9606169095542159e-05 0 -5.9020701393329912e-05 5.1900705047621774e-05 0 -3.650806410161682e-05 6.1834049444747577e-05 0 -4.8345994609197125e-05 7.3426637084125578e-05 0 -4.7913026988020583e-05 5.9606169095542159e-05 0 -5.9417452513484268e-05 7.2151795323278312e-05 0 -4.7913026988020583e-05 5.9606169095542159e-05 0 -4.8345994609197125e-05 7.3426637084125578e-05 0 -5.9417452513484268e-05 7.2151795323278312e-05 0 -4.8345994609197125e-05 7.3426637084125578e-05 0 -5.6647342755116283e-05 8.9465944430346467e-05 0 -5.9417452513484268e-05 7.2151795323278312e-05 0 -5.6647342755116283e-05 8.9465944430346467e-05 0 -7.4313772912143418e-05 9.1755963732768818e-05 0 -4.1072197780255629e-05 8.5984317550187475e-05 0 -5.6647342755116283e-05 8.9465944430346467e-05 0 -4.8345994609197125e-05 7.3426637084125578e-05 0 -4.1072197780255629e-05 8.5984317550187475e-05 0 -2.540366035646299e-05 8.0215860056696533e-05 0 -3.2112413386765784e-05 0.00010254855536852746 0 -4.1072197780255629e-05 8.5984317550187475e-05 0 -3.650806410161682e-05 6.1834049444747577e-05 0 -2.540366035646299e-05 8.0215860056696533e-05 0 -2.003105892405737e-05 5.4798225126518121e-05 0 -2.5403660356462993e-05 8.0215860056696533e-05 0 -3.650806410161682e-05 6.1834049444747577e-05 0 -4.1072197780255629e-05 8.5984317550187475e-05 0 -4.8345994609197125e-05 7.3426637084125578e-05 0 -3.650806410161682e-05 6.1834049444747577e-05 0 -3.9986511368416659e-05 4.2265203575626533e-05 0 -3.650806410161682e-05 6.1834049444747577e-05 0 -4.7913026988020583e-05 5.9606169095542159e-05 0 -3.9986511368416659e-05 4.2265203575626533e-05 0 -2.7026050252436823e-05 4.0516342247721174e-05 0 -3.650806410161682e-05 6.1834049444747577e-05 0 -2.003105892405737e-05 5.4798225126518121e-05 0 -3.650806410161682e-05 6.1834049444747577e-05 0 -2.7026050252436823e-05 4.0516342247721181e-05 0 -2.003105892405737e-05 5.4798225126518121e-05 0 -2.7026050252436827e-05 4.0516342247721174e-05 0 -1.7731453804601715e-05 3.8013782703934635e-05 0 -2.003105892405737e-05 5.4798225126518121e-05 0 -1.7731453804601719e-05 3.8013782703934635e-05 0 -9.3827042719953068e-06 3.4652310344764894e-05 0 -2.003105892405737e-05 5.4798225126518121e-05 0 -9.3827042719953068e-06 3.4652310344764894e-05 0 -5.2592922987916857e-06 5.5989486668073769e-05 0 -2.003105892405737e-05 5.4798225126518121e-05 0 -5.2592922987916857e-06 5.5989486668073769e-05 0 -9.0250163084373251e-06 7.6584896001202199e-05 0 -2.003105892405737e-05 5.4798225126518121e-05 0 -9.0250163084373251e-06 7.6584896001202199e-05 0 -2.540366035646299e-05 8.0215860056696533e-05 0 -1.3038355047603598e-05 0.00010098150681495353 0 -2.540366035646299e-05 8.0215860056696533e-05 0 -9.0250163084373251e-06 7.6584896001202199e-05 0 -1.3038355047603598e-05 0.00010098150681495353 0 -9.0250163084373251e-06 7.6584896001202199e-05 0 2.2431207969727634e-06 9.350097241897192e-05 0 -1.3038355047603598e-05 0.00010098150681495353 0 -3.2112413386765784e-05 0.00010254855536852746 0 -2.540366035646299e-05 8.0215860056696533e-05 0 -1.3038355047603598e-05 0.00010098150681495353 0 -2.2490388642609675e-05 0.00011677953292713347 0 -3.2112413386765784e-05 0.00010254855536852746 0 -1.3038355047603598e-05 0.00010098150681495353 0 -5.1247238583613326e-06 0.00012177162784284375 0 -2.2490388642609675e-05 0.00011677953292713347 0 -1.3038355047603598e-05 0.00010098150681495353 0 3.6496940493670807e-06 0.00010835744765518918 0 -5.1247238583613326e-06 0.00012177162784284375 0 -5.1247238583613326e-06 0.00012177162784284375 0 2.2085026404216964e-07 0.0001373704116087232 0 -2.1785170583461591e-05 0.00013850725238955872 0 2.2085026404216964e-07 0.0001373704116087232 0 -5.8219635344975806e-06 0.00015392191796418365 0 -2.1785170583461591e-05 0.00013850725238955872 0 -2.1785170583461591e-05 0.00013850725238955872 0 -2.2490388642609675e-05 0.00011677953292713347 0 -5.1247238583613326e-06 0.00012177162784284375 0 -2.1785170583461591e-05 0.00013850725238955872 0 -3.9501212986697947e-05 0.00012036173818546142 0 -2.2490388642609675e-05 0.00011677953292713347 0 -2.1785170583461591e-05 0.00013850725238955872 0 -4.4217792365724737e-05 0.00014082648198870436 0 -3.9501212986697947e-05 0.00012036173818546142 0 -2.1785170583461591e-05 0.00013850725238955872 0 -4.1063451714777911e-05 0.00016050014146732196 0 -4.4217792365724737e-05 0.00014082648198870436 0 -5.9150477451764473e-05 0.000139384348097309 0 -3.9501212986697947e-05 0.00012036173818546142 0 -4.4217792365724737e-05 0.00014082648198870436 0 -5.9150477451764473e-05 0.000139384348097309 0 -5.1379281447600086e-05 0.00010988637144500649 0 -3.9501212986697947e-05 0.00012036173818546142 0 -3.9501212986697947e-05 0.00012036173818546142 0 -5.1379281447600086e-05 0.00010988637144500649 0 -3.2112413386765784e-05 0.00010254855536852746 0 -3.9501212986697947e-05 0.00012036173818546142 0 -3.2112413386765784e-05 0.00010254855536852746 0 -2.2490388642609675e-05 0.00011677953292713347 0 -4.1072197780255629e-05 8.5984317550187475e-05 0 -3.2112413386765784e-05 0.00010254855536852746 0 -5.1379281447600086e-05 0.00010988637144500649 0 -4.1072197780255629e-05 8.5984317550187475e-05 0 -5.1379281447600086e-05 0.00010988637144500649 0 -5.6647342755116283e-05 8.9465944430346467e-05 0 -6.6203148954972722e-05 0.00010652776638396647 0 -5.6647342755116283e-05 8.9465944430346467e-05 0 -5.1379281447600086e-05 0.00010988637144500649 0 -6.6203148954972722e-05 0.00010652776638396647 0 -7.4313772912143418e-05 9.1755963732768818e-05 0 -5.6647342755116283e-05 8.9465944430346467e-05 0 -6.6203148954972722e-05 0.00010652776638396647 0 -6.7996362960050217e-05 0.00012285828866375311 0 -8.2460643573157799e-05 0.0001190704597148362 0 -6.6203148954972722e-05 0.00010652776638396647 0 -5.1379281447600086e-05 0.00010988637144500649 0 -6.7996362960050217e-05 0.00012285828866375311 0 -5.9150477451764473e-05 0.000139384348097309 0 -6.7996362960050217e-05 0.00012285828866375311 0 -5.1379281447600086e-05 0.00010988637144500649 0 -5.9150477451764473e-05 0.000139384348097309 0 -4.4217792365724737e-05 0.00014082648198870436 0 -5.8721322406828457e-05 0.00016071908395748322 0 -5.9150477451764473e-05 0.000139384348097309 0 -7.2435927925444958e-05 0.00015540335314109533 0 -8.153805267603685e-05 0.00014022764675419744 0 -5.9150477451764473e-05 0.000139384348097309 0 -8.153805267603685e-05 0.00014022764675419744 0 -6.7996362960050217e-05 0.00012285828866375311 0 -8.153805267603685e-05 0.00014022764675419744 0 -8.2460643573157799e-05 0.0001190704597148362 0 -6.7996362960050217e-05 0.00012285828866375311 0 -0.00010525503569242762 0.00015310139352349542 0 -0.00010184246777655334 0.00012954001918629159 0 -8.153805267603685e-05 0.00014022764675419744 0 -0.00010525503569242762 0.00015310139352349542 0 -8.153805267603685e-05 0.00014022764675419744 0 -8.7989500627888185e-05 0.00016240288953659081 0 -0.00010184246777655334 0.00012954001918629159 0 -8.2460643573157799e-05 0.0001190704597148362 0 -8.153805267603685e-05 0.00014022764675419744 0 -0.00010184246777655334 0.00012954001918629159 0 -9.6857725246275305e-05 0.00010649144280037808 0 -8.2460643573157799e-05 0.0001190704597148362 0 -6.6203148954972722e-05 0.00010652776638396647 0 -8.2460643573157799e-05 0.0001190704597148362 0 -7.4313772912143418e-05 9.1755963732768818e-05 0 -9.6857725246275305e-05 0.00010649144280037808 0 -7.4313772912143418e-05 9.1755963732768818e-05 0 -8.2460643573157799e-05 0.0001190704597148362 0 -0.00010843081944162849 0.00020012968951395508 0 -8.0259188243253496e-05 0.00020066752430850402 0 -8.8726236188631753e-05 0.00022237266544670922 0 -0.00010843081944162849 0.00020012968951395508 0 -9.1344240898749311e-05 0.0001834398680125475 0 -8.0259188243253496e-05 0.00020066752430850402 0 -7.5137654508317982e-05 0.00017457386543196925 0 -8.0259188243253496e-05 0.00020066752430850405 0 -9.1344240898749311e-05 0.0001834398680125475 0 -0.00010843081944162849 0.00020012968951395508 0 -0.00010742692728811967 0.00017675493428044678 0 -9.1344240898749311e-05 0.0001834398680125475 0 -0.00010742692728811967 0.00017675493428044678 0 -8.7989500627888185e-05 0.00016240288953659081 0 -9.1344240898749311e-05 0.0001834398680125475 0 -0.00010742692728811967 0.00017675493428044678 0 -0.00010525503569242762 0.00015310139352349542 0 -8.7989500627888185e-05 0.00016240288953659081 0 -8.153805267603685e-05 0.00014022764675419744 0 -7.2435927925444958e-05 0.00015540335314109533 0 -8.7989500627888185e-05 0.00016240288953659081 0 -7.5137654508317982e-05 0.00017457386543196925 0 -9.1344240898749311e-05 0.0001834398680125475 0 -8.7989500627888185e-05 0.00016240288953659081 0 -7.5137654508317982e-05 0.00017457386543196925 0 -7.2435927925444958e-05 0.00015540335314109533 0 -5.8721322406828457e-05 0.00016071908395748322 0 -7.5137654508317982e-05 0.00017457386543196925 0 -8.7989500627888185e-05 0.00016240288953659081 0 -7.2435927925444958e-05 0.00015540335314109533 0 -5.9150477451764473e-05 0.000139384348097309 0 -5.8721322406828457e-05 0.00016071908395748322 0 -7.2435927925444958e-05 0.00015540335314109533 0 -7.5137654508317982e-05 0.00017457386543196925 0 -5.8721322406828457e-05 0.00016071908395748322 0 -5.9831767258281205e-05 0.00018145546038894492 0 -8.0259188243253496e-05 0.00020066752430850402 0 -5.9831767258281205e-05 0.00018145546038894492 0 -5.9512818506400382e-05 0.00020266805909985357 0 -7.5137654508317982e-05 0.00017457386543196925 0 -5.9831767258281205e-05 0.00018145546038894492 0 -8.0259188243253496e-05 0.00020066752430850402 0 -6.7884188644145121e-05 0.0002247710576208091 0 -8.0259188243253496e-05 0.00020066752430850402 0 -5.9512818506400382e-05 0.00020266805909985357 0 -4.4921212554226294e-05 0.00018884189902214818 0 -4.4728456852250667e-05 0.00021441269484827978 0 -5.9512818506400382e-05 0.00020266805909985357 0 -4.4921212554226294e-05 0.00018884189902214818 0 -2.9055180521827727e-05 0.00019833906755455864 0 -4.4728456852250667e-05 0.00021441269484827975 0 -4.4921212554226294e-05 0.00018884189902214818 0 -3.1106217510229415e-05 0.0001756226124517356 0 -2.9055180521827727e-05 0.00019833906755455864 0 -4.4921212554226294e-05 0.00018884189902214818 0 -5.9512818506400382e-05 0.00020266805909985357 0 -5.9831767258281205e-05 0.00018145546038894492 0 -4.1063451714777911e-05 0.00016050014146732196 0 -5.9831767258281205e-05 0.00018145546038894492 0 -5.8721322406828457e-05 0.00016071908395748322 0 -4.4921212554226294e-05 0.00018884189902214818 0 -5.9831767258281205e-05 0.00018145546038894492 0 -4.1063451714777911e-05 0.00016050014146732196 0 -4.1063451714777911e-05 0.00016050014146732196 0 -5.8721322406828457e-05 0.00016071908395748322 0 -4.4217792365724737e-05 0.00014082648198870436 0 -4.1063451714777911e-05 0.00016050014146732196 0 -2.3105726411335668e-05 0.00016101534910103657 0 -3.1106217510229415e-05 0.0001756226124517356 0 -4.4921212554226294e-05 0.00018884189902214818 0 -4.1063451714777911e-05 0.00016050014146732196 0 -3.1106217510229415e-05 0.0001756226124517356 0 -1.4983463868064933e-05 0.00017573448552892529 0 -3.1106217510229415e-05 0.0001756226124517356 0 -2.3105726411335668e-05 0.0001610153491010366 0 -2.1785170583461591e-05 0.00013850725238955872 0 -5.8219635344975806e-06 0.00015392191796418365 0 -2.3105726411335668e-05 0.0001610153491010366 0 -2.1785170583461591e-05 0.00013850725238955872 0 -2.3105726411335668e-05 0.0001610153491010366 0 -4.1063451714777911e-05 0.00016050014146732196 0 -1.4983463868064933e-05 0.00017573448552892529 0 -2.3105726411335668e-05 0.0001610153491010366 0 -5.8219635344975806e-06 0.00015392191796418365 0 -1.4983463868064933e-05 0.00017573448552892529 0 -5.8219635344975806e-06 0.00015392191796418365 0 2.7436976382575393e-06 0.0001662423291787426 0 -1.4983463868064933e-05 0.00017573448552892529 0 -1.0384505471324266e-05 0.00020106010939796416 0 -2.9055180521827727e-05 0.00019833906755455864 0 -1.4983463868064933e-05 0.00017573448552892529 0 7.0229613710151298e-07 0.00018235625510037748 0 -1.0384505471324266e-05 0.00020106010939796416 0 -1.4983463868064933e-05 0.00017573448552892529 0 -2.9055180521827727e-05 0.00019833906755455864 0 -3.1106217510229415e-05 0.0001756226124517356 0 -2.5206519272103949e-05 0.00022464644850938258 0 -2.9055180521827727e-05 0.00019833906755455864 0 -1.0384505471324266e-05 0.00020106010939796416 0 -2.5206519272103949e-05 0.00022464644850938258 0 -1.0384505471324262e-05 0.00020106010939796416 0 -5.548335173409373e-06 0.00022172651417373348 0 -2.5206519272103949e-05 0.00022464644850938258 0 -1.0687297552267677e-05 0.00024201343054106901 0 -2.8827413357778243e-05 0.00024706113614031145 0 -2.5206519272103949e-05 0.00022464644850938258 0 -5.5483351734093713e-06 0.00022172651417373348 0 -1.0687297552267676e-05 0.00024201343054106901 0 -1.0687297552267676e-05 0.00024201343054106901 0 -1.8056473630174087e-05 0.00025517113676926573 0 -2.8827413357778243e-05 0.00024706113614031145 0 -1.0687297552267676e-05 0.00024201343054106901 0 -2.5973900389548323e-06 0.00025255129296845923 0 -1.8056473630174087e-05 0.00025517113676926573 0 -9.1493357107588966e-06 0.00026424475552115374 0 -1.8056473630174087e-05 0.00025517113676926573 0 -2.5973900389548323e-06 0.00025255129296845923 0 -9.1493357107588966e-06 0.00026424475552115374 0 -2.7322712938280881e-05 0.00026550941984093126 0 -1.8056473630174087e-05 0.00025517113676926573 0 -2.7322712938280881e-05 0.00026550941984093126 0 -2.8827413357778243e-05 0.00024706113614031145 0 -1.8056473630174087e-05 0.00025517113676926573 0 -4.6300948484294449e-05 0.00026582880117930141 0 -6.4645529121083552e-05 0.00024663941888683011 0 -4.6381311283636015e-05 0.00023964992325157652 0 -4.6300948484294449e-05 0.00026582880117930141 0 -4.6381311283636015e-05 0.00023964992325157652 0 -2.8827413357778243e-05 0.00024706113614031145 0 -2.7322712938280881e-05 0.00026550941984093126 0 -4.6300948484294449e-05 0.00026582880117930141 0 -2.8827413357778243e-05 0.00024706113614031145 0 -6.7884188644145121e-05 0.0002247710576208091 0 -4.4728456852250667e-05 0.00021441269484827975 0 -4.6381311283636015e-05 0.00023964992325157652 0 -2.5206519272103949e-05 0.00022464644850938258 0 -2.8827413357778243e-05 0.00024706113614031145 0 -4.6381311283636015e-05 0.00023964992325157652 0 -2.5206519272103949e-05 0.00022464644850938258 0 -4.6381311283636015e-05 0.00023964992325157652 0 -4.4728456852250667e-05 0.00021441269484827975 0 -2.5206519272103949e-05 0.00022464644850938258 0 -4.4728456852250667e-05 0.00021441269484827975 0 -2.9055180521827727e-05 0.00019833906755455864 0 -6.7884188644145121e-05 0.0002247710576208091 0 -5.9512818506400382e-05 0.00020266805909985357 0 -4.4728456852250667e-05 0.00021441269484827975 0 -6.7884188644145121e-05 0.0002247710576208091 0 -8.8726236188631753e-05 0.00022237266544670922 0 -8.0259188243253496e-05 0.00020066752430850402 0 -6.7884188644145121e-05 0.0002247710576208091 0 -6.4645529121083552e-05 0.00024663941888683011 0 -8.470526602149251e-05 0.00024215491510155737 0 -6.7884188644145121e-05 0.0002247710576208091 0 -8.470526602149251e-05 0.00024215491510155737 0 -8.8726236188631753e-05 0.00022237266544670922 0 -6.7884188644145121e-05 0.0002247710576208091 0 -4.6381311283636015e-05 0.00023964992325157652 0 -6.4645529121083552e-05 0.00024663941888683011 0 -4.6300948484294449e-05 0.00026582880117930141 0 -6.6413488035282979e-05 0.00026586046034004064 0 -6.4645529121083552e-05 0.00024663941888683011 0 -6.6413488035282979e-05 0.00026586046034004064 0 -8.7358484151343148e-05 0.00026610066441394277 0 -7.6770639242982141e-05 0.00025518814806334451 0 -6.6413488035282979e-05 0.00026586046034004064 0 -7.6770639242982141e-05 0.00025518814806334451 0 -6.4645529121083552e-05 0.00024663941888683011 0 -8.470526602149251e-05 0.00024215491510155737 0 -6.4645529121083552e-05 0.00024663941888683011 0 -7.6770639242982141e-05 0.00025518814806334451 0 -8.470526602149251e-05 0.00024215491510155737 0 -7.6770639242982141e-05 0.00025518814806334451 0 -9.4450102483757204e-05 0.00025406454564134724 0 -8.7358484151343148e-05 0.00026610066441394277 0 -9.4450102483757204e-05 0.00025406454564134724 0 -7.6770639242982141e-05 0.00025518814806334451 0 -0.00010875347844104979 0.0002661817894052946 0 -9.4450102483757204e-05 0.00025406454564134724 0 -8.7358484151343148e-05 0.00026610066441394277 0 -0.00010875347844104979 0.0002661817894052946 0 -0.00010882307217222651 0.00024476795608972487 0 -9.4450102483757204e-05 0.00025406454564134724 0 -0.00010882307217222651 0.00024476795608972487 0 -8.470526602149251e-05 0.00024215491510155737 0 -9.4450102483757204e-05 0.00025406454564134724 0 -0.00010882307217222651 0.00024476795608972487 0 -0.00010881476065649796 0.00022278993291650477 0 -8.8726236188631753e-05 0.00022237266544670922 0 -0.00010882307217222651 0.00024476795608972487 0 -8.8726236188631753e-05 0.00022237266544670922 0 -8.470526602149251e-05 0.00024215491510155737 0 -0.00010881476065649796 0.00022278993291650477 0 -0.00010843081944162849 0.00020012968951395508 0 -8.8726236188631753e-05 0.00022237266544670922 0 -1.7935252369341205e-05 -3.0941941733931377e-05 0 -1.6056363215528434e-05 -2.7037920972953762e-05 0 -1.8388925337965049e-05 -2.7751997543614226e-05 0 -1.451787074957153e-05 -2.8033261828875994e-05 0 -1.6056363215528434e-05 -2.7037920972953762e-05 0 -1.6195732609509014e-05 -3.1102950015399737e-05 0 -1.451787074957153e-05 -2.8033261828875994e-05 0 -1.3670051528551245e-05 -2.4993864656093604e-05 0 -1.6056363215528434e-05 -2.7037920972953762e-05 0 -1.7935252369341205e-05 -3.0941941733931377e-05 0 -1.6195732609509014e-05 -3.1102950015399737e-05 0 -1.6056363215528434e-05 -2.7037920972953762e-05 0 -1.7935252369341205e-05 -3.0941941733931377e-05 0 -1.8388925337965049e-05 -2.7751997543614226e-05 0 -2.0170398601880471e-05 -3.0117638466587176e-05 0 -1.8388925337965049e-05 -2.7751997543614226e-05 0 -2.0012512940761908e-05 -2.6365457227009783e-05 0 -2.0170398601880471e-05 -3.0117638466587176e-05 0 -2.1673494904577135e-05 -2.8166520660847249e-05 0 -2.0170398601880471e-05 -3.0117638466587176e-05 0 -2.0012512940761908e-05 -2.6365457227009783e-05 0 -1.8388925337965049e-05 -2.7751997543614226e-05 0 -1.7715974263996968e-05 -2.3506451108583859e-05 0 -2.0012512940761908e-05 -2.6365457227009783e-05 0 -2.0055678758277611e-05 -2.3747698575424248e-05 0 -2.0012512940761908e-05 -2.6365457227009783e-05 0 -1.7715974263996968e-05 -2.3506451108583859e-05 0 -2.0055678758277611e-05 -2.3747698575424248e-05 0 -1.7715974263996968e-05 -2.3506451108583859e-05 0 -1.9719532722713214e-05 -2.0828893628663541e-05 0 -1.5028582209822627e-05 -2.348493106149814e-05 0 -1.4526750552145106e-05 -1.9164339596749442e-05 0 -1.7715974263996968e-05 -2.3506451108583859e-05 0 -1.6056363215528434e-05 -2.7037920972953762e-05 0 -1.5028582209822627e-05 -2.348493106149814e-05 0 -1.7715974263996968e-05 -2.3506451108583859e-05 0 -1.8388925337965049e-05 -2.7751997543614226e-05 0 -1.6056363215528434e-05 -2.7037920972953762e-05 0 -1.7715974263996968e-05 -2.3506451108583859e-05 0 -1.5028582209822627e-05 -2.348493106149814e-05 0 -1.6056363215528434e-05 -2.7037920972953762e-05 0 -1.3670051528551245e-05 -2.4993864656093604e-05 0 -1.5028582209822627e-05 -2.348493106149814e-05 0 -1.3670051528551245e-05 -2.4993864656093604e-05 0 -1.2345552723864976e-05 -2.1133695549384628e-05 0 -1.049558372905925e-05 -2.157583973931319e-05 0 -1.2345552723864976e-05 -2.1133695549384628e-05 0 -1.3670051528551245e-05 -2.4993864656093604e-05 0 -7.0975065839228035e-06 -1.7244859923792207e-05 0 -8.5750929890292592e-06 -1.7579940145716823e-05 0 -1.049558372905925e-05 -2.157583973931319e-05 0 -8.7237651688108935e-06 -2.0718985667902069e-05 0 -1.049558372905925e-05 -2.157583973931319e-05 0 -1.1863747881911629e-05 -2.5285429785471341e-05 0 -1.049558372905925e-05 -2.157583973931319e-05 0 -1.3670051528551245e-05 -2.4993864656093604e-05 0 -1.1863747881911629e-05 -2.5285429785471341e-05 0 1.7615358880070748e-05 0.00014692953012801068 0 2.7436976382575393e-06 0.0001662423291787426 0 -5.8219635344975806e-06 0.00015392191796418365 0 1.7615358880070748e-05 0.00014692953012801068 0 1.6819170968295984e-05 0.00017043691474488907 0 2.7436976382575393e-06 0.0001662423291787426 0 -7.0975065839228035e-06 -1.7244859923792207e-05 0 -1.049558372905925e-05 -2.157583973931319e-05 0 -8.7237651688108935e-06 -2.0718985667902069e-05 0 4.9371840213121548e-06 6.4738169266577848e-05 0 3.4520757100113085e-06 7.5288224497922559e-05 0 -1.4983463868064933e-05 0.00017573448552892529 0 2.7436976382575393e-06 0.0001662423291787426 0 7.0229613710151298e-07 0.00018235625510037748 0 1.6819170968295984e-05 0.00017043691474488907 0 7.0229613710151277e-07 0.00018235625510037748 0 2.7436976382575393e-06 0.0001662423291787426 0 1.5198403371577684e-05 0.00019446802298961327 0 -1.0384505471324266e-05 0.00020106010939796416 0 7.0229613710151298e-07 0.00018235625510037748 0 3.4520757100113085e-06 7.5288224497922559e-05 0 1.7589393362392461e-06 8.4054098193389365e-05 0 -8.7237651688108935e-06 -2.0718985667902069e-05 0 -1.1863747881911631e-05 -2.5285429785471341e-05 0 -1.0396591541316453e-05 -2.4473355874838842e-05 0 1.6819170968295984e-05 0.00017043691474488907 0 1.5198403371577684e-05 0.00019446802298961327 0 7.0229613710151298e-07 0.00018235625510037748 0 1.7589393362392461e-06 8.4054098193389365e-05 0 -1.1604144854409597e-06 9.6093489025156486e-05 0 1.5198403371577684e-05 0.00019446802298961327 0 -5.548335173409373e-06 0.00022172651417373348 0 -1.0384505471324266e-05 0.00020106010939796416 0 -1.451787074957153e-05 -2.8033261828875994e-05 0 -1.1863747881911629e-05 -2.5285429785471341e-05 0 -1.3670051528551245e-05 -2.4993864656093604e-05 0 -1.0396591541316453e-05 -2.4473355874838842e-05 0 -1.1863747881911629e-05 -2.5285429785471341e-05 0 -1.4119084113379795e-05 -3.0282307834538861e-05 0 -1.451787074957153e-05 -2.8033261828875994e-05 0 -1.6195732609509014e-05 -3.1102950015399737e-05 0 -1.4119084113379795e-05 -3.0282307834538861e-05 0 -1.451787074957153e-05 -2.8033261828875994e-05 0 -1.4119084113379795e-05 -3.0282307834538861e-05 0 -1.1863747881911629e-05 -2.5285429785471341e-05 0 -1.6193349526827263e-05 -3.4420030261147001e-05 0 -1.4608382154526231e-05 -3.2933552862790926e-05 0 -1.4119084113379795e-05 -3.0282307834538861e-05 0 -1.6193349526827263e-05 -3.4420030261147001e-05 0 -1.4119084113379795e-05 -3.0282307834538861e-05 0 -1.6195732609509014e-05 -3.1102950015399737e-05 0 -1.0396591541316453e-05 -2.4473355874838842e-05 0 -1.4119084113379795e-05 -3.0282307834538861e-05 0 -1.1866715260841628e-05 -2.8083861978318352e-05 0 -1.1866715260841628e-05 -2.8083861978318352e-05 0 -1.4119084113379795e-05 -3.0282307834538861e-05 0 -1.4608382154526231e-05 -3.2933552862790926e-05 0 -1.6193349526827263e-05 -3.4420030261147001e-05 0 -1.5857726075675896e-05 -3.6241889030833699e-05 0 -1.4608382154526231e-05 -3.2933552862790926e-05 0 1.5198403371577684e-05 0.00019446802298961327 0 1.3212867962744439e-05 0.00021701297780094713 0 -5.548335173409373e-06 0.00022172651417373348 0 -1.1604144854409597e-06 9.6093489025156486e-05 0 -1.8925277899530662e-07 0.0001023899987604327 0 -1.1866715260841628e-05 -2.8083861978318352e-05 0 -1.4608382154526231e-05 -3.2933552862790926e-05 0 -1.3532935075048487e-05 -3.16385777974294e-05 0 1.3212867962744439e-05 0.00021701297780094713 0 1.0946279382407103e-05 0.00024023674020834189 0 -5.548335173409373e-06 0.00022172651417373348 0 1.0946279382407103e-05 0.00024023674020834189 0 -1.0687297552267677e-05 0.00024201343054106901 0 -5.548335173409373e-06 0.00022172651417373348 0 1.0946279382407103e-05 0.00024023674020834189 0 -2.5973900389548323e-06 0.00025255129296845923 0 -1.0687297552267676e-05 0.00024201343054106901 0 -1.8925277899530662e-07 0.0001023899987604327 0 -1.5053150719883944e-05 0.00011423765726557466 0 8.7590311480719354e-06 0.00025987275396927923 0 -2.5973900389548306e-06 0.00025255129296845923 0 1.0946279382407103e-05 0.00024023674020834189 0 8.7590311480719354e-06 0.00025987275396927923 0 -9.1493357107588966e-06 0.00026424475552115374 0 -2.5973900389548323e-06 0.00025255129296845923 0 -1.6193349526827263e-05 -3.4420030261147001e-05 0 -1.7359715444299362e-05 -3.7218033707754817e-05 0 -1.5857726075675896e-05 -3.6241889030833699e-05 0 -1.3532935075048487e-05 -3.16385777974294e-05 0 -1.4608382154526231e-05 -3.2933552862790926e-05 0 -1.5857726075675896e-05 -3.6241889030833699e-05 0 -1.4760020755228192e-05 -3.4839555063656038e-05 0 -1.3532935075048487e-05 -3.16385777974294e-05 0 -1.5857726075675896e-05 -3.6241889030833699e-05 0 -1.4760020755228192e-05 -3.4839555063656038e-05 0 -1.5857726075675896e-05 -3.6241889030833699e-05 0 -1.639689722165683e-05 -3.8333221916619779e-05 0 -1.639689722165683e-05 -3.8333221916619779e-05 0 -1.5857726075675896e-05 -3.6241889030833699e-05 0 -1.7359715444299362e-05 -3.7218033707754817e-05 0 -1.842936141314858e-05 -3.7925784459817953e-05 0 -1.7359715444299362e-05 -3.7218033707754817e-05 0 -1.8664852900663086e-05 -3.5237885065416852e-05 0 -1.7290527136525703e-05 -3.8472176998972072e-05 0 -1.639689722165683e-05 -3.8333221916619779e-05 0 -1.7359715444299362e-05 -3.7218033707754817e-05 0 -1.842936141314858e-05 -3.7925784459817953e-05 0 -1.7290527136525703e-05 -3.8472176998972072e-05 0 -1.7359715444299362e-05 -3.7218033707754817e-05 0 -1.6193349526827263e-05 -3.4420030261147001e-05 0 -1.7624945299310325e-05 -3.4051446423969185e-05 0 -1.7359715444299362e-05 -3.7218033707754817e-05 0 -1.8664852900663086e-05 -3.5237885065416852e-05 0 -1.7359715444299362e-05 -3.7218033707754817e-05 0 -1.7624945299310325e-05 -3.4051446423969185e-05 0 -1.7935252369341205e-05 -3.0941941733931377e-05 0 -1.9602566981680023e-05 -3.2979677166294532e-05 0 -1.7624945299310325e-05 -3.4051446423969185e-05 0 -1.7935252369341205e-05 -3.0941941733931377e-05 0 -1.7624945299310325e-05 -3.4051446423969185e-05 0 -1.6195732609509014e-05 -3.1102950015399737e-05 0 -1.6193349526827263e-05 -3.4420030261147001e-05 0 -1.6195732609509014e-05 -3.1102950015399737e-05 0 -1.7624945299310325e-05 -3.4051446423969185e-05 0 -2.1311842708774856e-05 -3.2396545188125371e-05 0 -1.9602566981680023e-05 -3.2979677166294532e-05 0 -2.0170398601880471e-05 -3.0117638466587176e-05 0 -1.7935252369341205e-05 -3.0941941733931377e-05 0 -2.0170398601880471e-05 -3.0117638466587176e-05 0 -1.9602566981680023e-05 -3.2979677166294532e-05 0 -1.8664852900663086e-05 -3.5237885065416852e-05 0 -1.9602566981680023e-05 -3.2979677166294532e-05 0 -2.0119311278316787e-05 -3.507941981672455e-05 0 -1.8664852900663086e-05 -3.5237885065416852e-05 0 -1.7624945299310325e-05 -3.4051446423969185e-05 0 -1.9602566981680023e-05 -3.2979677166294532e-05 0 -2.1311842708774856e-05 -3.2396545188125371e-05 0 -2.0119311278316787e-05 -3.507941981672455e-05 0 -1.9602566981680023e-05 -3.2979677166294532e-05 0 -1.842936141314858e-05 -3.7925784459817953e-05 0 -1.8664852900663086e-05 -3.5237885065416852e-05 0 -2.0119311278316787e-05 -3.507941981672455e-05 0 -2.05882305050382e-05 -3.6684696142108778e-05 0 -1.842936141314858e-05 -3.7925784459817953e-05 0 -2.0119311278316787e-05 -3.507941981672455e-05 0 -2.05882305050382e-05 -3.6684696142108778e-05 0 -2.0119311278316787e-05 -3.507941981672455e-05 0 -2.183564170322574e-05 -3.4316323153670999e-05 0 -2.3224850467788909e-05 -3.5372411912137882e-05 0 -2.05882305050382e-05 -3.6684696142108778e-05 0 -2.183564170322574e-05 -3.4316323153670999e-05 0 -2.3224850467788909e-05 -3.5372411912137882e-05 0 -2.183564170322574e-05 -3.4316323153670999e-05 0 -2.4111486184177451e-05 -3.1966741644045004e-05 0 -2.1311842708774856e-05 -3.2396545188125371e-05 0 -2.4111486184177454e-05 -3.1966741644045004e-05 0 -2.183564170322574e-05 -3.4316323153670999e-05 0 -2.1311842708774856e-05 -3.2396545188125371e-05 0 -2.183564170322574e-05 -3.4316323153670999e-05 0 -2.0119311278316787e-05 -3.507941981672455e-05 0 -2.9977658393262762e-05 -3.3625225384742612e-05 0 -2.6570970530699675e-05 -3.432399492935451e-05 0 -2.6827595679897016e-05 -3.1883310169535563e-05 0 -2.6570970530699675e-05 -3.432399492935451e-05 0 -2.3224850467788909e-05 -3.5372411912137882e-05 0 -2.6827595679897016e-05 -3.1883310169535563e-05 0 -2.3224850467788909e-05 -3.5372411912137882e-05 0 -2.4111486184177451e-05 -3.1966741644045004e-05 0 -2.6827595679897016e-05 -3.1883310169535563e-05 0 -2.8615853901190346e-05 -3.0095924639788125e-05 0 -2.6827595679897013e-05 -3.1883310169535563e-05 0 -2.5934136466466033e-05 -2.9924941028415761e-05 0 -2.4111486184177451e-05 -3.1966741644045004e-05 0 -2.5934136466466033e-05 -2.9924941028415761e-05 0 -2.6827595679897016e-05 -3.1883310169535563e-05 0 -2.5934136466466033e-05 -2.9924941028415761e-05 0 -2.3174752425138351e-05 -2.9866975953696319e-05 0 -2.5085217908305269e-05 -2.8265617295340693e-05 0 -2.5085217908305269e-05 -2.8265617295340693e-05 0 -2.7222240856551705e-05 -2.8376249019184404e-05 0 -2.5934136466466033e-05 -2.9924941028415761e-05 0 -2.8615853901190346e-05 -3.0095924639788125e-05 0 -2.5934136466466033e-05 -2.9924941028415761e-05 0 -2.7222240856551705e-05 -2.8376249019184404e-05 0 -2.1311842708774856e-05 -3.2396545188125371e-05 0 -2.3174752425138351e-05 -2.9866975953696319e-05 0 -2.4111486184177451e-05 -3.1966741644045004e-05 0 -2.4111486184177451e-05 -3.1966741644045004e-05 0 -2.3174752425138351e-05 -2.9866975953696319e-05 0 -2.5934136466466033e-05 -2.9924941028415761e-05 0 -2.1311842708774856e-05 -3.2396545188125371e-05 0 -2.0170398601880471e-05 -3.0117638466587176e-05 0 -2.3174752425138351e-05 -2.9866975953696319e-05 0 -2.1673494904577135e-05 -2.8166520660847249e-05 0 -2.3174752425138351e-05 -2.9866975953696319e-05 0 -2.0170398601880471e-05 -3.0117638466587176e-05 0 -2.1673494904577135e-05 -2.8166520660847249e-05 0 -2.0012512940761908e-05 -2.6365457227009783e-05 0 -2.1867310993677367e-05 -2.5962859337838379e-05 0 -2.1673494904577135e-05 -2.8166520660847249e-05 0 -2.1867310993677367e-05 -2.5962859337838379e-05 0 -2.3309073158203911e-05 -2.780013077843551e-05 0 -2.3866022912653035e-05 -2.603954545037659e-05 0 -2.3309073158203911e-05 -2.780013077843551e-05 0 -2.1867310993677367e-05 -2.5962859337838379e-05 0 -2.1673494904577135e-05 -2.8166520660847249e-05 0 -2.3309073158203911e-05 -2.780013077843551e-05 0 -2.3174752425138351e-05 -2.9866975953696319e-05 0 -2.5085217908305269e-05 -2.8265617295340693e-05 0 -2.3309073158203911e-05 -2.780013077843551e-05 0 -2.3866022912653035e-05 -2.603954545037659e-05 0 -2.5085217908305269e-05 -2.8265617295340693e-05 0 -2.3174752425138351e-05 -2.9866975953696319e-05 0 -2.3309073158203911e-05 -2.780013077843551e-05 0 -2.5085217908305269e-05 -2.8265617295340693e-05 0 -2.5653619332575957e-05 -2.5703041778063225e-05 0 -2.7222240856551705e-05 -2.8376249019184404e-05 0 -2.759880858025518e-05 -2.7159732767359816e-05 0 -2.7222240856551705e-05 -2.8376249019184404e-05 0 -2.5653619332575957e-05 -2.5703041778063225e-05 0 -2.5085217908305269e-05 -2.8265617295340693e-05 0 -2.3866022912653035e-05 -2.603954545037659e-05 0 -2.5653619332575957e-05 -2.5703041778063225e-05 0 -2.4404740360382578e-05 -2.3366351883015642e-05 0 -2.3866022912653035e-05 -2.603954545037659e-05 0 -2.2153491710166236e-05 -2.3648033495059002e-05 0 -2.4404740360382578e-05 -2.3366351883015642e-05 0 -2.5653619332575957e-05 -2.5703041778063225e-05 0 -2.3866022912653035e-05 -2.603954545037659e-05 0 -2.4404740360382578e-05 -2.3366351883015642e-05 0 -2.7114569690707126e-05 -2.4794691079224798e-05 0 -2.5653619332575957e-05 -2.5703041778063225e-05 0 -2.4404740360382578e-05 -2.3366351883015642e-05 0 -2.2153491710166236e-05 -2.3648033495059002e-05 0 -2.1496543492929191e-05 -2.0499585406578381e-05 0 -2.1496543492929191e-05 -2.0499585406578381e-05 0 -2.2153491710166236e-05 -2.3648033495059002e-05 0 -1.9719532722713214e-05 -2.0828893628663541e-05 0 -2.0055678758277611e-05 -2.3747698575424248e-05 0 -1.9719532722713214e-05 -2.0828893628663541e-05 0 -2.2153491710166236e-05 -2.3648033495059002e-05 0 -2.0055678758277611e-05 -2.3747698575424248e-05 0 -2.2153491710166236e-05 -2.3648033495059002e-05 0 -2.1867310993677367e-05 -2.5962859337838379e-05 0 -2.0055678758277611e-05 -2.3747698575424248e-05 0 -2.1867310993677367e-05 -2.5962859337838379e-05 0 -2.0012512940761908e-05 -2.6365457227009783e-05 0 -2.3866022912653035e-05 -2.603954545037659e-05 0 -2.1867310993677367e-05 -2.5962859337838379e-05 0 -2.2153491710166236e-05 -2.3648033495059002e-05 0 -9.6666561193780773e-06 -7.8146109614636832e-05 0 -1.6859052176013922e-05 -7.3154727651645818e-05 0 -1.7130376845833192e-05 -8.3348270153782214e-05 0 -1.8626265332539693e-05 -4.5791320432919892e-05 0 -1.9747421600678952e-05 -5.3059197040615122e-05 0 -8.655892710026394e-06 -6.6816821485321965e-05 0 -1.6859052176013922e-05 -7.3154727651645818e-05 0 -9.6666561193780773e-06 -7.8146109614636832e-05 0 -2.8444347012308307e-05 -2.4764459262266928e-05 0 -2.9575573368589363e-05 -2.7870506580703081e-05 0 -2.7114569690707126e-05 -2.4794691079224798e-05 0 -2.8444347012308307e-05 -2.4764459262266928e-05 0 -2.7114569690707126e-05 -2.4794691079224798e-05 0 -2.6120169708297525e-05 -2.1977176320737883e-05 0 -2.4404740360382578e-05 -2.3366351883015642e-05 0 -2.514181421352167e-05 -2.2145731320294635e-05 0 -2.7114569690707126e-05 -2.4794691079224798e-05 0 -2.7114569690707126e-05 -2.4794691079224798e-05 0 -2.514181421352167e-05 -2.2145731320294635e-05 0 -2.6120169708297525e-05 -2.1977176320737883e-05 0 -2.759880858025518e-05 -2.7159732767359816e-05 0 -2.5653619332575957e-05 -2.5703041778063225e-05 0 -2.7114569690707126e-05 -2.4794691079224798e-05 0 -2.9575573368589363e-05 -2.7870506580703081e-05 0 -2.8967991028928415e-05 -2.767857597523312e-05 0 -2.7114569690707126e-05 -2.4794691079224798e-05 0 -2.759880858025518e-05 -2.7159732767359816e-05 0 -2.7114569690707126e-05 -2.4794691079224798e-05 0 -2.8967991028928415e-05 -2.767857597523312e-05 0 -2.759880858025518e-05 -2.7159732767359816e-05 0 -2.8967991028928415e-05 -2.767857597523312e-05 0 -2.9501986616784193e-05 -2.9255094497456955e-05 0 -2.759880858025518e-05 -2.7159732767359816e-05 0 -2.9501986616784193e-05 -2.9255094497456955e-05 0 -2.7222240856551705e-05 -2.8376249019184404e-05 0 -3.049803521605756e-05 -3.0266319316602004e-05 0 -2.9501986616784193e-05 -2.9255094497456955e-05 0 -2.8967991028928415e-05 -2.767857597523312e-05 0 -3.049803521605756e-05 -3.0266319316602004e-05 0 -3.1187672747187796e-05 -3.2172318705247207e-05 0 -2.9501986616784193e-05 -2.9255094497456955e-05 0 -1.1145491221849332e-05 -8.9797262300847337e-05 0 -1.7130376845833192e-05 -8.3348270153782214e-05 0 -2.2947816997259768e-05 -9.280842421046787e-05 0 -1.1145491221849332e-05 -8.9797262300847337e-05 0 -2.2947816997259771e-05 -9.2808424210467883e-05 0 -2.0861804653054371e-05 -0.00010315956515208112 0 -2.0979351259636629e-05 -5.9785930181248769e-05 0 -2.2292340414944188e-05 -6.6867969646583792e-05 0 -2.9575573368589363e-05 -2.7870506580703081e-05 0 -3.049803521605756e-05 -3.0266319316602004e-05 0 -2.8967991028928415e-05 -2.767857597523312e-05 0 -9.6666561193780773e-06 -7.8146109614636832e-05 0 -1.7130376845833192e-05 -8.3348270153782214e-05 0 -1.1145491221849332e-05 -8.9797262300847337e-05 0 -1.9747421600678952e-05 -5.3059197040615122e-05 0 -2.0979351259636629e-05 -5.9785930181248769e-05 0 -1.1145491221849332e-05 -8.9797262300847337e-05 0 -2.0861804653054371e-05 -0.00010315956515208112 0 -1.2670110281341441e-05 -0.00010060951399964079 0 -2.2292340414944188e-05 -6.6867969646583792e-05 0 -2.3127688236756408e-05 -7.2056838019680385e-05 0 -3.1187672747187796e-05 -3.2172318705247207e-05 0 -3.1921918679797174e-05 -3.3639310007666552e-05 0 -3.0532738106177427e-05 -3.1014643724417356e-05 0 -1.2670110281341441e-05 -0.00010060951399964079 0 -2.0861804653054371e-05 -0.00010315956515208112 0 -1.4326058538372642e-05 -0.00011180706032892702 0 -1.4326058538372642e-05 -0.00011180706032892702 0 -2.0861804653054374e-05 -0.00010315956515208112 0 -2.3165219317134934e-05 -0.00011295587909298916 0 -2.8615853901190346e-05 -3.0095924639788125e-05 0 -2.7222240856551705e-05 -2.8376249019184404e-05 0 -2.9501986616784193e-05 -2.9255094497456955e-05 0 -2.8615853901190346e-05 -3.0095924639788125e-05 0 -2.9501986616784193e-05 -2.9255094497456955e-05 0 -3.0532738106177427e-05 -3.1014643724417356e-05 0 -3.1187672747187796e-05 -3.2172318705247207e-05 0 -3.0532738106177427e-05 -3.1014643724417356e-05 0 -2.9501986616784193e-05 -2.9255094497456955e-05 0 -2.8615853901190346e-05 -3.0095924639788125e-05 0 -3.0532738106177427e-05 -3.1014643724417356e-05 0 -3.0444933873684901e-05 -3.1742490410549533e-05 0 -2.8615853901190346e-05 -3.0095924639788125e-05 0 -3.0444933873684901e-05 -3.1742490410549533e-05 0 -2.6827595679897016e-05 -3.1883310169535563e-05 0 -3.1921918679797174e-05 -3.3639310007666552e-05 0 -3.0444933873684901e-05 -3.1742490410549533e-05 0 -3.0532738106177427e-05 -3.1014643724417356e-05 0 -3.2375914622445198e-05 -3.5088727420770395e-05 0 -3.0444933873684901e-05 -3.1742490410549533e-05 0 -3.1921918679797174e-05 -3.3639310007666552e-05 0 -3.2375914622445198e-05 -3.5088727420770395e-05 0 -2.9977658393262762e-05 -3.3625225384742612e-05 0 -3.0444933873684901e-05 -3.1742490410549533e-05 0 -2.9977658393262762e-05 -3.3625225384742612e-05 0 -2.6827595679897016e-05 -3.1883310169535563e-05 0 -3.0444933873684901e-05 -3.1742490410549533e-05 0 -1.4326058538372642e-05 -0.00011180706032892702 0 -2.3165219317134934e-05 -0.00011295587909298916 0 -1.9996369766998053e-05 -0.00011767657120365801 0 -2.3127688236756408e-05 -7.2056838019680385e-05 0 -2.597802574704439e-05 -7.8403082889887419e-05 0 -1.5609198788445847e-05 -0.00012036788369595061 0 -1.4326058538372642e-05 -0.00011180706032892702 0 -1.9996369766998053e-05 -0.00011767657120365801 0 -1.5609198788445847e-05 -0.00012036788369595061 0 -1.9996369766998053e-05 -0.00011767657120365801 0 -2.2603572308951983e-05 -0.00012258095376365793 0 -2.2603572308951983e-05 -0.00012258095376365793 0 -1.9996369766998053e-05 -0.00011767657120365801 0 -2.6114530969565371e-05 -0.00011877437427064921 0 -2.9718489514068321e-05 -0.00012300787404705455 0 -2.2603572308951983e-05 -0.00012258095376365793 0 -2.6114530969565371e-05 -0.00011877437427064921 0 -2.3165219317134934e-05 -0.00011295587909298916 0 -3.0372095459881573e-05 -0.00011514211335127299 0 -2.6114530969565371e-05 -0.00011877437427064921 0 -2.3165219317134934e-05 -0.00011295587909298916 0 -2.6114530969565371e-05 -0.00011877437427064921 0 -1.9996369766998053e-05 -0.00011767657120365801 0 -2.9718489514068321e-05 -0.00012300787404705455 0 -2.6114530969565371e-05 -0.00011877437427064922 0 -3.0372095459881573e-05 -0.00011514211335127299 0 -3.7393751547431018e-05 -0.00012301249103617665 0 -3.0372095459881573e-05 -0.00011514211335127299 0 -3.748012945192522e-05 -0.00011164777227019041 0 -3.7393751547431018e-05 -0.00012301249103617665 0 -3.748012945192522e-05 -0.00011164777227019041 0 -4.5111379087362564e-05 -0.00011458803696527098 0 -3.7393751547431018e-05 -0.00012301249103617665 0 -2.9718489514068321e-05 -0.00012300787404705455 0 -3.0372095459881573e-05 -0.00011514211335127299 0 -2.883136752174827e-05 -0.00010510797909366756 0 -3.748012945192522e-05 -0.00011164777227019041 0 -3.0372095459881573e-05 -0.00011514211335127299 0 -2.883136752174827e-05 -0.00010510797909366756 0 -3.7668084759524641e-05 -9.9981887053929704e-05 0 -3.748012945192522e-05 -0.00011164777227019041 0 -4.6461484312885194e-05 -0.00010452840877050749 0 -3.748012945192522e-05 -0.00011164777227019041 0 -3.7668084759524641e-05 -9.9981887053929704e-05 0 -2.883136752174827e-05 -0.00010510797909366756 0 -3.124694465673297e-05 -9.4337947126804246e-05 0 -3.7668084759524641e-05 -9.9981887053929704e-05 0 -2.883136752174827e-05 -0.00010510797909366756 0 -2.0861804653054371e-05 -0.00010315956515208112 0 -2.2947816997259768e-05 -9.280842421046787e-05 0 -2.883136752174827e-05 -0.00010510797909366756 0 -2.3165219317134934e-05 -0.00011295587909298916 0 -2.0861804653054371e-05 -0.00010315956515208112 0 -2.883136752174827e-05 -0.00010510797909366756 0 -3.0372095459881573e-05 -0.00011514211335127299 0 -2.3165219317134934e-05 -0.00011295587909298916 0 -6.4419164142528164e-05 -0.00011370333507551842 0 -5.8069777552907324e-05 -0.00011780460609222419 0 -5.3760878601066528e-05 -0.00011253236108410751 0 -6.4371782629098841e-05 -0.00012313735727402018 0 -5.8069777552907317e-05 -0.00011780460609222419 0 -6.4419164142528164e-05 -0.00011370333507551842 0 -6.4371782629098841e-05 -0.00012313735727402018 0 -5.4956763977169003e-05 -0.00012308253979438147 0 -5.8069777552907317e-05 -0.00011780460609222419 0 -5.4956763977169003e-05 -0.00012308253979438147 0 -5.0332667350830662e-05 -0.00011829919555130231 0 -5.8069777552907317e-05 -0.00011780460609222419 0 -5.3760878601066528e-05 -0.00011253236108410751 0 -5.8069777552907317e-05 -0.00011780460609222419 0 -5.0332667350830662e-05 -0.00011829919555130231 0 -5.3760878601066528e-05 -0.00011253236108410751 0 -5.0332667350830662e-05 -0.00011829919555130231 0 -4.5111379087362564e-05 -0.00011458803696527098 0 -4.5866753203289741e-05 -0.00012294610260426734 0 -4.5111379087362564e-05 -0.00011458803696527098 0 -5.0332667350830662e-05 -0.00011829919555130231 0 -5.4956763977169003e-05 -0.00012308253979438147 0 -4.5866753203289741e-05 -0.00012294610260426734 0 -5.0332667350830662e-05 -0.00011829919555130231 0 -4.5866753203289741e-05 -0.00012294610260426734 0 -3.7393751547431018e-05 -0.00012301249103617665 0 -4.5111379087362564e-05 -0.00011458803696527098 0 -4.6461484312885194e-05 -0.00010452840877050749 0 -4.5111379087362564e-05 -0.00011458803696527098 0 -3.748012945192522e-05 -0.00011164777227019041 0 -4.6461484312885194e-05 -0.00010452840877050749 0 -3.7668084759524641e-05 -9.9981887053929704e-05 0 -4.376351328194974e-05 -9.260585745741422e-05 0 -4.6461484312885194e-05 -0.00010452840877050749 0 -5.2347281950059571e-05 -9.4367867740334787e-05 0 -5.5593991690465384e-05 -0.00010386028600888803 0 -4.6461484312885194e-05 -0.00010452840877050749 0 -5.3760878601066528e-05 -0.00011253236108410751 0 -4.5111379087362564e-05 -0.00011458803696527098 0 -4.6461484312885194e-05 -0.00010452840877050749 0 -5.5593991690465384e-05 -0.00010386028600888803 0 -5.3760878601066528e-05 -0.00011253236108410751 0 -6.4419164142528164e-05 -0.00011370333507551842 0 -5.3760878601066528e-05 -0.00011253236108410751 0 -5.5593991690465384e-05 -0.00010386028600888803 0 -6.4119092414056619e-05 -9.3505311398350214e-05 0 -6.4407005547771249e-05 -0.0001038434543038592 0 -5.5593991690465384e-05 -0.00010386028600888803 0 -6.4407005547771249e-05 -0.0001038434543038592 0 -6.4419164142528164e-05 -0.00011370333507551842 0 -5.5593991690465384e-05 -0.00010386028600888803 0 -6.3354847643931991e-05 -8.2761053197984743e-05 0 -6.4119092414056619e-05 -9.3505311398350214e-05 0 -5.6435566247374088e-05 -8.6549282879542965e-05 0 -6.4119092414056619e-05 -9.3505311398350214e-05 0 -5.5593991690465384e-05 -0.00010386028600888803 0 -5.2347281950059571e-05 -9.4367867740334787e-05 0 -4.8757690726113114e-05 -8.2628159427545231e-05 0 -5.6435566247374088e-05 -8.6549282879542952e-05 0 -5.2347281950059571e-05 -9.4367867740334787e-05 0 -6.4119092414056619e-05 -9.3505311398350214e-05 0 -5.2347281950059571e-05 -9.4367867740334787e-05 0 -5.6435566247374088e-05 -8.6549282879542965e-05 0 -4.8757690726113114e-05 -8.2628159427545231e-05 0 -5.2347281950059571e-05 -9.4367867740334787e-05 0 -4.376351328194974e-05 -9.260585745741422e-05 0 -4.6461484312885194e-05 -0.00010452840877050749 0 -4.376351328194974e-05 -9.260585745741422e-05 0 -5.2347281950059571e-05 -9.4367867740334787e-05 0 -4.8757690726113114e-05 -8.2628159427545231e-05 0 -4.376351328194974e-05 -9.260585745741422e-05 0 -4.1587009490804193e-05 -8.2138606332167626e-05 0 -3.6459945815033638e-05 -8.7960812743780159e-05 0 -4.1587009490804193e-05 -8.2138606332167626e-05 0 -4.376351328194974e-05 -9.260585745741422e-05 0 -4.8757690726113114e-05 -8.2628159427545231e-05 0 -4.1587009490804193e-05 -8.2138606332167626e-05 0 -4.3900159574259849e-05 -7.5021939255077603e-05 0 -4.1535248604807918e-05 -6.5035057416758471e-05 0 -4.3900159574259849e-05 -7.5021939255077603e-05 0 -3.6298108339433125e-05 -7.5195662553251359e-05 0 -3.6298108339433125e-05 -7.5195662553251359e-05 0 -4.3900159574259849e-05 -7.5021939255077603e-05 0 -4.1587009490804193e-05 -8.2138606332167626e-05 0 -4.8757690726113114e-05 -8.2628159427545231e-05 0 -4.3900159574259849e-05 -7.5021939255077603e-05 0 -5.1281004148936036e-05 -7.1795097784560288e-05 0 -4.8757690726113114e-05 -8.2628159427545231e-05 0 -5.6366087545667461e-05 -7.896639618563328e-05 0 -5.6435566247374088e-05 -8.6549282879542965e-05 0 -4.8757690726113114e-05 -8.2628159427545231e-05 0 -5.1281004148936036e-05 -7.1795097784560288e-05 0 -5.6366087545667461e-05 -7.896639618563328e-05 0 -6.1824549152231958e-05 -7.1778641476935009e-05 0 -5.6366087545667461e-05 -7.896639618563328e-05 0 -5.1281004148936036e-05 -7.1795097784560288e-05 0 -6.1824549152231958e-05 -7.1778641476935009e-05 0 -6.3354847643931991e-05 -8.2761053197984743e-05 0 -5.6366087545667461e-05 -7.896639618563328e-05 0 -6.3354847643931991e-05 -8.2761053197984743e-05 0 -5.6435566247374088e-05 -8.6549282879542952e-05 0 -5.6366087545667461e-05 -7.896639618563328e-05 0 -2.3198065511951384e-05 -8.0069527130204729e-05 0 -2.9909520458097746e-05 -8.4406405815465221e-05 0 -2.2947816997259768e-05 -9.280842421046787e-05 0 -2.2947816997259768e-05 -9.280842421046787e-05 0 -2.9909520458097746e-05 -8.4406405815465221e-05 0 -3.124694465673297e-05 -9.4337947126804246e-05 0 -2.3198065511951384e-05 -8.0069527130204729e-05 0 -2.2947816997259771e-05 -9.2808424210467883e-05 0 -1.7130376845833192e-05 -8.3348270153782214e-05 0 -2.883136752174827e-05 -0.00010510797909366756 0 -2.2947816997259768e-05 -9.280842421046787e-05 0 -3.124694465673297e-05 -9.4337947126804246e-05 0 -3.6459945815033638e-05 -8.7960812743780159e-05 0 -3.7668084759524641e-05 -9.9981887053929704e-05 0 -3.124694465673297e-05 -9.4337947126804246e-05 0 -3.6459945815033638e-05 -8.7960812743780159e-05 0 -4.376351328194974e-05 -9.260585745741422e-05 0 -3.7668084759524641e-05 -9.9981887053929704e-05 0 -3.6459945815033638e-05 -8.7960812743780159e-05 0 -3.124694465673297e-05 -9.4337947126804246e-05 0 -2.9909520458097746e-05 -8.4406405815465221e-05 0 -3.6298108339433125e-05 -7.5195662553251359e-05 0 -2.9909520458097746e-05 -8.4406405815465221e-05 0 -2.8727372770528473e-05 -7.3406784308373694e-05 0 -3.6459945815033638e-05 -8.7960812743780159e-05 0 -2.9909520458097746e-05 -8.4406405815465221e-05 0 -3.6298108339433125e-05 -7.5195662553251359e-05 0 -3.6459945815033638e-05 -8.7960812743780159e-05 0 -3.6298108339433118e-05 -7.5195662553251345e-05 0 -4.1587009490804193e-05 -8.2138606332167626e-05 0 -3.6298108339433125e-05 -7.5195662553251359e-05 0 -2.8727372770528473e-05 -7.3406784308373694e-05 0 -3.2184407428750882e-05 -6.4629403903100372e-05 0 -2.3198065511951384e-05 -8.0069527130204729e-05 0 -2.2615007262071264e-05 -7.0702365411333626e-05 0 -2.8727372770528473e-05 -7.3406784308373694e-05 0 -2.3198065511951384e-05 -8.0069527130204729e-05 0 -2.8727372770528473e-05 -7.3406784308373694e-05 0 -2.9909520458097746e-05 -8.4406405815465221e-05 0 -2.3198065511951384e-05 -8.0069527130204729e-05 0 -1.7130376845833192e-05 -8.3348270153782214e-05 0 -1.6859052176013922e-05 -7.3154727651645818e-05 0 -2.3198065511951384e-05 -8.0069527130204729e-05 0 -1.6859052176013922e-05 -7.3154727651645818e-05 0 -2.2615007262071264e-05 -7.0702365411333626e-05 0 -1.7651871310150167e-05 -6.2902310609958898e-05 0 -2.2615007262071264e-05 -7.0702365411333626e-05 0 -1.6859052176013922e-05 -7.3154727651645818e-05 0 -2.6321723288785179e-05 -6.3851164868803596e-05 0 -2.2615007262071264e-05 -7.0702365411333626e-05 0 -1.7651871310150167e-05 -6.2902310609958898e-05 0 -2.6321723288785179e-05 -6.3851164868803596e-05 0 -1.7651871310150164e-05 -6.2902310609958884e-05 0 -2.132016541817089e-05 -5.6417863597470315e-05 0 -1.7651871310150167e-05 -6.2902310609958898e-05 0 -1.5261452103871367e-05 -5.2487995195751092e-05 0 -2.132016541817089e-05 -5.6417863597470315e-05 0 -2.6321723288785179e-05 -6.3851164868803596e-05 0 -2.132016541817089e-05 -5.6417863597470315e-05 0 -2.6775993746340788e-05 -5.5290582111206813e-05 0 -2.6321723288785179e-05 -6.3851164868803596e-05 0 -2.8727372770528473e-05 -7.3406784308373694e-05 0 -2.2615007262071264e-05 -7.0702365411333626e-05 0 -2.6321723288785179e-05 -6.3851164868803596e-05 0 -3.2184407428750882e-05 -6.4629403903100372e-05 0 -2.8727372770528473e-05 -7.3406784308373694e-05 0 -4.1535248604807918e-05 -6.5035057416758471e-05 0 -3.6298108339433125e-05 -7.5195662553251359e-05 0 -3.2184407428750882e-05 -6.4629403903100372e-05 0 -4.1535248604807918e-05 -6.5035057416758471e-05 0 -3.2184407428750882e-05 -6.4629403903100372e-05 0 -3.357531500512967e-05 -5.5264145657236094e-05 0 -2.6321723288785179e-05 -6.3851164868803596e-05 0 -2.6775993746340788e-05 -5.5290582111206813e-05 0 -3.2184407428750882e-05 -6.4629403903100372e-05 0 -3.357531500512967e-05 -5.5264145657236094e-05 0 -3.2184407428750882e-05 -6.4629403903100372e-05 0 -2.6775993746340788e-05 -5.5290582111206813e-05 0 -3.357531500512967e-05 -5.5264145657236094e-05 0 -2.6775993746340788e-05 -5.5290582111206813e-05 0 -2.5825539096430759e-05 -4.5153679412473383e-05 0 -3.0941985765583318e-05 -4.2339200855261665e-05 0 -3.7061667180968631e-05 -4.9055184610347121e-05 0 -3.357531500512967e-05 -5.5264145657236094e-05 0 -3.0941985765583318e-05 -4.2339200855261665e-05 0 -3.357531500512967e-05 -5.5264145657236094e-05 0 -2.5825539096430759e-05 -4.5153679412473383e-05 0 -2.0310672705565765e-05 -4.7567290809003648e-05 0 -1.8602310618880124e-05 -3.5674095632223648e-05 0 -2.5825539096430759e-05 -4.5153679412473383e-05 0 -2.0310672705565765e-05 -4.7567290809003648e-05 0 -1.3859746209029677e-05 -4.1156828381518827e-05 0 -1.8602310618880124e-05 -3.5674095632223648e-05 0 -2.0310672705565765e-05 -4.7567290809003648e-05 0 -2.1320165418170887e-05 -5.6417863597470315e-05 0 -1.5261452103871367e-05 -5.2487995195751092e-05 0 -2.0310672705565765e-05 -4.7567290809003648e-05 0 -2.5825539096430759e-05 -4.5153679412473377e-05 0 -2.6775993746340788e-05 -5.5290582111206813e-05 0 -2.0310672705565765e-05 -4.7567290809003648e-05 0 -2.6775993746340788e-05 -5.5290582111206813e-05 0 -2.132016541817089e-05 -5.6417863597470315e-05 0 -5.9483833191032979e-05 -6.101140110720034e-05 0 -5.5301862552033167e-05 -6.6344264077350347e-05 0 -4.8609279268165018e-05 -6.0292641382135423e-05 0 -5.9483833191032979e-05 -6.101140110720034e-05 0 -4.8609279268165018e-05 -6.0292641382135423e-05 0 -5.0500959868811219e-05 -5.2684192773419554e-05 0 -6.1824549152231958e-05 -7.1778641476935009e-05 0 -5.1281004148936036e-05 -7.1795097784560288e-05 0 -5.5301862552033167e-05 -6.6344264077350347e-05 0 -5.9483833191032979e-05 -6.101140110720034e-05 0 -6.1824549152231958e-05 -7.1778641476935009e-05 0 -5.5301862552033167e-05 -6.6344264077350347e-05 0 -5.1281004148936036e-05 -7.1795097784560288e-05 0 -4.8609279268165018e-05 -6.0292641382135423e-05 0 -5.5301862552033167e-05 -6.6344264077350347e-05 0 -4.1535248604807918e-05 -6.5035057416758471e-05 0 -4.0468041147750483e-05 -5.5786126737324117e-05 0 -4.8609279268165018e-05 -6.0292641382135423e-05 0 -4.1535248604807918e-05 -6.5035057416758471e-05 0 -4.8609279268165018e-05 -6.0292641382135423e-05 0 -5.1281004148936036e-05 -7.1795097784560288e-05 0 -4.1535248604807918e-05 -6.5035057416758471e-05 0 -5.1281004148936036e-05 -7.1795097784560288e-05 0 -4.3900159574259849e-05 -7.5021939255077603e-05 0 -4.1535248604807918e-05 -6.5035057416758471e-05 0 -3.3575315005129663e-05 -5.5264145657236094e-05 0 -4.0468041147750483e-05 -5.5786126737324117e-05 0 -4.3512433540155733e-05 -4.9971014314931246e-05 0 -4.0468041147750483e-05 -5.5786126737324117e-05 0 -3.7061667180968631e-05 -4.9055184610347121e-05 0 -3.357531500512967e-05 -5.5264145657236094e-05 0 -3.7061667180968631e-05 -4.9055184610347121e-05 0 -4.0468041147750483e-05 -5.5786126737324117e-05 0 -3.0941985765583318e-05 -4.2339200855261665e-05 0 -3.7075533256629121e-05 -4.2385681925246253e-05 0 -3.7061667180968631e-05 -4.9055184610347121e-05 0 -4.3512433540155733e-05 -4.9971014314931246e-05 0 -3.7061667180968631e-05 -4.9055184610347121e-05 0 -3.7075533256629121e-05 -4.2385681925246253e-05 0 -4.3512433540155733e-05 -4.9971014314931246e-05 0 -3.7075533256629121e-05 -4.2385681925246253e-05 0 -4.5898207855644067e-05 -4.3513631592086826e-05 0 -4.3512433540155733e-05 -4.9971014314931246e-05 0 -4.8609279268165018e-05 -6.0292641382135423e-05 0 -4.0468041147750483e-05 -5.5786126737324117e-05 0 -4.3512433540155733e-05 -4.9971014314931246e-05 0 -5.0500959868811219e-05 -5.2684192773419554e-05 0 -4.8609279268165018e-05 -6.0292641382135423e-05 0 -4.3512433540155733e-05 -4.9971014314931246e-05 0 -4.5898207855644067e-05 -4.3513631592086826e-05 0 -5.0500959868811219e-05 -5.2684192773419554e-05 0 -5.6442251542590887e-05 -5.0611448482973571e-05 0 -5.0500959868811219e-05 -5.2684192773419554e-05 0 -4.5898207855644067e-05 -4.3513631592086826e-05 0 -5.6442251542590887e-05 -5.0611448482973571e-05 0 -5.9483833191032979e-05 -6.101140110720034e-05 0 -5.0500959868811219e-05 -5.2684192773419554e-05 0 -4.8131588919206557e-05 -3.2360009798262945e-05 0 -5.2686834326248677e-05 -4.1022601266817213e-05 0 -4.44684691922437e-05 -3.5351037015460481e-05 0 -5.2686834326248677e-05 -4.1022601266817213e-05 0 -5.6442251542590887e-05 -5.0611448482973571e-05 0 -4.5898207855644067e-05 -4.3513631592086826e-05 0 -5.2686834326248677e-05 -4.1022601266817213e-05 0 -4.5898207855644067e-05 -4.3513631592086826e-05 0 -4.44684691922437e-05 -3.5351037015460481e-05 0 -3.8539850417402295e-05 -3.4775531222015688e-05 0 -4.44684691922437e-05 -3.5351037015460481e-05 0 -4.5898207855644067e-05 -4.3513631592086826e-05 0 -3.8539850417402295e-05 -3.4775531222015688e-05 0 -4.5898207855644067e-05 -4.3513631592086826e-05 0 -3.7075533256629121e-05 -4.2385681925246253e-05 0 -3.0941985765583318e-05 -4.2339200855261665e-05 0 -3.3739387073017671e-05 -3.5518040240879986e-05 0 -3.7075533256629121e-05 -4.2385681925246253e-05 0 -3.8539850417402295e-05 -3.4775531222015688e-05 0 -3.7075533256629121e-05 -4.2385681925246253e-05 0 -3.3739387073017671e-05 -3.5518040240879986e-05 0 -2.8308288970229802e-05 -3.0409999805712253e-05 0 -3.3247240723976772e-05 -2.9559534333277588e-05 0 -3.3739387073017671e-05 -3.5518040240879986e-05 0 -3.8539850417402295e-05 -3.4775531222015688e-05 0 -3.3739387073017671e-05 -3.5518040240879986e-05 0 -3.3247240723976772e-05 -2.9559534333277588e-05 0 -2.9287824584779214e-05 -2.2974679140184293e-05 0 -3.7532282764516858e-05 -2.6534487810707386e-05 0 -3.3247240723976772e-05 -2.9559534333277588e-05 0 -2.9287824584779214e-05 -2.2974679140184293e-05 0 -3.0290630753518433e-05 -1.946495533680971e-05 0 -3.7532282764516858e-05 -2.6534487810707386e-05 0 -3.8539850417402295e-05 -3.4775531222015688e-05 0 -3.3247240723976772e-05 -2.9559534333277588e-05 0 -3.7532282764516858e-05 -2.6534487810707386e-05 0 -4.8131588919206557e-05 -3.2360009798262945e-05 0 -4.44684691922437e-05 -3.5351037015460481e-05 0 -3.7532282764516858e-05 -2.6534487810707386e-05 0 -3.8539850417402295e-05 -3.4775531222015688e-05 0 -3.7532282764516858e-05 -2.6534487810707386e-05 0 -4.44684691922437e-05 -3.5351037015460481e-05 0 -4.3414548550469366e-05 -2.5019557785977002e-05 0 -4.8131588919206557e-05 -3.2360009798262945e-05 0 -3.7532282764516858e-05 -2.6534487810707386e-05 0 -2.1851980012765412e-05 -2.7452426310205518e-05 0 -2.5160473889294782e-05 -3.5876225752713994e-05 0 -1.8602310618880124e-05 -3.5674095632223648e-05 0 -2.1851980012765412e-05 -2.7452426310205518e-05 0 -1.8602310618880124e-05 -3.5674095632223648e-05 0 -1.6197170292617502e-05 -2.4108555751189772e-05 0 -1.8602310618880124e-05 -3.5674095632223648e-05 0 -2.5160473889294782e-05 -3.5876225752713994e-05 0 -2.5825539096430759e-05 -4.5153679412473383e-05 0 -3.0941985765583318e-05 -4.2339200855261665e-05 0 -2.5825539096430763e-05 -4.5153679412473383e-05 0 -2.5160473889294782e-05 -3.5876225752713994e-05 0 -3.0941985765583318e-05 -4.2339200855261665e-05 0 -2.8308288970229802e-05 -3.0409999805712253e-05 0 -3.3739387073017671e-05 -3.5518040240879986e-05 0 -3.0941985765583318e-05 -4.2339200855261665e-05 0 -2.5160473889294782e-05 -3.5876225752713994e-05 0 -2.8308288970229802e-05 -3.0409999805712253e-05 0 -2.1851980012765412e-05 -2.7452426310205518e-05 0 -2.8308288970229802e-05 -3.0409999805712253e-05 0 -2.5160473889294782e-05 -3.5876225752713994e-05 0 -2.1851980012765412e-05 -2.7452426310205518e-05 0 -2.4302173970946595e-05 -2.2528536890573661e-05 0 -2.8308288970229802e-05 -3.0409999805712253e-05 0 -2.9287824584779214e-05 -2.2974679140184293e-05 0 -3.3247240723976772e-05 -2.9559534333277588e-05 0 -2.8308288970229802e-05 -3.0409999805712253e-05 0 -2.9287824584779214e-05 -2.2974679140184293e-05 0 -2.4302173970946595e-05 -2.2528536890573661e-05 0 -2.5501422945257327e-05 -1.886273217694799e-05 0 -2.9287824584779214e-05 -2.2974679140184293e-05 0 -2.8308288970229802e-05 -3.0409999805712253e-05 0 -2.4302173970946595e-05 -2.2528536890573661e-05 0 -2.1851980012765412e-05 -2.7452426310205518e-05 0 -1.9976906387529244e-05 -1.9750957304267255e-05 0 -2.4302173970946595e-05 -2.2528536890573661e-05 0 -1.9976906387529244e-05 -1.9750957304267255e-05 0 -2.1851980012765412e-05 -2.7452426310205518e-05 0 -1.6197170292617502e-05 -2.4108555751189772e-05 0 -1.5644531166228343e-05 -1.6352347793507696e-05 0 -1.9976906387529244e-05 -1.9750957304267255e-05 0 -1.6197170292617502e-05 -2.4108555751189772e-05 0 -1.2850771190132977e-05 -1.3479453295509538e-05 0 -1.5644531166228343e-05 -1.6352347793507696e-05 0 -1.6197170292617502e-05 -2.4108555751189772e-05 0 -1.2850771190132977e-05 -1.3479453295509538e-05 0 -1.8073029412942454e-05 -1.1143159837373825e-05 0 -1.6788861272691013e-05 -1.002973424588498e-05 0 -1.2850771190132977e-05 -1.3479453295509538e-05 0 -1.6197170292617502e-05 -2.4108555751189772e-05 0 -9.4536207937726998e-06 -2.5565177237612187e-05 0 -1.2696409468781866e-05 -1.3365468964640484e-05 0 -1.3683010043521861e-05 -1.8475264591554099e-05 0 -9.4536207937726998e-06 -2.5565177237612187e-05 0 -1.6197170292617502e-05 -2.4108555751189772e-05 0 -1.3052935872916637e-05 -3.1428610562300579e-05 0 -1.8602310618880124e-05 -3.5674095632223648e-05 0 -1.3052935872916637e-05 -3.1428610562300579e-05 0 -1.6197170292617502e-05 -2.4108555751189772e-05 0 -1.3683010043521861e-05 -1.8475264591554099e-05 0 -1.4846755347510339e-05 -2.4429957223331777e-05 0 -9.4536207937726998e-06 -2.5565177237612187e-05 0 -1.3052935872916637e-05 -3.1428610562300579e-05 0 -8.0123900875146656e-06 -3.5187108892025598e-05 0 -1.4846755347510339e-05 -2.4429957223331777e-05 0 -1.6210948828175672e-05 -3.1328802979248329e-05 0 -8.0123900875146656e-06 -3.5187108892025598e-05 0 -1.3052935872916637e-05 -3.1428610562300579e-05 0 -1.3859746209029677e-05 -4.115682838151882e-05 0 -1.8602310618880124e-05 -3.5674095632223648e-05 0 -1.3859746209029677e-05 -4.115682838151882e-05 0 -1.3052935872916637e-05 -3.1428610562300579e-05 0 -1.9933057453646553e-05 -1.1993883139991826e-05 0 -1.8751456944330271e-05 -1.0280685371746201e-05 0 -2.1582976168590237e-05 -1.3726191204249877e-05 0 -2.1691221510838321e-05 -1.3737928153735769e-05 0 -2.4663331593275367e-05 -1.7296622161025293e-05 0 -2.1582976168590237e-05 -1.3726191204249877e-05 0 -2.1691221510838321e-05 -1.3737928153735769e-05 0 -2.1582976168590237e-05 -1.3726191204249877e-05 0 -1.8751456944330271e-05 -1.0280685371746201e-05 0 -1.8073029412942454e-05 -1.1143159837373825e-05 0 -2.1691221510838321e-05 -1.3737928153735769e-05 0 -1.8751456944330271e-05 -1.0280685371746201e-05 0 -1.8751456944330271e-05 -1.0280685371746201e-05 0 -1.6127437233160413e-05 -7.499773606150416e-06 0 -1.6788861272691013e-05 -1.002973424588498e-05 0 -1.8073029412942454e-05 -1.1143159837373825e-05 0 -1.8751456944330268e-05 -1.02806853717462e-05 0 -1.6788861272691013e-05 -1.002973424588498e-05 0 -1.2850771190132977e-05 -1.3479453295509538e-05 0 -1.6788861272691013e-05 -1.002973424588498e-05 0 -1.4743143313397886e-05 -8.9448665420196542e-06 0 -1.6788861272691013e-05 -1.002973424588498e-05 0 -1.6127437233160413e-05 -7.4997736061504152e-06 0 -1.4743143313397886e-05 -8.9448665420196542e-06 0 -1.6127437233160413e-05 -7.499773606150416e-06 0 -1.8751456944330271e-05 -1.0280685371746201e-05 0 -1.794314853574907e-05 -9.2651719282815195e-06 0 -1.6127437233160413e-05 -7.499773606150416e-06 0 -1.794314853574907e-05 -9.2651719282815195e-06 0 -1.5243118652100911e-05 -5.720241295993503e-06 0 -1.6127437233160413e-05 -7.499773606150416e-06 0 -1.5243118652100911e-05 -5.720241295993503e-06 0 -1.3353077347077945e-05 -4.0005294719973778e-06 0 -1.2097565394233667e-05 -1.4430584339474782e-06 0 -1.5243118652100911e-05 -5.720241295993503e-06 0 -1.347399801728387e-05 -3.3890093484875379e-06 0 -1.2097565394233667e-05 -1.4430584339474782e-06 0 -1.3353077347077945e-05 -4.0005294719973778e-06 0 -1.5243118652100911e-05 -5.720241295993503e-06 0 -1.5316415496092983e-05 -7.1060008677553155e-06 0 -1.347399801728387e-05 -3.3890093484875379e-06 0 -1.5243118652100911e-05 -5.720241295993503e-06 0 -1.5316415496092983e-05 -7.1060008677553155e-06 0 -1.6640759486213686e-05 -8.3814984361173886e-06 0 -1.7017058628818105e-05 -1.077877884550784e-05 0 -1.5316415496092983e-05 -7.1060008677553155e-06 0 -1.5243118652100911e-05 -5.720241295993503e-06 0 -1.6640759486213686e-05 -8.3814984361173886e-06 0 -1.8185268695437129e-05 -1.1110927950915547e-05 0 -1.6640759486213686e-05 -8.3814984361173886e-06 0 -1.794314853574907e-05 -9.2651719282815195e-06 0 -1.5243118652100911e-05 -5.720241295993503e-06 0 -1.794314853574907e-05 -9.2651719282815195e-06 0 -1.6640759486213686e-05 -8.3814984361173886e-06 0 -1.8185268695437129e-05 -1.1110927950915547e-05 0 -1.7017058628818105e-05 -1.077877884550784e-05 0 -1.6640759486213686e-05 -8.3814984361173886e-06 0 -1.9933057453646553e-05 -1.1993883139991826e-05 0 -1.794314853574907e-05 -9.2651719282815195e-06 0 -1.8751456944330271e-05 -1.0280685371746201e-05 0 -1.8185268695437129e-05 -1.1110927950915547e-05 0 -1.794314853574907e-05 -9.2651719282815195e-06 0 -2.0149018735096482e-05 -1.3619686305453075e-05 0 -1.9933057453646553e-05 -1.1993883139991826e-05 0 -2.0149018735096482e-05 -1.3619686305453075e-05 0 -1.794314853574907e-05 -9.2651719282815195e-06 0 -1.9933057453646553e-05 -1.1993883139991826e-05 0 -2.2465005308152266e-05 -1.5820473349737669e-05 0 -2.0149018735096482e-05 -1.3619686305453075e-05 0 -2.0981598030380741e-05 -1.7103310534404294e-05 0 -1.8939819238242839e-05 -1.4010048422678778e-05 0 -2.0149018735096482e-05 -1.3619686305453075e-05 0 -2.0981598030380741e-05 -1.7103310534404294e-05 0 -2.0149018735096482e-05 -1.3619686305453075e-05 0 -2.2388496051148061e-05 -1.7181432288016195e-05 0 -2.2465005308152266e-05 -1.5820473349737669e-05 0 -2.2388496051148061e-05 -1.7181432288016195e-05 0 -2.0149018735096482e-05 -1.3619686305453075e-05 0 -1.7441933792672067e-05 -1.3869081351118229e-05 0 -1.7017058628818105e-05 -1.077877884550784e-05 0 -1.8939819238242839e-05 -1.4010048422678778e-05 0 -1.8185268695437129e-05 -1.1110927950915547e-05 0 -1.8939819238242839e-05 -1.4010048422678778e-05 0 -1.7017058628818105e-05 -1.077877884550784e-05 0 -1.8185268695437129e-05 -1.1110927950915547e-05 0 -2.0149018735096482e-05 -1.3619686305453075e-05 0 -1.8939819238242839e-05 -1.4010048422678778e-05 0 -2.0981598030380741e-05 -1.7103310534404294e-05 0 -1.9043309181439464e-05 -1.726021854393762e-05 0 -1.8939819238242839e-05 -1.4010048422678778e-05 0 -1.7441933792672067e-05 -1.3869081351118229e-05 0 -1.8939819238242839e-05 -1.4010048422678778e-05 0 -1.9043309181439464e-05 -1.726021854393762e-05 0 -1.7651776720933953e-05 -1.8961232550252753e-05 0 -1.9043309181439464e-05 -1.726021854393762e-05 0 -1.9719532722713214e-05 -2.0828893628663541e-05 0 -2.0981598030380741e-05 -1.7103310534404294e-05 0 -2.1496543492929191e-05 -2.0499585406578381e-05 0 -1.9043309181439464e-05 -1.726021854393762e-05 0 -2.1496543492929191e-05 -2.0499585406578381e-05 0 -1.9719532722713214e-05 -2.0828893628663541e-05 0 -1.9043309181439464e-05 -1.726021854393762e-05 0 -2.4350008677983e-05 -2.0065785538633512e-05 0 -2.3182828147726904e-05 -2.0234149136056718e-05 0 -2.2388496051148061e-05 -1.7181432288016195e-05 0 -2.0981598030380741e-05 -1.7103310534404294e-05 0 -2.3182828147726904e-05 -2.0234149136056718e-05 0 -2.1496543492929191e-05 -2.0499585406578381e-05 0 -2.0981598030380741e-05 -1.7103310534404294e-05 0 -2.2388496051148061e-05 -1.7181432288016195e-05 0 -2.3182828147726904e-05 -2.0234149136056718e-05 0 -2.4404740360382578e-05 -2.3366351883015642e-05 0 -2.1496543492929191e-05 -2.0499585406578381e-05 0 -2.3182828147726904e-05 -2.0234149136056718e-05 0 -2.4350008677983e-05 -2.0065785538633512e-05 0 -2.514181421352167e-05 -2.2145731320294635e-05 0 -2.3182828147726904e-05 -2.0234149136056718e-05 0 -2.4404740360382578e-05 -2.3366351883015642e-05 0 -2.3182828147726904e-05 -2.0234149136056718e-05 0 -2.514181421352167e-05 -2.2145731320294635e-05 0 -2.4350008677983e-05 -2.0065785538633512e-05 0 -2.6120169708297525e-05 -2.1977176320737883e-05 0 -2.514181421352167e-05 -2.2145731320294635e-05 0 -2.4350008677983e-05 -2.0065785538633512e-05 0 -2.4644878711054081e-05 -1.8938818123043945e-05 0 -2.6120169708297525e-05 -2.1977176320737883e-05 0 -2.4350008677983e-05 -2.0065785538633512e-05 0 -2.2388496051148061e-05 -1.7181432288016195e-05 0 -2.4644878711054081e-05 -1.8938818123043945e-05 0 -2.6874533220452473e-05 -2.1207697339309668e-05 0 -2.6120169708297525e-05 -2.1977176320737883e-05 0 -2.4644878711054081e-05 -1.8938818123043945e-05 0 -7.9972129624440643e-06 -5.5835359370605888e-05 0 -1.7651871310150167e-05 -6.2902310609958898e-05 0 -8.655892710026394e-06 -6.6816821485321965e-05 0 -1.7481722313069516e-05 -3.8532943938287753e-05 0 -1.8626265332539693e-05 -4.5791320432919892e-05 0 -2.6874533220452473e-05 -2.1207697339309668e-05 0 -2.8444347012308307e-05 -2.4764459262266931e-05 0 -2.6120169708297525e-05 -2.1977176320737883e-05 0 -8.655892710026394e-06 -6.6816821485321965e-05 0 -1.7651871310150167e-05 -6.2902310609958898e-05 0 -1.6859052176013922e-05 -7.3154727651645818e-05 0 -7.9972129624440643e-06 -5.5835359370605888e-05 0 -1.5261452103871367e-05 -5.2487995195751092e-05 0 -1.7651871310150167e-05 -6.2902310609958898e-05 0 -7.7311971485306374e-06 -4.5298610980495586e-05 0 -1.5261452103871367e-05 -5.2487995195751092e-05 0 -7.9972129624440643e-06 -5.5835359370605888e-05 0 -2.4663331593275367e-05 -1.7296622161025293e-05 0 -2.6874533220452473e-05 -2.1207697339309668e-05 0 -2.4644878711054081e-05 -1.8938818123043945e-05 0 -1.6210948828175672e-05 -3.1328802979248329e-05 0 -1.7481722313069516e-05 -3.8532943938287753e-05 0 -7.7311971485306374e-06 -4.5298610980495586e-05 0 -1.3859746209029677e-05 -4.115682838151882e-05 0 -1.5261452103871367e-05 -5.2487995195751092e-05 0 -2.0310672705565765e-05 -4.7567290809003648e-05 0 -1.5261452103871367e-05 -5.2487995195751092e-05 0 -1.3859746209029677e-05 -4.115682838151882e-05 0 -8.0123900875146656e-06 -3.5187108892025598e-05 0 -1.3859746209029677e-05 -4.115682838151882e-05 0 -7.7311971485306374e-06 -4.5298610980495586e-05 0 -2.4663331593275367e-05 -1.7296622161025293e-05 0 -2.2465005308152266e-05 -1.5820473349737666e-05 0 -2.1582976168590237e-05 -1.3726191204249877e-05 0 -1.9933057453646553e-05 -1.1993883139991826e-05 0 -2.1582976168590237e-05 -1.3726191204249877e-05 0 -2.2465005308152266e-05 -1.5820473349737669e-05 0 -2.2465005308152266e-05 -1.5820473349737669e-05 0 -2.4644878711054081e-05 -1.8938818123043945e-05 0 -2.2388496051148061e-05 -1.7181432288016195e-05 0 -2.4663331593275367e-05 -1.7296622161025293e-05 0 -2.4644878711054081e-05 -1.8938818123043945e-05 0 -2.2465005308152266e-05 -1.5820473349737669e-05 0 
</DataArray>
</PointData>
<CellData Scalars="region_id,cross_section_updated,displacement_divergence," Vectors="" Tensors="stress,">
<DataArray type="Float64" Name="region_id" format="ascii">
1 1 1 1 1 1 1 1 1 1 1 1 1 1 1 1 1 1 1 1 1 1 1 1 1 1 1 1 1 1 1 1 1 1 1 1 1 1 1 1 1 1 1 1 1 1 1 1 1 1 1 1 1 1 1 1 1 1 1 1 1 1 1 1 1 1 1 1 1 1 1 1 1 1 1 1 1 1 1 1 1 1 1 1 1 1 1 1 1 1 1 1 1 1 1 1 1 1 1 1 1 1 1 1 1 1 1 1 1 1 1 1 1 1 1 1 1 1 1 1 1 1 1 1 1 1 1 1 1 1 1 1 1 1 1 1 1 1 1 1 1 1 1 1 1 1 1 1 1 1 1 1 1 1 1 1 1 1 1 1 1 1 1 1 1 1 1 1 1 1 1 1 1 1 1 1 1 1 1 1 1 1 1 1 1 1 1 1 1 1 1 1 1 1 1 1 1 1 1 1 1 1 1 1 1 1 1 1 1 1 1 1 1 1 1 1 1 1 1 1 1 1 1 1 1 1 1 1 1 1 1 1 1 1 1 1 1 1 1 1 1 1 1 1 1 1 1 1 1 1 1 1 1 1 1 1 1 1 1 1 1 1 1 1 1 1 1 1 1 1 1 1 1 1 1 1 1 1 1 1 1 1 1 1 1 1 1 1 1 1 1 1 1 1 1 1 1 1 1 1 1 1 1 1 1 1 1 1 1 1 1 1 1 1 1 1 1 1 1 1 1 1 1 1 1 1 1 1 1 1 1 1 1 1 1 1 1 1 1 1 1 1 1 1 1 1 1 1 1 1 1 1 1 1 1 1 1 1 1 1 1 1 1 1 1 1 1 1 1 1 1 1 1 1 1 1 1 1 1 1 1 1 1 1 1 1 1 1 1 1 1 1 1 1 1 1 1 1 1 1 1 1 1 1 1 1 1 1 1 1 1 1 1 1 1 1 1 1 1 1 1 1 1 1 1 1 1 1 1 1 1 1 1 1 1 1 1 1 1 1 1 1 1 1 1 1 1 1 1 1 1 1 1 1 1 1 1 1 1 1 1 1 1 1 1 1 1 1 1 1 1 1 1 1 1 1 1 1 1 1 1 1 1 1 1 1 1 1 1 1 1 1 1 1 1 1 1 1 1 1 1 1 1 1 1 1 1 1 1 1 1 1 1 1 1 1 1 1 1 1 1 1 1 1 1 1 1 1 1 1 1 1 1 1 1 1 1 1 3 1 1 3 1 1 3 1 1 1 1 1 1 1 1 1 1 1 1 1 3 1 1 1 1 1 3 1 1 1 1 1 1 1 1 1 1 1 1 1 1 1 1 1 1 1 1 1 1 1 1 1 1 1 1 1 1 1 1 1 1 1 1 1 1 1 1 1 1 1 1 1 1 1 1 1 1 1 1 1 1 1 1 1 1 1 1 1 1 1 1 1 1 1 1 1 1 1 1 1 1 1 1 1 1 1 1 1 1 1 1 1 1 1 1 1 1 1 1 1 1 1 1 1 1 1 1 1 1 1 1 1 1 1 1 1 1 1 1 1 1 1 1 1 1 1 1 1 1 1 1 1 1 1 1 1 1 1 1 1 1 1 1 1 1 1 1 1 1 1 1 1 1 1 1 1 1 1 1 1 1 1 1 1 1 1 1 1 1 1 1 1 1 1 1 3 1 1 1 3 1 1 3 1 1 1 1 1 1 1 1 1 1 1 3 1 1 1 1 3 1 1 1 1 1 1 1 1 1 1 1 1 1 1 1 1 1 1 1 1 1 1 1 1 1 1 1 1 1 1 1 1 1 1 1 1 1 1 1 1 1 1 1 1 1 1 1 1 1 1 1 1 1 1 1 1 1 1 2 1 1 1 1 1 1 1 1 1 1 1 1 1 1 2 1 1 2 1 2 1 1 1 1 1 1 1 1 1 1 1 1 1 2 1 1 1 1 1 1 1 1 1 1 1 1 1 1 1 1 1 1 1 1 1 1 1 1 1 1 1 1 1 1 1 1 1 1 1 1 1 1 1 1 1 1 1 1 1 1 1 1 1 1 1 1 1 1 1 1 1 1 1 1 1 1 1 1 1 1 1 1 1 1 1 1 1 1 1 1 1 1 1 1 1 1 1 1 1 1 1 1 1 1 1 1 1 1 1 1 1 1 1 1 1 1 1 1 1 1 1 1 1 1 1 1 1 1 1 1 1 1 1 1 1 1 1 1 1 1 1 1 1 1 1 1 1 1 1 1 2 1 1 2 1 2 1 1 1 1 1 1 1 1 1 1 1 1 1 1 1 1 1 1 1 1 1 1 1 1 1 1 1 1 1 1 1 1 1 1 1 1 1 1 1 1 1 1 1 1 1 1 1 2 1 1 1 1 1 2 1 1 1 1 1 1 1 
</DataArray>
<DataArray type="Float64" Name="stress" NumberOfComponents="9" format="ascii">
-0.086468137267864939 -0.0097252545825462916 0 -0.0097252545825462916 -0.012031510705206836 0 0 0 -0.024624911993267946 -0.075775167790854053 -0.0096881693413357738 0 -0.0096881693413357738 -0.025212832785177629 0 0 0 -0.025247000144007922 -0.079890842107947668 -0.005355154227884967 0 -0.005355154227884967 -0.0012332726536818633 0 0 0 -0.020281028690407384 -0.070323946228990422 -0.0059147127344395967 0 -0.0059147127344395967 -0.015471063686870606 0 0 0 -0.021448752478965254 -0.061234312167556801 -0.0015340838174223469 0 -0.0015340838174223469 -0.020421601363949472 0 0 0 -0.020413978382876567 -0.061226509714008712 -0.0015264850651856541 0 -0.0015264850651856541 -0.02039618660922414 0 0 0 -0.020405674080808209 -0.065104261190661761 -0.00026424860262605878 0 -0.00026424860262605878 -0.0085308691895118124 0 0 0 -0.018408782595043392 -0.068581166837909865 -0.003323212314064634 0 -0.003323212314064634 -0.010958089272839555 0 0 0 -0.01988481402768736 -0.065372038887743344 -6.9324281820344787e-05 0 -6.9324281820344787e-05 -0.010236428882679159 0 0 0 -0.018902116942605629 -0.058369341944593554 0.0019941114181160728 0 0.0019941114181160728 -0.0067269145152472447 0 0 0 -0.016274064114960199 -0.068914720068951357 0.0017586240919413949 0 0.0017586240919413949 -0.0065494082430565329 0 0 0 -0.018866032078001974 -0.058273304853820276 0.0039348089797085267 0 0.0039348089797085267 -0.0026743739570682101 0 0 0 -0.015236919702722115 -0.073470160909006779 0.0024894918363500378 0 0.0024894918363500378 -0.0029901199351453703 0 0 0 -0.019115070211038053 -0.06745445320196522 0.0020785805205350491 0 0.0020785805205350491 -0.0014629165897856629 0 0 0 -0.01722934244793773 -0.077916179149055881 0.0014523068079546903 0 0.0014523068079546903 -0.0015450237073547368 0 0 0 -0.019865300714102647 -0.075120432474658508 0.00013545930495826512 0 0.00013545930495826512 -0.00059395827522745401 0 0 0 -0.018928597687471488 -0.072669135124178663 0.00094417044633159954 0 0.00094417044633159954 0.00026853421540299683 0 0 0 -0.018100150227193926 -0.074907762434107766 -0.00044606888485632275 0 -0.00044606888485632275 -0.0057206703538548315 0 0 0 -0.020157108196990646 -0.041378582858593881 0.0041455627529525573 0 0.0041455627529525573 -0.013789734931835117 0 0 0 -0.01379207944760725 -0.044142168546457333 0.005551249268753819 0 0.005551249268753819 -0.011325564007374615 0 0 0 -0.01386693313845799 -0.047048811670120511 0.0030770969563674328 0 0.0030770969563674328 -0.011384601386734555 0 0 0 -0.014608353264213763 -0.053116837738565556 0.0034998209559895547 0 0.0034998209559895547 -0.011405458433454753 0 0 0 -0.01613057404300508 -0.05368475112899531 0.002386943438740045 0 0.002386943438740045 -0.012428685249725444 0 0 0 -0.016528359094680183 -0.048120060512451365 0.0044600289829735745 0 0.0044600289829735745 -0.010107923413080084 0 0 0 -0.014556995981382864 -0.048070876439538286 0.0028483077961512396 0 0.0028483077961512396 -0.016027888304365558 0 0 0 -0.016024691185975961 -0.055771315181922444 0.0042119402347609849 0 0.0042119402347609849 -0.0063055202176920556 0 0 0 -0.015519208849903623 -0.057360072328489567 0.0027777586028738302 0 0.0027777586028738302 -0.0066651741454662426 0 0 0 -0.016006311618488946 -0.054119622911584918 0.0026823385647432403 0 0.0026823385647432403 -0.0099603391683938843 0 0 0 -0.016019990519994705 -0.045842559768561136 0.0034908821306617855 0 0.0034908821306617855 -0.0082853492944740641 0 0 0 -0.013531977265758804 -0.045678112607511916 0.0044740555350393256 0 0.0044740555350393256 -0.0073399734900895944 0 0 0 -0.013254521524400381 -0.041153176661923953 0.005960018715543987 0 0.005960018715543987 -0.0088442076752873675 0 0 0 -0.012499346084302828 -0.039078031532115108 0.0035556374615013085 0 0.0035556374615013085 -0.010421101479457896 0 0 0 -0.012374783252893247 -0.039801472055305473 0.0054583062920789344 0 0.0054583062920789344 -0.0063857680132531 0 0 0 -0.011546810017139642 -0.040746736983251111 0.0034840121736102866 0 0.0034840121736102866 -0.0058522128458447752 0 0 0 -0.011649737457273974 -0.047292469695358927 0.0059294513183707886 0 0.0059294513183707886 -0.0044723331912116422 0 0 0 -0.012941200721642641 -0.057405424098641432 0.0058978545527695334 0 0.0058978545527695334 -0.0037641619692109947 0 0 0 -0.015292396516963111 -0.053971087056614235 0.0049778793734828585 0 0.0049778793734828585 -0.0056479108161421954 0 0 0 -0.014904749468189113 -0.048788925922466746 0.0043050743404968806 0 0.0043050743404968806 -0.0041572282729048903 0 0 0 -0.013236538548842902 -0.056981286753864456 0.0049047687123141576 0 0.0049047687123141576 -0.0016722810226833043 0 0 0 -0.014663391944136947 -0.059307877522304452 0.0068650367131385046 0 0.0068650367131385046 -0.002247550376208704 0 0 0 -0.015388856974628275 -0.052828796932972689 0.0056283974883757915 0 0.0056283974883757915 -0.0011313899367999085 0 0 0 -0.013490046717443128 -0.049409783218286533 0.007592950740742406 0 0.007592950740742406 -0.00028390398525698912 0 0 0 -0.012423421800885882 -0.049551634153413349 0.0050324173060832048 0 0.0050324173060832048 -0.0015020300601786343 0 0 0 -0.012763416053397991 -0.042220695084266575 0.0042891318586140356 0 0.0042891318586140356 -0.0029661872894225696 0 0 0 -0.011296720593422295 -0.048877634625562806 0.0067415218848008119 0 0.0067415218848008119 -0.0024541385053541563 0 0 0 -0.012832943282729227 -0.046588466800071435 0.0039377270965838714 0 0.0039377270965838714 -0.00063548478230126756 0 0 0 -0.011805987895593169 -0.035978359713824834 0.0040212407007629743 0 0.0040212407007629743 -0.0019264675800501202 0 0 0 -0.0094762068234687351 -0.0412724429000592 0.0052499091487261743 0 0.0052499091487261743 -0.002205532599341478 0 0 0 -0.010869493874850167 -0.077292600873377512 0.0021482929194192226 0 0.0021482929194192226 -0.0012087508853930867 0 0 0 -0.019625337939692657 -0.071442652630575226 0.0053204071498127743 0 0.0053204071498127743 -0.00046994627507954134 0 0 0 -0.017978149726413685 -0.083184854468295363 0.0030545984572920779 0 0.0030545984572920779 -0.00048517906678016698 0 0 0 -0.020917508383768907 -0.073546678107753283 0.0030591763701838474 0 0.0030591763701838474 0.00017685718139765242 0 0 0 -0.018342455231588908 -0.065131645273117919 0.0040409136756201537 0 0.0040409136756201537 -0.00083209530494422757 0 0 0 -0.016490935144515557 -0.066082808203540011 0.0039897655958990551 0 0.0039897655958990551 -0.0042125354313127077 0 0 0 -0.017573835908713194 -0.066281361677195352 0.0059272742401170926 0 0.0059272742401170926 -0.0025783472529577554 0 0 0 -0.017214927232538282 -0.069350435386852344 0.0036044403197615198 0 0.0036044403197615198 -0.0012793780000965385 0 0 0 -0.017657453346737222 -0.060084122394841941 0.0054181481927720668 0 0.0054181481927720668 -0.0011191143878015591 0 0 0 -0.015300809195660878 -0.070189696783800132 0.0064588499149693104 0 0.0064588499149693104 -0.0015825638869174652 0 0 0 -0.01794306516767941 -0.062784763333867843 0.0053563005876910378 0 0.0053563005876910378 -0.00064992183428443095 0 0 0 -0.015858671292038086 -0.069371165755655884 0.0054375671648323673 0 0.0054375671648323673 0.00030776683532691973 0 0 0 -0.017265849730082234 -0.079383300821577379 0.0042961912550763086 0 0.0042961912550763086 -0.00068613737820380494 0 0 0 -0.020017359549945282 -0.078092163646497514 0.0041501753247717016 0 0.0041501753247717016 -0.0010698413960819053 0 0 0 -0.019790501260644855 -0.07704673206151666 0.0027998722785722782 0 0.0027998722785722782 0.00034106099118351441 0 0 0 -0.019176417767583304 -0.088790735380494618 0.003322164988188252 0 0.003322164988188252 -0.00050690291348820526 0 0 0 -0.022324409573495688 -0.092074701710628704 0.0029995067756340421 0 0.0029995067756340421 -0.0003826735615053839 0 0 0 -0.023114343818033525 -0.078533371496057575 0.0037832559300293722 0 0.0037832559300293722 0.0010182399327290786 0 0 0 -0.019378782890832138 -0.083703534727770645 0.0026501313074001331 0 0.0026501313074001331 0.00064181228021124165 0 0 0 -0.020765430611889815 -0.10023917690918688 0.0020840858528075991 0 0.0020840858528075991 0.00099620745627942986 0 0 0 -0.024810742363226848 -0.085420551200315512 0.0055569674944365433 0 0.0055569674944365433 0.0015766010000431152 0 0 0 -0.020960987550068089 -0.083501031226535918 0.00080319595541636368 0 0.00080319595541636368 -3.9078842644604816e-05 0 0 0 -0.020885027517295113 -0.087906728100017914 0.0022702920552011702 0 0.0022702920552011702 0.0019732602211740141 0 0 0 -0.021483366969711027 -0.10738608062763098 -0.00017232663368249213 0 -0.00017232663368249213 -0.00046092908617767492 0 0 0 -0.026961752428452154 -0.065648080925449853 0.001610974060947172 0 0.001610974060947172 0.0037766149655649173 0 0 0 -0.01546786648997122 -0.062106237304233806 0.0071182795738294544 0 0.0071182795738294544 0.0023479661810354435 0 0 0 -0.014939567780799598 -0.073562116046201581 0.0050779180308458093 0 0.0050779180308458093 0.00012395018261471269 0 0 0 -0.018359541465896717 -0.073041299181900513 0.0050791033470156816 0 0.0050791033470156816 0.001686894116052523 0 0 0 -0.017838601266462015 -0.062457817433887224 0.0078601243438904608 0 0.0078601243438904608 0.001412285637255456 0 0 0 -0.01526138294915793 -0.079622591374297433 0.0075718469039342089 0 0.0075718469039342089 0.0018374330234015857 0 0 0 -0.019446289587723972 -0.07236203679802003 0.0046902260181482733 0 0.0046902260181482733 -0.00028138806577056308 0 0 0 -0.018160856215947679 -0.070247634859843269 0.0074235167900021173 0 0.0074235167900021173 0.00045542029713520826 0 0 0 -0.017448053640676992 -0.061497313331944803 0.0070332613427439294 0 0.0070332613427439294 -0.00026825779683718048 0 0 0 -0.015441392782195482 -0.053329689337758522 0.0068747137007680245 0 0.0068747137007680245 0.00048228687577442364 0 0 0 -0.013211850615496002 -0.053305535944405916 0.0049024068278081048 0 0.0049024068278081048 0.00048313085067600708 0 0 0 -0.013205601273432467 -0.051480613773821376 0.0043770445369391564 0 0.0043770445369391564 0.0028689380299484687 0 0 0 -0.012152918935968232 -0.045748943822760665 0.0062768084312964517 0 0.0062768084312964517 0.00081595108871941602 0 0 0 -0.011233248183510309 -0.062062204036910679 0.00548580782651353 0 0.00548580782651353 0.0011380967799591996 0 0 0 -0.015231026814237863 -0.039658632570603654 0.0030893662435457973 0 0.0030893662435457973 0.0013026107903304877 0 0 0 -0.0095890054450682941 -0.041488319650571343 0.0061319685444352493 0 0.0061319685444352493 -0.00056818269202941162 0 0 0 -0.010514125585650194 -0.044114395223703071 0.0029341205016705325 0 0.0029341205016705325 0.0029786595240934716 0 0 0 -0.010283933924902403 -0.034511593921550857 2.1546591486704125e-06 0 2.1546591486704125e-06 0.0049818508714008017 0 0 0 -0.0073824357625375155 -0.036979682053785275 0.004621969976385175 0 0.004621969976385175 0.0025435616633216196 0 0 0 -0.008609030097615912 -0.042460986561025892 0.0026261241365975185 0 0.0026261241365975185 0.0067774924199324044 0 0 0 -0.008920873535273377 -0.032140917088882476 0.00094157586339337074 0 0.00094157586339337074 0.0069601219078698484 0 0 0 -0.0062951987952531707 -0.033289307256326818 -0.0010084307279440707 0 -0.0010084307279440707 0.011738525898709856 0 0 0 -0.0053876953394042387 -0.052480878213865309 0.0070892912309844583 0 0.0070892912309844583 0.0020572704661639962 0 0 0 -0.012605901936925346 -0.057080095893436184 0.0032639288913365316 0 0.0032639288913365316 0.0029123710862584556 0 0 0 -0.013541931201794432 -0.042498048393179888 0.0040775129948568793 0 0.0040775129948568793 0.0031305378276318269 0 0 0 -0.0098418776413869945 -0.046785398269751824 0.00155964812121831 0 0.00155964812121831 0.0058753400787497634 0 0 0 -0.010227514547750505 -0.051338940961873504 0.0060071558295543073 0 0.0060071558295543073 0.0057235193166762788 0 0 0 -0.011403855411299318 -0.056749445437521751 0.0054542432292780038 0 0.0054542432292780038 0.0074090609644623107 0 0 0 -0.012335096118264874 -0.049241831889169987 0.00088920008583193849 0 0.00088920008583193849 0.015686034311085728 0 0 0 -0.0083889493945210752 -0.054275112949195223 -0.0020254883592858708 0 -0.0020254883592858708 0.0081533486797417867 0 0 0 -0.011530441067363338 -0.020548412527837054 -0.0041296044547007339 0 -0.0041296044547007339 0.01401087945646165 0 0 0 -0.0016343832678438336 -0.044336129896602842 0.0029444338111802859 0 0.0029444338111802859 0.010725679203279159 0 0 0 -0.0084026126733309434 -0.034383623819488993 -0.0011668247088539307 0 -0.0011668247088539307 0.011688303332731492 0 0 0 -0.0056738301216893647 -0.033566285795918346 -0.0012400106382258469 0 -0.0012400106382258469 0.019258888098315302 0 0 0 -0.0035768494244007437 -0.022768135133922559 -0.0074166646805661207 0 -0.0074166646805661207 0.021051988111478119 0 0 0 -0.00042903675561111951 -0.035296171475127425 -0.0043103373789808996 0 -0.0043103373789808996 0.02972647026259316 0 0 0 -0.001392425303133573 -0.036534210111164978 -0.012186472414480523 0 -0.012186472414480523 0.029301416644306855 0 0 0 -0.0018081983667145307 -0.030992767725997156 -0.015386935518253278 0 -0.015386935518253278 0.024227713368419945 0 0 0 -0.0016912635893942818 -0.022713131050205365 -0.010992534062654283 0 -0.010992534062654283 0.04508228623265137 0 0 0 0.0055922887956115497 -0.052288371198533967 -0.0069166887426063417 0 -0.0069166887426063417 0.019056778860558121 0 0 0 -0.0083078980844940309 -0.040140224110321837 -0.0053492405543564617 0 -0.0053492405543564617 0.014264623514140762 0 0 0 -0.006468900149045248 -0.040807620596687445 -0.014162865594495533 0 -0.014162865594495533 0.017417897637563434 0 0 0 -0.0058474307397809802 -0.055700884035254694 -0.0037276442298181667 0 -0.0037276442298181667 0.0094048437190156209 0 0 0 -0.01157401007905981 -0.056660658425106841 -0.011268307697166205 0 -0.011268307697166205 0.011533908242293278 0 0 0 -0.011281687545703384 -0.067996013405306699 -0.0057761510070343629 0 -0.0057761510070343629 0.0079095411903928325 0 0 0 -0.015021618053728425 -0.074329524091593421 0.00025629249329073289 0 0.00025629249329073289 0.0033851531026965476 0 0 0 -0.017736092747224222 -0.078576024838033803 -0.0087911612550141405 0 -0.0087911612550141405 0.0062231366073353667 0 0 0 -0.018088222057674658 -0.086243312476092279 -0.00069202679074267803 0 -0.00069202679074267803 0.0010050101022433255 0 0 0 -0.02130957559346229 -0.10852360386474418 -0.001488006294458735 0 -0.001488006294458735 0.002378203496677167 0 0 0 -0.026536350092016797 -0.090174250297914982 0.00097453304848865718 0 0.00097453304848865718 0.0014755722848433517 0 0 0 -0.022174669503267908 -0.088040526820221759 -0.0028762614398041286 0 -0.0028762614398041286 0.0025015478402895114 0 0 0 -0.021384744744983118 -0.092155719586665019 -0.0010904405548870927 0 -0.0010904405548870927 -9.7206862585741405e-05 0 0 0 -0.023063231612312669 -0.083610794267948901 0.004188320235726864 0 0.004188320235726864 0.0017359967921766195 0 0 0 -0.020468699368943105 -0.11041544674956508 0.0018972771017317812 0 0.0018972771017317812 0.00052001716922422947 0 0 0 -0.027473857395085205 -0.091182418080254027 0.0048464412504967552 0 0.0048464412504967552 0.0013587468965989072 0 0 0 -0.02245591779591373 -0.0734285162096876 0.0059615953014794526 0 0.0059615953014794526 0.0037058865826148091 0 0 0 -0.017430657406768191 -0.064580267418686443 0.003056571324725546 0 0.003056571324725546 0.0067247363809127964 0 0 0 -0.01446388275944344 -0.074696674457819107 -0.0010206148522621111 0 -0.0010206148522621111 0.0040737335166994848 0 0 0 -0.017655735235279885 -0.035040134501448335 -0.0058574845967643199 0 -0.0058574845967643199 0.042345661045817162 0 0 0 0.0018263816360922017 -0.034687141385495737 -0.0069156924629496346 0 -0.0069156924629496346 0.034485621949618912 0 0 0 -5.0379858969204494e-05 -0.034361561582318803 -0.0092509355037827187 0 -0.0092509355037827187 0.030346204949071719 0 0 0 -0.0010038391583117451 -0.039810890449753604 -0.0025025129139718671 0 -0.0025025129139718671 0.035766506618601444 0 0 0 -0.0010110959577880416 -0.037433246294446908 0.0034466054919063821 0 0.0034466054919063821 0.03930930072868475 0 0 0 0.00046901360855946357 -0.033768599600391379 0.001278835463243283 0 0.001278835463243283 0.047577221568282535 0 0 0 0.0034521554919727973 -0.041639156948011541 -0.0047777062544730716 0 -0.0047777062544730716 0.04568953747149538 0 0 0 0.0010125951308709597 -0.041652695344610545 -0.0043505787944437095 0 -0.0043505787944437095 0.043854400852292211 0 0 0 0.00055042637692040777 -0.040182987945678282 -0.0051856394938482034 0 -0.0051856394938482034 0.043628154264372207 0 0 0 0.00086129157967346562 -0.040549336974037155 -0.0047005762804476839 0 -0.0047005762804476839 0.04129529485639178 0 0 0 0.00018648947058867021 -0.046208421586579507 -0.0053583856067798835 0 -0.0053583856067798835 0.039823985547040877 0 0 0 -0.0015961090098846643 -0.041770137137500885 -0.0075070507782893092 0 -0.0075070507782893092 0.043381531094008843 0 0 0 0.00040284848912698276 -0.04182161924475454 -0.0080583117278418687 0 -0.0080583117278418687 0.041922239008394438 0 0 0 2.5154940909957041e-05 -0.04065538206578613 -0.01217983923149165 0 -0.01217983923149165 0.044279371022246938 0 0 0 0.00090599723911520547 -0.043492336488864788 -0.0084641148124093186 0 -0.0084641148124093186 0.049506205054751534 0 0 0 0.0015034671414717038 -0.0092619828755612608 -0.040040693000149757 0 -0.040040693000149757 0.078476156260094479 0 0 0 0.017303543346133297 -0.047468269191948652 -0.02340147839398711 0 -0.02340147839398711 0.048413930895374879 0 0 0 0.00023641542585656899 -0.011220490516454622 -0.026834678557691588 0 -0.026834678557691588 0.043764193636763191 0 0 0 0.008135925780077137 -0.045685004201644688 -0.011783313981463223 0 -0.011783313981463223 0.044035552816971885 0 0 0 -0.00041236284616819746 -0.0038587453182407638 -0.012758584088217548 0 -0.012758584088217548 0.066006877762234961 0 0 0 0.015537033110998563 -0.0073393554128733524 -0.018006244332546148 0 -0.018006244332546148 0.035992544768029933 0 0 0 0.0071632973387891347 0.012445587064987884 -0.023366539687286747 0 -0.023366539687286747 0.046409654242472898 0 0 0 0.014713810326865195 -0.019835117560413451 -0.018574956606766647 0 -0.018574956606766647 0.035139885551296546 0 0 0 0.0038261919977207598 -0.022112062673827121 -0.0072732951236766999 0 -0.0072732951236766999 0.033349391063009104 0 0 0 0.0028093320972954888 -0.0062485590981327874 -0.012976747770378078 0 -0.012976747770378078 0.026696755328389055 0 0 0 0.0051120490575640651 -0.02421741738236045 -0.0080093760922541613 0 -0.0080093760922541613 0.021916816399122532 0 0 0 -0.00057515024580947691 -0.020670174276099726 -0.0079102635659907689 0 -0.0079102635659907689 0.01571497385673435 0 0 0 -0.0012388001048413422 -0.031358401796155996 -0.016086776062567691 0 -0.016086776062567691 0.039077985879554661 0 0 0 0.0019298960208496557 -0.033303333301879595 -0.017119889189837464 0 -0.017119889189837464 0.028384738371010992 0 0 0 -0.0012296487327171229 -0.019520146365704309 -0.015561177233805441 0 -0.015561177233805441 0.032155959042694221 0 0 0 0.0031589531692474901 -0.030703621836383456 -0.009225747200314792 0 -0.009225747200314792 0.016958746981084058 0 0 0 -0.0034362187138248443 -0.027235189881388927 -0.0094630988486422308 0 -0.0094630988486422308 0.030639035024441166 0 0 0 0.00085096128576306329 -0.025600262922945014 -0.0079426485052104256 0 -0.0079426485052104256 0.01888687386754774 0 0 0 -0.0016783472638493349 -0.026682661749722874 -0.001930576321140012 0 -0.001930576321140012 0.01632863778561898 0 0 0 -0.0025885059910259745 -0.025689260311191668 -0.0034675728570223475 0 -0.0034675728570223475 0.0088951664087115467 0 0 0 -0.0041985234756200286 -0.02737498760573543 -0.0059188475072277473 0 -0.0059188475072277473 0.015486933098916689 0 0 0 -0.0029720136267046837 -0.026114717823675429 -0.0055795655732618181 0 -0.0055795655732618181 0.011436690745788611 0 0 0 -0.0036695067694717115 -0.027684069273051396 -0.0015999702992002367 0 -0.0015999702992002367 0.012840888200522552 0 0 0 -0.0037107952681321998 -0.032187655122771261 0.0012574340329689418 0 0.0012574340329689418 0.0076434202401955767 0 0 0 -0.0061360587206439055 -0.02854857308857689 -0.0021903213397761849 0 -0.0021903213397761849 0.0063092623851829354 0 0 0 -0.0055598276758484907 -0.030170337994991959 0.0022413871714644148 0 0.0022413871714644148 0.005157907914478857 0 0 0 -0.0062531075201282781 -0.03200582869172975 0.0011660009311376389 0 0.0011660009311376389 0.0014668895178817608 0 0 0 -0.0076347347934619956 -0.034939232865268621 0.004384883635328643 0 0.004384883635328643 0.0017159780497831775 0 0 0 -0.0083058137038713627 -0.02825311820091693 -0.0014539362771012112 0 -0.0014539362771012112 0.010355934179863028 0 0 0 -0.0044742960052634763 -0.027117094173166739 -0.002910387031300702 0 -0.002910387031300702 0.0090105422976960656 0 0 0 -0.0045266379688676649 -0.028206228989602945 0.00043598080438366502 0 0.00043598080438366502 0.007910773908982734 0 0 0 -0.0050738637701550513 -0.028431921618547844 -0.00013347645805072408 0 -0.00013347645805072408 0.0053091330992453278 0 0 0 -0.0057806971298256333 -0.026593253519708392 -0.00088924055809351359 0 -0.00088924055809351359 0.011329543048231661 0 0 0 -0.0038159276178691822 -0.024724211310516622 0.0030175211998210872 0 0.0030175211998210872 0.0063070809971883775 0 0 0 -0.0046042825783320536 -0.022197965824462509 0.0041594332978223906 0 0.0041594332978223906 0.011951980218023926 0 0 0 -0.0025614964016096439 -0.023221743213147697 0.0045419786101607547 0 0.0045419786101607547 0.0086626505751922975 0 0 0 -0.0036397731594888533 -0.027092232310228337 0.00025696370099068371 0 0.00025696370099068371 0.013331435452873621 0 0 0 -0.0034401992143386941 -0.025530941785668563 -0.00058639522623518225 0 -0.00058639522623518225 0.019164257858331604 0 0 0 -0.001591670981834241 -0.030761895646407775 -0.0019056276360410007 0 -0.0019056276360410007 0.016726372667928164 0 0 0 -0.0035088807446198886 -0.027008520806091951 -0.0008052324913616956 0 -0.0008052324913616956 0.02770604371650643 0 0 0 0.00017438072760362668 -0.025458979479432469 0.0026254627219906967 0 0.0026254627219906967 0.02074587718784927 0 0 0 -0.001178275572895798 -0.034598895895568312 -0.0020258485878792924 0 -0.0020258485878792924 0.024775546140579703 0 0 0 -0.0024558374387471447 -0.030207147401662644 -0.0044683246670891574 0 -0.0044683246670891574 0.034776445157168961 0 0 0 0.0011423244388765689 -0.03238059385915909 -0.006300144569741796 0 -0.006300144569741796 0.02268650898877167 0 0 0 -0.0024235212175968499 -0.026640838043200284 0.0068382194538741661 0 0.0068382194538741661 0.044247023447319483 0 0 0 0.0044015463510297965 -0.033662910557256773 0.0031043107286011229 0 0.0031043107286011229 0.028858360040240859 0 0 0 -0.0012011376292539837 -0.02932473384298773 0.00067705410306946167 0 0.00067705410306946167 0.038517171740479743 0 0 0 0.0022981094743730049 -0.026093708529165521 0.0037943431360649565 0 0.0037943431360649565 0.020907706270669228 0 0 0 -0.0012965005646240714 -0.025153402088366278 0.0078937480742821663 0 0.0078937480742821663 0.027537403891265348 0 0 0 0.00059600045072476411 -0.023514875770045535 0.006667190709146037 0 0.006667190709146037 0.030192369339184996 0 0 0 0.0016693733922848652 -0.021293779230082389 0.0076566411625917435 0 0.0076566411625917435 0.0133310782915462 0 0 0 -0.001990675234634043 -0.019924319264090017 0.0071877203287591257 0 0.0071877203287591257 0.017199271309720869 0 0 0 -0.00068126198859229034 -0.015230521282486292 0.0097460755632853904 0 0.0097460755632853904 0.010903915425252486 0 0 0 -0.001081651464308454 -0.014838281904805562 0.008201939287203093 0 0.008201939287203093 0.0044481566590612066 0 0 0 -0.0025975313114360871 -0.018312737484205671 0.005699440240374911 0 0.005699440240374911 -0.0015226595655969677 0 0 0 -0.0049588492624506562 -0.019135161850926619 0.007051474310805707 0 0.007051474310805707 0.006577111960765436 0 0 0 -0.0031395124725402948 -0.018958500579764039 0.0065571326552312939 0 0.0065571326552312939 0.0052594016667204257 0 0 0 -0.0034247747282609015 -0.024614076354872838 0.0024113418137239502 0 0.0024113418137239502 0.0052208953419612195 0 0 0 -0.0048482952532279064 -0.022387883936864909 0.0042395202761756927 0 0.0042395202761756927 0.00018674978605522433 0 0 0 -0.0055502835377024204 -0.020813231242678649 0.0052688810776784657 0 0.0052688810776784657 0.0018427032244911403 0 0 0 -0.0047426320045468803 -0.019805239955770167 0.0056680537432020296 0 0.0056680537432020296 0.0045106212280609549 0 0 0 -0.0038236546819273038 -0.01869032735822182 0.004937359753279926 0 0.004937359753279926 -0.0041171858561362008 0 0 0 -0.0057018783035895073 -0.018569495601103547 0.005566726933465431 0 0.005566726933465431 -0.0037094352359648732 0 0 0 -0.0055697327092671034 -0.022025942400472519 0.0045441958120514773 0 0.0045441958120514773 -0.0052788542639309807 0 0 0 -0.0068261991661008777 -0.014882675682126076 0.0058416509607781188 0 0.0058416509607781188 -0.0056853294132107532 0 0 0 -0.0051420012738342055 -0.015715742924448231 0.0047682561498407321 0 0.0047682561498407321 -0.0078093672201776125 0 0 0 -0.0058812775361564602 -0.012252313310514273 0.0064200574608875988 0 0.0064200574608875988 -0.0046896720126846057 0 0 0 -0.0042354963307997175 -0.015650946947670427 0.0055653281521540875 0 0.0055653281521540875 -0.0053226099610740804 0 0 0 -0.0052433892271861269 -0.016181136296342137 0.0063602445652515089 0 0.0063602445652515089 -0.00096161867670530379 0 0 0 -0.0042856887432618628 -0.035065487960790384 0.0037844515647434697 0 0.0037844515647434697 0.0018286590884372806 0 0 0 -0.0083092072180882808 -0.030381101117455837 0.0033104800461026688 0 0.0033104800461026688 -0.0018628754957007226 0 0 0 -0.0080609941532891419 -0.03460988730507672 0.0042165447657067177 0 0.0042165447657067177 -0.0021818265979179413 0 0 0 -0.0091979284757486637 -0.027670912112322442 0.0031710617787748079 0 0.0031710617787748079 -0.0035873561263176507 0 0 0 -0.0078145670596600214 -0.029226374726895037 0.0035275823711125912 0 0.0035275823711125912 0.0020024526203395419 0 0 0 -0.0068059805266388745 -0.027313591859769917 0.0034493530447298219 0 0.0034493530447298219 0.0019791192827291063 0 0 0 -0.006333618144260195 -0.026437147986293763 0.0018668644260173336 0 0.0018668644260173336 0.0009576141439804238 0 0 0 -0.0063698834605783305 -0.024873204671526948 0.0046430137755107655 0 0.0046430137755107655 0.0026817283783443372 0 0 0 -0.0055478690732956529 -0.023841581044890411 0.0034868496035905159 0 0.0034868496035905159 -0.0031037439886429461 0 0 0 -0.0067363312583833389 -0.025797961836675598 0.0032159149094294261 0 0.0032159149094294261 -0.0036273487203698062 0 0 0 -0.007356327639261348 -0.022084825543052307 0.0052744140823655691 0 0.0052744140823655691 -0.0054993787246516608 0 0 0 -0.0068960510669259902 -0.02748545531736744 0.0048320445557669687 0 0.0048320445557669687 -0.002024144943951668 0 0 0 -0.0073774000653297799 -0.02874836525083577 0.0041191088171537611 0 0.0041191088171537611 -0.004600093346775835 0 0 0 -0.0083371146494028957 -0.033604143950663662 0.0037569543558542322 0 0.0037569543558542322 -0.0056190151361191487 0 0 0 -0.0098057897716956922 -0.03436524504374884 0.0053106038502365883 0 0.0053106038502365883 -0.0054053580528562878 0 0 0 -0.0099426507741512855 -0.034926373768641432 0.0043855293665359439 0 0.0043855293665359439 -0.0039073256164124433 0 0 0 -0.0097084248462634623 -0.039155759782339733 0.0052320553701042105 0 0.0052320553701042105 -0.0045382945235870765 0 0 0 -0.0109235135764817 -0.034671874325028287 0.0058432489051575224 0 0.0058432489051575224 -0.0083676380274843934 0 0 0 -0.010759878088128172 -0.039775668912757751 0.0045835367264083163 0 0.0045835367264083163 -0.0061138892938273869 0 0 0 -0.011472389551646277 -0.035396560243302393 0.0037648968112315604 0 0.0037648968112315604 -0.0087443806990348816 0 0 0 -0.011035235235584324 -0.030030703083823548 0.0056426066683891787 0 0.0056426066683891787 -0.0061342701535837298 0 0 0 -0.009041243309351828 -0.030659930389981025 0.0041529137621706732 0 0.0041529137621706732 -0.010040521423313232 0 0 0 -0.010175112953323562 -0.028134423028263977 0.0058974994127381219 0 0.0058974994127381219 -0.0077738484798178641 0 0 0 -0.0089770678770204615 -0.026900807082293938 0.0038844203754704147 0 0.0038844203754704147 -0.0081343988942779617 0 0 0 -0.0087588014941429714 -0.025749173041947938 0.0047468556889050193 0 0.0047468556889050193 -0.0064490274408427022 0 0 0 -0.0080495501206976627 -0.021386672057697863 0.0054289453320762902 0 0.0054289453320762902 -0.0082923758600860608 0 0 0 -0.0074197619794459813 -0.025220167438759551 0.0042907557749402563 0 0.0042907557749402563 -0.0084269142698903867 0 0 0 -0.0084117704271624832 -0.025725505385633327 0.0065083329438424221 0 0.0065083329438424221 -0.0090160318768177997 0 0 0 -0.0086853843156127816 -0.027930100795219244 0.0050194239364091779 0 0.0050194239364091779 -0.0093097816777959995 0 0 0 -0.00930997061825381 -0.031153997281189571 0.0068883670086388286 0 0.0068883670086388286 -0.0097324295193877402 0 0 0 -0.010221606700144329 -0.034402331373581195 0.0047574649504523283 0 0.0047574649504523283 -0.011467687882041932 0 0 0 -0.011467504813905779 -0.037254234876294284 0.0067196827073472635 0 0.0067196827073472635 -0.010826271929745491 0 0 0 -0.012020126701509946 -0.01554919404004884 0.0042497872474418358 0 0.0042497872474418358 -0.0083436104964119372 0 0 0 -0.0059732011341151938 -0.014016373415378553 0.0051186674764767091 0 0.0051186674764767091 -0.0074657838375963154 0 0 0 -0.0053705393132437163 -0.017966058617569676 0.0049512420376194256 0 0.0049512420376194256 -0.0071594728177521074 0 0 0 -0.0062813828588304428 -0.017966965112949446 0.0050737227795434811 0 0.0050737227795434811 -0.0073153085791274955 0 0 0 -0.0063205684230192355 -0.021115503697647517 0.0045317449379645479 0 0.0045317449379645479 -0.0078143355982172574 0 0 0 -0.007232459823966194 -0.018274406627254849 0.0047995601491774521 0 0.0047995601491774521 -0.0082720403078806876 0 0 0 -0.0066366117337838841 -0.022257550964759603 0.0048211529778785858 0 0.0048211529778785858 -0.0074208287200297042 0 0 0 -0.0074195949211973266 -0.02158090889882135 0.0058353676316382445 0 0.0058353676316382445 -0.0079031748464106315 0 0 0 -0.0073710209363079962 -0.018846797211302765 0.0045435658156277627 0 0.0045435658156277627 -0.0062828846963898562 0 0 0 -0.0062824204769231558 -0.018072865489142515 0.0048455008813512515 0 0.0048455008813512515 -0.0076700468236840999 0 0 0 -0.0064357280782066529 -0.014891084386334477 0.0036234287274985824 0 0.0036234287274985824 -0.0076121883276395394 0 0 0 -0.0056258181784935041 -0.016609078172769975 0.0044395769518975961 0 0.0044395769518975961 -0.0085781105237359677 0 0 0 -0.0062967971741264865 -0.017712964009235416 0.0039269311265100314 0 0.0039269311265100314 -0.0076822093913657737 0 0 0 -0.0063487933501502969 -0.016666702082655041 0.0039087435292372167 0 0.0039087435292372167 -0.0055561160822053613 0 0 0 -0.0055557045412151012 -0.015606837460908608 0.0027767211335637692 0 0.0027767211335637692 -0.0087011135985013855 0 0 0 -0.0060769877648524989 -0.014221068477156613 0.0017132319032018245 0 0.0017132319032018245 -0.0047446104250527428 0 0 0 -0.004741419725552338 -0.016271615236553499 0.00081033920917281555 0 0.00081033920917281555 -0.010022132309448645 0 0 0 -0.0065734368865005364 -0.013197822330251508 0.001392129499876528 0 0.001392129499876528 -0.008773192173241004 0 0 0 -0.0054927536258731289 -0.013071201506428664 0.0027237253573035762 0 0.0027237253573035762 -0.0086039495130431735 0 0 0 -0.0054187877548679611 -0.012924128377415465 0.0034839034831911069 0 0.0034839034831911069 -0.0093762525702679334 0 0 0 -0.0055750952369208514 -0.013887434123790201 0.0021077588312178458 0 0.0021077588312178458 -0.010852476127185689 0 0 0 -0.0061849775627439724 -0.01133325173610183 0.0030186191153309906 0 0.0030186191153309906 -0.0095691717886535327 0 0 0 -0.0052256058811888384 -0.012885379983951678 0.0034330153628254175 0 0.0034330153628254175 -0.00996041909425225 0 0 0 -0.0057114497695509806 -0.012585535892203565 0.0015036955461885065 0 0.0015036955461885065 -0.012712076062610508 0 0 0 -0.0063244029887035182 -0.01534472093277987 -0.0014203407224868169 0 -0.0014203407224868169 -0.014146652942495772 0 0 0 -0.0073728434688189104 -0.013726372138319251 0.00065072534578853778 0 0.00065072534578853778 -0.010902876946890665 0 0 0 -0.0061573122713024786 -0.014360406015781058 0.00033332052452512371 0 0.00033332052452512371 -0.011471376180768118 0 0 0 -0.0064579455491372935 -0.015222474583303685 -5.3585291442814485e-05 0 -5.3585291442814485e-05 -0.0050728921348817879 0 0 0 -0.0050738416795463688 -0.016606613575135543 -0.0015805890294767564 0 -0.0015805890294767564 -0.0055415300370245642 0 0 0 -0.0055370359030400282 -0.017740749976089348 -0.0016399591234090112 0 -0.0016399591234090112 -0.0098794251125743013 0 0 0 -0.0069050437721659133 -0.022487903588469908 -0.0040417005361390347 0 -0.0040417005361390347 -0.0074976282036324018 0 0 0 -0.0074963829480255775 -0.017558630664100877 -0.0014767510589220045 0 -0.0014767510589220045 -0.010844569183858106 0 0 0 -0.0071007999619897479 -0.022287678630890095 -0.0047354524487822685 0 -0.0047354524487822685 -0.012918612118104199 0 0 0 -0.0088015726872485746 -0.032781675782878904 -0.0061137594739462319 0 -0.0061137594739462319 -0.010930635315332341 0 0 0 -0.01092807777455281 -0.030029591087876117 -0.0082720572372909223 0 -0.0082720572372909223 -0.014981696713227672 0 0 0 -0.011252821950275948 -0.039765735742315476 -0.010532466776703227 0 -0.010532466776703227 -0.01626618302137155 0 0 0 -0.014007979690921759 -0.031923941570561325 -0.0079330233961263305 0 -0.0079330233961263305 -0.016627316129961541 0 0 0 -0.012137814425130716 -0.029926622538915898 -0.0047515242503051976 0 -0.0047515242503051976 -0.014504454661886743 0 0 0 -0.011107769300200656 -0.024349419484746136 -0.0036991522213595694 0 -0.0036991522213595694 -0.013808022808407254 0 0 0 -0.0095393605732883493 -0.037456611242538046 -0.0068353423117814213 0 -0.0068353423117814213 -0.013050791515862787 0 0 0 -0.012626850689600209 -0.0234247830048828 -0.0046435524809401241 0 -0.0046435524809401241 -0.01454696065528641 0 0 0 -0.009492935915042305 -0.016923240431829183 -0.0019694363816490281 0 -0.0019694363816490281 -0.015565453455710334 0 0 0 -0.0081221734718848783 -0.015397228134443447 0.00026592525357665086 0 0.00026592525357665086 -0.012151420792971192 0 0 0 -0.00688716223185366 -0.015318657966815622 -0.00015813677873819003 0 -0.00015813677873819003 -0.013032792818176396 0 0 0 -0.007087862696248004 -0.015296697107643547 -0.00017074662986376081 0 -0.00017074662986376081 -0.012992685964926171 0 0 0 -0.0070723457681424254 -0.0084949738304666306 0.0025238169142049881 0 0.0025238169142049881 -0.011778327413842757 0 0 0 -0.0050683253110773464 -0.021591064768870977 -0.0049434824838303984 0 -0.0049434824838303984 -0.015265643474948963 0 0 0 -0.0092141770609549881 -0.028815985721535865 -0.0079146273839566898 0 -0.0079146273839566898 -0.013949747713690074 0 0 0 -0.010691433358806486 -0.022547770245778091 -0.0040143427959426934 0 -0.0040143427959426934 -0.01537509087368504 0 0 0 -0.0094807152798657857 -0.020912084125631274 -0.0016812513678789718 0 -0.0016812513678789718 -0.012816496065776362 0 0 0 -0.0084321450478519033 -0.033951252495854858 -0.0075954161086663544 0 -0.0075954161086663544 -0.015221228355271075 0 0 0 -0.012293120212781478 -0.022256772260542613 -0.008426886878880064 0 -0.008426886878880064 -0.014386106560996065 0 0 0 -0.0091607197053846737 -0.017463977215909005 -0.0056262864040754774 0 -0.0056262864040754774 -0.011669103202272322 0 0 0 -0.0072832701045453252 -0.019475214672328236 -0.0041618677724105796 0 -0.0041618677724105796 -0.012438871739084541 0 0 0 -0.0079785216028531863 -0.0062009015195323633 0.00023745115050548445 0 0.00023745115050548445 -0.0082945600220374963 0 0 0 -0.0036238653853924632 -0.017730184007806724 -0.0085121174123562373 0 -0.0085121174123562373 -0.0082120646492003443 0 0 0 -0.0064855621642517713 -0.018904056925344241 -0.0078233873160528759 0 -0.0078233873160528759 -0.0093790552927534993 0 0 0 -0.0070707780545244299 -0.011782419350219241 0.0029980262462887966 0 0.0029980262462887966 -0.0093170544083455327 0 0 0 -0.00527486843964119 -0.010759076274583597 -0.0022440236797202574 0 -0.0022440236797202574 -0.011887318672669761 0 0 0 -0.0056615987368133398 -0.0059959569260451817 0.0037654377686194493 0 0.0037654377686194493 -0.0097511590424147788 0 0 0 -0.0039367789921149927 0.00011293794461113629 0.0079291778290903198 0 0.0079291778290903198 -0.0028362609789328377 0 0 0 -0.00068083075858042796 -0.0064994553173073752 0.0086109504817330259 0 0.0086109504817330259 -0.0023366428454372028 0 0 0 -0.0022090245406861447 -0.0051317979364720202 0.0079599533337360584 0 0.0079599533337360584 -0.0013279397971178303 0 0 0 -0.0016149344333974674 -0.0081657943429236518 0.0060037270170561936 0 0.0060037270170561936 -0.0077330739702102663 0 0 0 -0.0039747170782834787 -0.0079115082826803473 0.0092045307674542692 0 0.0092045307674542692 -0.0023824212506822692 0 0 0 -0.002573482383340658 -0.0071292560583124422 0.011593883849795249 0 0.011593883849795249 0.0051085240585791863 0 0 0 -0.00050518299993331656 -0.01048932746031879 0.0083247243778944643 0 0.0083247243778944643 -0.0014485265487541935 0 0 0 -0.0029844635022682441 -0.010310998954094 0.01054622660589815 0 0.01054622660589815 0.0061549484649985123 0 0 0 -0.0010390126222738702 -0.012819014709625737 0.0073927832325018233 0 0.0073927832325018233 -0.00070345530777944643 0 0 0 -0.0033806175043512932 -0.015192100262496804 0.0074654698655834996 0 0.0074654698655834996 -0.0014962683515969081 0 0 0 -0.0041720921535234228 -0.011166602198563634 0.0059913698493166585 0 0.0059913698493166585 -0.0063638292473449272 0 0 0 -0.0043826078614771398 -0.010097145475421173 0.0068412251762789205 0 0.0068412251762789205 -0.0052673228025317403 0 0 0 -0.0038411170694882309 -0.013412299257144728 0.0047008072372119354 0 0.0047008072372119354 -0.0082185090621898424 0 0 0 -0.0054077020798336452 -0.010109629916241572 0.0048192857418776847 0 0.0048192857418776847 -0.0086877257659127745 0 0 0 -0.0046993389205385854 -0.012230551576046177 0.0034413886962223008 0 0.0034413886962223008 -0.0099946038036417897 0 0 0 -0.0055562888449219921 -0.010908335106410302 0.0032408682361908061 0 0.0032408682361908061 -0.010763026589198848 0 0 0 -0.0054178404239022884 -0.011729267767844357 0.00057109397300076986 0 0.00057109397300076986 -0.012811746406541417 0 0 0 -0.006135253543596445 -0.010743849082525 0.0053282304087448815 0 0.0053282304087448815 -0.0076814604249108454 0 0 0 -0.0046063273768589619 -0.008257018116718081 0.0053324355616316405 0 0.0053324355616316405 -0.0094483158019742948 0 0 0 -0.0044263334796730966 -0.11843443698172393 -0.0036749861903893886 0 -0.0036749861903893886 -0.0031474862704180262 0 0 0 -0.030395480813035482 -0.10654309700560759 -0.0043385452747648177 0 -0.0043385452747648177 -0.0080402673977692934 0 0 0 -0.028645841100844213 -0.10900524297530263 -0.0023536140150166932 0 -0.0023536140150166932 -0.00096141422741571284 0 0 0 -0.027491664300679602 -0.10332050484594628 -0.0044092328426080969 0 -0.0044092328426080969 0.0017246518152800316 0 0 0 -0.025398963257666558 -0.11055616779064843 0.0043161099621068519 0 0.0043161099621068519 -0.00033869479745303813 0 0 0 -0.027723715647025367 -0.11870223163651672 0.010336142454124586 0 0.010336142454124586 -0.016084503507855605 0 0 0 -0.033696683786093071 -0.1046009318469957 0.0099857479401985697 0 0.0099857479401985697 -0.034802708669874546 0 0 0 -0.034850910129217566 -0.097967227344448571 0.0047962290585095045 0 0.0047962290585095045 -0.020500681511700085 0 0 0 -0.029616977214037166 -0.095614265919112928 -5.6861496801435124e-05 0 -5.6861496801435124e-05 -0.014790522253488944 0 0 0 -0.02760119704315047 -0.088829249617194642 -0.0037903453361203322 0 -0.0037903453361203322 -0.011042480619603131 0 0 0 -0.024967932559199445 -0.082822235350560672 -0.0019785640447257304 0 -0.0019785640447257304 -0.027622419008391332 0 0 0 -0.027611163589737999 -0.082810105598855266 -0.0019886978031514275 0 -0.0019886978031514275 -0.027583338615200119 0 0 0 -0.027598361053513851 -0.088897199582726932 -0.004919590459479449 0 -0.004919590459479449 -0.01501607130022169 0 0 0 -0.025978317720737151 -0.075361859699482045 -0.0076070741606378573 0 -0.0076070741606378573 -0.0094081522658380837 0 0 0 -0.021192502991330034 -0.092774114602013277 -0.0077137696620841693 0 -0.0077137696620841693 -0.0017338100915272048 0 0 0 -0.023626981173385134 -0.10826429431762864 -0.0087030018050254093 0 -0.0087030018050254093 -0.0054816251902476375 0 0 0 -0.028436479876969064 -0.07447721880702543 -0.011771498306123281 0 -0.011771498306123281 -0.0050275654145354202 0 0 0 -0.019876196055390219 -0.095995647542257118 -0.0084690672958945522 0 -0.0084690672958945522 -0.011037137061046129 0 0 0 -0.026758196150825805 -0.072197516634728745 -0.0089291847801216528 0 -0.0089291847801216528 -0.011109666355441042 0 0 0 -0.020826795747542447 -0.067298614266336626 -0.0082582894568144962 0 -0.0082582894568144962 -0.016106955998663311 0 0 0 -0.020851392566249977 -0.071097417640164362 -0.011598459237636033 0 -0.011598459237636033 -0.011103826655572392 0 0 0 -0.020550311073934187 -0.06782539161210778 -0.0093037715053070694 0 -0.0093037715053070694 -0.015243594245551575 0 0 0 -0.020767246464414836 -0.068725454011821605 -0.007977576467480034 0 -0.007977576467480034 -0.017143940792665773 0 0 0 -0.021467348701121838 -0.057421058696311096 -0.0068621576644347163 0 -0.0068621576644347163 -0.019148890081373212 0 0 0 -0.019142487194421076 -0.056960420536896143 -0.010070901804800785 0 -0.010070901804800785 -0.015251593402672774 0 0 0 -0.018053003484892229 -0.053797876482040381 -0.0068226718124492249 0 -0.0068226718124492249 -0.015298361118072201 0 0 0 -0.017274059400028144 -0.051938096401918848 -0.011208723893120135 0 -0.011208723893120135 -0.0162412600501502 0 0 0 -0.017044839113017265 -0.044626505887528575 -0.0072743371602718744 0 -0.0072743371602718744 -0.014872438896419185 0 0 0 -0.01487473619598694 -0.038427930779378748 -0.0056706154205005636 0 -0.0056706154205005636 -0.014314043095403402 0 0 0 -0.013185493468695537 -0.044069892766375712 -0.011256308894104323 0 -0.011256308894104323 -0.015185155732778812 0 0 0 -0.014813762124788628 -0.049670871785432169 -0.010824951028465776 0 -0.010824951028465776 -0.013310002659966716 0 0 0 -0.015745218611349719 -0.049749190783698313 -0.0076317807031986706 0 -0.0076317807031986706 -0.015148123582395317 0 0 0 -0.016224328591523403 -0.038723245003464399 -0.011148298078965144 0 -0.011148298078965144 -0.016330777714742242 0 0 0 -0.013763505679551659 -0.033240172605516774 -0.0085298896561401237 0 -0.0085298896561401237 -0.013705799100229229 0 0 0 -0.011736492926436496 -0.049819824276295575 -0.014284496330785205 0 -0.014284496330785205 -0.014465727333307993 0 0 0 -0.016071387902400903 -0.03450356775091766 -0.012343350117148115 0 -0.012343350117148115 -0.013672307501286916 0 0 0 -0.012043968813051153 -0.049023362470625685 -0.013759254737681487 0 -0.013759254737681487 -0.0070385714259923442 0 0 0 -0.014015483474154499 -0.055329539484181019 -0.01766797489399486 0 -0.01766797489399486 -0.01075130374089929 0 0 0 -0.016520210806270079 -0.035945236753633474 -0.010733856063547464 0 -0.010733856063547464 -0.0091381582734193726 0 0 0 -0.01127084875676322 -0.054170007660124406 -0.015968583293430455 0 -0.015968583293430455 -0.0067657818685810528 0 0 0 -0.015233947382176365 -0.050799996936376726 -0.020580981286614643 0 -0.020580981286614643 -0.0047759278485968309 0 0 0 -0.013893981196243386 -0.075780449936022815 -0.01685284185886159 0 -0.01685284185886159 -0.011047714765819266 0 0 0 -0.021707041175460511 -0.074104744370563594 -0.016592286278808994 0 -0.016592286278808994 -0.0097317313869138 0 0 0 -0.020959118939369373 -0.074872445220671976 -0.013317595491825165 0 -0.013317595491825165 -0.0051124559878033618 0 0 0 -0.019996225302118829 -0.05305583400107039 -0.012203312285333051 0 -0.012203312285333051 -0.0088524327145290006 0 0 0 -0.015477066678899859 -0.066157769210258344 -0.012916580437589038 0 -0.012916580437589038 -0.012867359635918773 0 0 0 -0.019756282211544275 -0.090478603898469442 -0.012561713504410009 0 -0.012561713504410009 -0.0086541545210428068 0 0 0 -0.024783189604878075 -0.087920638893624961 -0.012177269360337464 0 -0.012177269360337464 -0.00072924597429523813 0 0 0 -0.022162471216980031 -0.10144680258164322 -0.011611283379318927 0 -0.011611283379318927 -0.002745862823607545 0 0 0 -0.026048166351312692 -0.090247006641081748 -0.018326667541852262 0 -0.018326667541852262 -0.002893249273366514 0 0 0 -0.023285063978612068 -0.098384423732190571 -0.014595927570545397 0 -0.014595927570545397 -0.005916940896818379 0 0 0 -0.026075341157252244 -0.077524759033402238 -0.022395951864919595 0 -0.022395951864919595 -0.0030529936791692247 0 0 0 -0.020144438178142873 -0.098438089475870308 -0.018015579626781741 0 -0.018015579626781741 0.0012308868984344523 0 0 0 -0.02430180064435894 -0.12377010810653719 -0.012431220732783747 0 -0.012431220732783747 -0.0049109464600596425 0 0 0 -0.032170263641649197 -0.12920929825922808 -0.015266472442138159 0 -0.015266472442138159 -0.003013948160024274 0 0 0 -0.033055811604813086 -0.14526133286647377 -0.0084259890312618144 0 -0.0084259890312618144 -0.0010166250659953135 0 0 0 -0.036569489483117293 -0.11992971555451649 -0.0066235206668545238 0 -0.0066235206668545238 8.2897924109003041e-05 0 0 0 -0.029961704407601861 -0.13041519422034761 -0.007206206489792308 0 -0.007206206489792308 -0.0011299434911234973 0 0 0 -0.032886284427867785 -0.10352743466211675 -0.013782750883529085 0 -0.013782750883529085 -0.0012480816171286362 0 0 0 -0.026193879069811347 -0.11928675584261436 -0.0055363323057543781 0 -0.0055363323057543781 -0.0034222728930798753 0 0 0 -0.030677257183923532 -0.10630076881467748 -0.0080589579167229461 0 -0.0080589579167229461 0.00127850130486689 0 0 0 -0.026255566877452625 -0.15264130315343566 -0.007831682765175263 0 -0.007831682765175263 0.0043972598018141573 0 0 0 -0.037061010837905431 -0.19966781167092607 -0.0013530332908700815 0 -0.0013530332908700815 -0.00049017954105678996 0 0 0 -0.050039497802995714 -0.14566359066818654 -0.017570239895541573 0 -0.017570239895541573 0.0043079063286034155 0 0 0 -0.035338921084895773 -0.14485049095657032 -0.004656516172685185 0 -0.004656516172685185 0.0013221714414321517 0 0 0 -0.035882079878784556 -0.17850733987178824 -0.0066656709798253973 0 -0.0066656709798253973 0.0014428788596425601 0 0 0 -0.044266115253036392 -0.15967358308298171 -0.0081441815439468775 0 -0.0081441815439468775 -0.00052464939154572843 0 0 0 -0.040049558118631867 -0.12558546953894331 -0.0085410933083950313 0 -0.0085410933083950313 0.0011845340807328242 0 0 0 -0.031100233864552611 -0.13697122892736047 -0.0073630297450831966 0 -0.0073630297450831966 0.00099463158317317224 0 0 0 -0.033994149336046803 -0.13364241160494297 -0.018825243478328507 0 -0.018825243478328507 0.0017933467696227001 0 0 0 -0.032962266208830034 -0.10032171917665056 -0.018666969969342247 0 -0.018666969969342247 0.0013043899185531532 0 0 0 -0.024754332314524369 -0.10110361817125937 -0.018791229042755549 0 -0.018791229042755549 -0.0010141234012752964 0 0 0 -0.025529435393133657 -0.084717076151831064 -0.017669216051710804 0 -0.017669216051710804 -0.0066906700144751807 0 0 0 -0.022851936541576554 -0.099922027357574758 -0.025906180611983208 0 -0.025906180611983208 0.005939066926934522 0 0 0 -0.023495740107660035 -0.11549776704624327 -0.01278229623275811 0 -0.01278229623275811 0.0013271800126229555 0 0 0 -0.028542646758405107 -0.10460171590007414 -0.0094518804520659083 0 -0.0094518804520659083 0.0056509699230683011 0 0 0 -0.024737686494251378 -0.061844435011745365 -0.020058589808762045 0 -0.020058589808762045 0.0073764442261816388 0 0 0 -0.01361699769639093 -0.057408153808286178 -0.016870331350650802 0 -0.016870331350650802 0.019392200253872616 0 0 0 -0.0095039883886033627 -0.038813186328449975 -0.023436997730945486 0 -0.023436997730945486 0.0038162281062305292 0 0 0 -0.008749239555554858 -0.090692335897645165 -0.017639242966540354 0 -0.017639242966540354 0.0070288349484211587 0 0 0 -0.020915875237305981 -0.066364635059596791 -0.023350184555222375 0 -0.023350184555222375 0.0026214615733180374 0 0 0 -0.01593579337156973 -0.088701091451217032 -0.02502195789393058 0 -0.02502195789393058 -0.0012630956367313956 0 0 0 -0.022491046771987051 -0.068499118525687297 -0.02587663373114963 0 -0.02587663373114963 -0.0046945845367156736 0 0 0 -0.018298425765600753 -0.064289305882054754 -0.018319869109837374 0 -0.018319869109837374 -0.0028756920169564701 0 0 0 -0.016791249474752804 -0.044452411410877815 -0.023028007245598989 0 -0.023028007245598989 -0.0015147584350853616 0 0 0 -0.011491792461490805 -0.066005519836572324 -0.018880271028239484 0 -0.018880271028239484 0.0010018433327059484 0 0 0 -0.016250919125966594 -0.04372266465141246 -0.015562935674771489 0 -0.015562935674771489 -0.0031169089532190608 0 0 0 -0.011709893401157887 -0.022060190739657679 -0.019749738164847826 0 -0.019749738164847826 -0.0017902607954722524 0 0 0 -0.0059626128837824872 -0.031372475200535307 -0.018421917965256461 0 -0.018421917965256461 -0.0058899895068665609 0 0 0 -0.0093156161768504601 -0.01232165819116187 -0.013736748986911178 0 -0.013736748986911178 -0.0048377599721378672 0 0 0 -0.0042898545408249361 -0.031331190694373526 -0.011038858041656668 0 -0.011038858041656668 -0.0076580796109233865 0 0 0 -0.0097473175763242298 -0.020872101479057978 -0.0099713809084499821 0 -0.0099713809084499821 0.0012296793210610224 0 0 0 -0.0049106055394992493 -0.00045027201198127864 -0.015230093518386112 0 -0.015230093518386112 0.0045918806227885911 0 0 0 0.0010354021527018281 -0.036946537756613419 -0.015698196710271742 0 -0.015698196710271742 0.0080300018012017249 0 0 0 -0.0072291339888529427 -0.010382249916860764 -0.01979486721605361 0 -0.01979486721605361 0.01065804424768052 0 0 0 6.8948582704952965e-05 -0.011742630408576878 -0.0086392337272125225 0 -0.0086392337272125225 0.016429325384864579 0 0 0 0.0011716737440719341 0.0081184307839824443 -0.0032202874250489427 0 -0.0032202874250489427 0.03712817524748846 0 0 0 0.011311651507867698 0.016965839996978017 -0.015684044451131765 0 -0.015684044451131765 0.026641982875775183 0 0 0 0.010901955718188312 -0.028528395881139972 -0.011648122057786925 0 -0.011648122057786925 0.024139185557382745 0 0 0 -0.0010973025809393397 -0.039613014295860796 -0.024518590153621247 0 -0.024518590153621247 0.026325972700090017 0 0 0 -0.0033217603989426914 -0.0075052646605625883 -0.023842792578358016 0 -0.023842792578358016 0.058681491952838338 0 0 0 0.012794056823068917 0.0084969740048983777 -0.012506541181382946 0 -0.012506541181382946 0.11071661533306754 0 0 0 0.029803397334491527 0.0085131328045091118 0.019921851374809396 0 0.019921851374809396 0.091869588988198858 0 0 0 0.025095680448176984 -0.0038479194702169539 0.016440979932680899 0 0.016440979932680899 0.12009252830711992 0 0 0 0.029061152209225893 -0.017268678420103156 0.013329485252879615 0 0.013329485252879615 0.075480343732364341 0 0 0 0.014552916328065324 -0.032097906560104486 -0.010144276449231548 0 -0.010144276449231548 0.056477034650935939 0 0 0 0.0060947820227078425 -0.01668289655164823 0.0011625987133065119 0 0.0011625987133065119 0.056871822739629763 0 0 0 0.010047231546995355 -0.048007580985131665 0.02330880375023392 0 0.02330880375023392 0.065427762723681504 0 0 0 0.0043550454346374112 -0.065471092595411728 0.011122069641227639 0 0.011122069641227639 0.037901600912952249 0 0 0 -0.0068923729206148421 -0.08369738910378649 0.016268932000647642 0 0.016268932000647642 0.048295694227360353 0 0 0 -0.0088504237191065482 -0.067958191945366231 -0.0088571361641330542 0 -0.0088571361641330542 0.019520782975614215 0 0 0 -0.012109352242438032 -0.090043098226601864 -0.0023741562101401992 0 -0.0023741562101401992 0.020652587204268547 0 0 0 -0.017347627755583322 -0.056774074303670957 -0.0057864930528417902 0 -0.0057864930528417902 0.053892885747665931 0 0 0 -0.00072029713900126358 -0.087690272573563752 -0.02124545318157875 0 -0.02124545318157875 0.023543185173162947 0 0 0 -0.016036771850100145 -0.11902536480023068 -0.018037096210584525 0 -0.018037096210584525 0.0099173321413671411 0 0 0 -0.027277008164715955 -0.12470478955703268 -0.0018327461624200597 0 -0.0018327461624200597 0.0091709266243888976 0 0 0 -0.028883465733160918 -0.10160858093889191 -0.014089074416536701 0 -0.014089074416536701 0.020197242286611683 0 0 0 -0.02035283466307003 -0.11798138931264879 0.010791704906890243 0 0.010791704906890243 0.020378247478806857 0 0 0 -0.024400785458460521 -0.09651218536111833 0.0076976053359588126 0 0.0076976053359588126 0.011969659354082007 0 0 0 -0.021135631501759067 -0.13637694519609236 0.019778334752576981 0 0.019778334752576981 0.0091904747468152248 0 0 0 -0.031796617612319222 -0.1210520022359239 0.010721013966567161 0 0.010721013966567161 0.027662657391279544 0 0 0 -0.023347336211161099 -0.12598619111824017 -0.0006759653584092265 0 -0.0006759653584092265 0.009005057972821584 0 0 0 -0.029245283286354673 -0.15582368734971969 0.0067080250562619181 0 0.0067080250562619181 0.0088081175048403404 0 0 0 -0.036753892461219795 -0.15231644350410453 0.0018294805491482213 0 0.0018294805491482213 0.0035139849498218023 0 0 0 -0.0372006146385708 -0.20449560144348702 0.0033413185245061449 0 0.0033413185245061449 0.0054888294433694806 0 0 0 -0.049751693000029407 -0.16289074220753649 -0.0023912607353963056 0 -0.0023912607353963056 0.002146289639754051 0 0 0 -0.040186113141945562 -0.21007058879684187 -0.0048858306106703909 0 -0.0048858306106703909 0.0033044402808387607 0 0 0 -0.05169153712900082 -0.16721962147374711 0.0013885936836752766 0 0.0013885936836752766 -0.00048961292538039769 0 0 0 -0.041927308599781749 -0.14270262586307117 -0.012413190251238437 0 -0.012413190251238437 0.0060593138113368555 0 0 0 -0.034160828012933554 -0.16097763202875873 -0.013398478386488388 0 -0.013398478386488388 0.004079447841628947 0 0 0 -0.03922454604678248 -0.0028876891581623571 0.020593338694383637 0 0.020593338694383637 0.024077083721675899 0 0 0 0.0052973486408783854 -0.00010372587714072012 0.022073776203610274 0 0.022073776203610274 0.030263451833966948 0 0 0 0.0075399314892065639 0.0010057861798403287 0.023820535096897605 0 0.023820535096897605 0.030514347754828409 0 0 0 0.0078800334836671808 -0.00989460576091232 0.019642851556817619 0 0.019642851556817619 0.038721454496482621 0 0 0 0.0072067121838925718 -0.020379845588270447 0.014153957757576004 0 0.014153957757576004 0.043873322340126197 0 0 0 0.0058733691879639342 -0.016338258874508408 0.015984381328677612 0 0.015984381328677612 0.025464236071457386 0 0 0 0.0022814942992372359 -0.026840776613579715 0.0099632210301751484 0 0.0099632210301751484 0.029979233225528402 0 0 0 0.00078461415298717099 -0.0086155135471907042 0.017264864038270347 0 0.017264864038270347 0.028084694731242893 0 0 0 0.0048672952960130481 -0.017625925281714833 0.011702456854583269 0 0.011702456854583269 0.014388696492622005 0 0 0 -0.00080930719727319994 -0.016283066208625914 0.012144541394041974 0 0.012144541394041974 0.024166080647644098 0 0 0 0.0019707536097545528 -0.016094202275120859 0.0091140682457895514 0 0.0091140682457895514 0.0053178178907473256 0 0 0 -0.0026940960960933815 -0.010015750658954423 0.013873142573834325 0 0.013873142573834325 0.015987897818366209 0 0 0 0.0014930367898529431 -0.0093080001755853591 0.012249501920710667 0 0.012249501920710667 0.0040315521178892547 0 0 0 -0.0013191120144240252 -0.010381411320782805 0.014919733300656497 0 0.014919733300656497 0.01595172218433856 0 0 0 0.0013925777158889426 -0.0029154686414578634 0.016832877760155074 0 0.016832877760155074 0.013812492442100407 0 0 0 0.0027242559501606395 -0.0013112973957868715 0.011737359648688965 0 0.011737359648688965 0.0027185697859569424 0 0 0 0.000351818097542516 -0.0058354505202089808 0.010095062844151521 0 0.010095062844151521 0.0023797621953700158 0 0 0 -0.00086392208120974513 -0.0076530723752733891 0.00063345024301299235 0 0.00063345024301299235 -0.0068042965818172346 0 0 0 -0.0036143422392726533 0.0030817572928463766 0.0053155034792095532 0 0.0053155034792095532 0.0031041602735575324 0 0 0 0.0015464793916009703 0.0013491151108107301 0.0066805239311011743 0 0.0066805239311011743 0.00017490043322622439 0 0 0 0.00038100388600923255 0.0031789759474891502 0.015691098063205067 0 0.015691098063205067 0.012565218225881511 0 0 0 0.003936048543342667 -0.010726427396049669 -0.00345492640446287 0 -0.00345492640446287 -0.0046189706300763383 0 0 0 -0.0038363495065315001 -0.0016800367894552019 -0.006147876689978838 0 -0.006147876689978838 -0.002208825237606838 0 0 0 -0.00097221550676550653 0.003434347539050836 0.001327364981065754 0 0.001327364981065754 0.0065870740004429912 0 0 0 0.0025053553848734603 0.010796919762172105 -0.0022912815430604326 0 -0.0022912815430604326 0.013477125317627014 0 0 0 0.0060685112699497834 0.021553837361552128 0.0093538314040452104 0 0.0093538314040452104 0.024666478125854652 0 0 0 0.011555078871851698 0.0094190142222634055 0.016768148076718052 0 0.016768148076718052 0.014022554345861624 0 0 0 0.0058603921420312607 0.018653151571342293 0.012822585035203816 0 0.012822585035203816 0.011986479726721948 0 0 0 0.0076599078245160688 0.0086048780485154953 0.016339295189294382 0 0.016339295189294382 0.022191288082652048 0 0 0 0.0076990415327918994 0.023349792250052119 0.020259635793320525 0 0.020259635793320525 0.025287785183591455 0 0 0 0.012159394358410895 0.012004153485202534 0.029760827600206707 0 0.029760827600206707 0.054037990296147864 0 0 0 0.016510535945337607 0.044379635514122967 0.031557132105537067 0 0.031557132105537067 0.049307098892576506 0 0 0 0.023421683601674875 0.024530077241737662 0.031071103671250225 0 0.031071103671250225 0.079235734747393566 0 0 0 0.025941452997282823 0.0052462041687570682 0.033133065024097595 0 0.033133065024097595 0.084853736938117597 0 0 0 0.022524985276718673 0.015683881959700163 0.027792440870628706 0 0.027792440870628706 0.055315660644172537 0 0 0 0.017749885650968175 0.041776127367150584 0.00074682403809715747 0 0.00074682403809715747 0.039913612617819089 0 0 0 0.020422434996242411 0.04333139877417487 0.01255997459591246 0 0.01255997459591246 0.066569237095278899 0 0 0 0.027475158967363453 0.048164360679166907 -0.015480160093040051 0 -0.015480160093040051 0.057210410331867356 0 0 0 0.026343692752758552 0.12215586493343507 -0.0048886544332487764 0 -0.0048886544332487764 0.09966008274119037 0 0 0 0.055453986918656342 0.059672426011357707 0.00014095637801478378 0 0.00014095637801478378 0.23033029913706021 0 0 0 0.072500681287104476 0.11216935578613771 0.083357990801917733 0 0.083357990801917733 0.16454908428298542 0 0 0 0.069179610017280763 0.025272538297108182 0.049521841184863136 0 0.049521841184863136 0.14251626070043116 0 0 0 0.04194719974938485 -0.018402591086817272 0.02358077093874536 0 0.02358077093874536 0.079148397995879 0 0 0 0.01518645172726543 0.020618626940823587 0.034595605240009944 0 0.034595605240009944 0.079134886989656261 0 0 0 0.024938378482619941 -0.01817205084381944 -0.012537365135019116 0 -0.012537365135019116 0.16289199754006597 0 0 0 0.036179986674061623 -0.029905854828021002 -0.014755653578462046 0 -0.014755653578462046 0.089486189986813347 0 0 0 0.014895083789698081 -0.028419650968075735 -0.0144162677011049 0 -0.0144162677011049 0.097050054031911248 0 0 0 0.017157600765958875 -0.013649736028681522 0.021871804491460006 0 0.021871804491460006 0.092049998004051864 0 0 0 0.019600065493842581 -0.012549040916765036 0.022317900427134704 0 0.022317900427134704 0.051420035355391081 0 0 0 0.009717748609656518 -0.018199097206531949 0.01805135538287319 0 0.01805135538287319 0.082437448308008809 0 0 0 0.01605958777536922 -0.031315100402132964 0.0093170202593369986 0 0.0093170202593369986 0.053709981573640757 0 0 0 0.0055987202928769637 -0.017715133138088628 0.017800849873157998 0 0.017800849873157998 0.066144826776083354 0 0 0 0.012107423409498677 -0.015362225103457174 0.019187317035485686 0 0.019187317035485686 0.037193116020529493 0 0 0 0.0054577227292680885 -0.0048563529624841874 0.026590887464846051 0 0.026590887464846051 0.056983616471635912 0 0 0 0.013031815877287935 -0.029882215380090872 0.011170816720140631 0 0.011170816720140631 0.039369865189208694 0 0 0 0.0023719124522794538 -0.027935830838340017 0.0090954030966412629 0 0.0090954030966412629 0.057052777754128259 0 0 0 0.0072792367289470639 -0.031131220512765529 -0.014616161414508742 0 -0.014616161414508742 0.061178217376210972 0 0 0 0.0075117492158613668 -0.035181464278341054 -0.0027638540820828653 0 -0.0027638540820828653 0.057010789613997831 0 0 0 0.0054573313339141925 -0.039426104823990879 -0.00013258149001467434 0 -0.00013258149001467434 0.049167244886112807 0 0 0 0.0024352850155304751 -0.028185389551126046 0.0055482883991603248 0 0.0055482883991603248 0.075178587278883019 0 0 0 0.011748299431939233 -0.033574552762130574 -0.013707704056931863 0 -0.013707704056931863 0.046958623158600235 0 0 0 0.0033460175991174117 -0.035834116425992095 -0.014252056846924458 0 -0.014252056846924458 0.038456559916876437 0 0 0 0.00065561087272108728 -0.022324540867954136 -0.0255136341466729 0 -0.0255136341466729 0.04235508751888957 0 0 0 0.005007636662733855 -0.028372585421842955 -0.024214512305688829 0 -0.024214512305688829 0.019903691408062474 0 0 0 -0.0021172235034451134 -0.03364951286897884 -0.017541548713967979 0 -0.017541548713967979 0.017569746757953593 0 0 0 -0.0040199415277563221 -0.022267047635121176 -0.024401373457662155 0 -0.024401373457662155 0.020560220815607266 0 0 0 -0.00042670670487846007 -0.02176750966912146 -0.023147999646971007 0 -0.023147999646971007 0.022121483043949418 0 0 0 8.8493343706984133e-05 -0.027297728139957671 -0.019570586603535695 0 -0.019570586603535695 0.0048071268489201235 0 0 0 -0.0056226503227593955 -0.010951917167641823 -0.013516625954247881 0 -0.013516625954247881 0.0086264488210182622 0 0 0 -0.00058136708665590398 -0.017080957700515417 -0.017028358821119863 0 -0.017028358821119863 0.00082964368939994482 0 0 0 -0.0040628285027788785 -0.011864611370908995 -0.022777277756828321 0 -0.022777277756828321 0.0057679515701882234 0 0 0 -0.0015241649501801929 0.0030717667825968819 -0.035135203448279473 0 -0.035135203448279473 0.030516377060521942 0 0 0 0.0083970359607796908 -0.032339875459395373 -0.015664863212736024 0 -0.015664863212736024 0.060842230684815146 0 0 0 0.0071255888063549468 -0.020388971611919784 -0.028012554874310161 0 -0.028012554874310161 0.040008544270049948 0 0 0 0.0049048931645325356 -0.0201647940166312 -0.031122614502936446 0 -0.031122614502936446 0.049452249240259656 0 0 0 0.0073218638059071132 -0.017085431950018864 -0.036726891246926255 0 -0.036726891246926255 0.076368526545180157 0 0 0 0.014820773648790312 -0.035953313779342438 -0.031527543937277483 0 -0.031527543937277483 0.10201616981314771 0 0 0 0.016515714008451317 -0.0074948549010119409 -0.030449115031597994 0 -0.030449115031597994 0.10104813659290859 0 0 0 0.02338832042297416 0.0142886426471035 -0.0046033140418262342 0 -0.0046033140418262342 0.29310907495786753 0 0 0 0.076849429401242758 0.0018662369813364672 -0.010669288819170869 0 -0.010669288819170869 -0.011385699003366112 0 0 0 -0.002379865505507419 0.023694275768067354 -0.05000729638384626 0 -0.05000729638384626 0.059969993125699943 0 0 0 0.020916067223441828 0.098273236793020871 0.11349075504718387 0 0.11349075504718387 0.18943653833461432 0 0 0 0.071927443781908809 0.015958164499809767 -0.069888851827835774 0 -0.069888851827835774 0.12391995214335168 0 0 0 0.034969529160790346 0.0053383997325844425 0.0011087078604575429 0 0.0011087078604575429 0.015793691089611782 0 0 0 0.0052830227055490559 0.21081214438648066 0.093123085579301296 0 0.093123085579301296 0.054112077607309184 0 0 0 0.066231055498447433 0.07762861254275269 0.029064151738861566 0 0.029064151738861566 0.029490565367402494 0 0 0 0.026779794477538782 0.013626498173166086 0.0026834668212056684 0 0.0026834668212056684 0.040900108751940216 0 0 0 0.013631651731276577 -0.048752480071559932 0.0043051931548091366 0 0.0043051931548091366 0.035562556272437013 0 0 0 -0.0032974809497807317 0.074875734599309129 0.027172730926064294 0 0.027172730926064294 0.024393530503845406 0 0 0 0.024817316275788592 0.0194434863685603 0.0037473860173750807 0 0.0037473860173750807 0.058365005328796592 0 0 0 0.019452122924339222 -0.039478056586658261 0.0072266062394870795 0 0.0072266062394870795 0.042557861040961431 0 0 0 0.00076995111357580637 0.035903310903917462 0.02548980880107854 0 0.02548980880107854 0.015137326073043633 0 0 0 0.012760159244240288 -0.0088191604378354896 -0.017681429627454448 0 -0.017681429627454448 -0.0044815747278685036 0 0 0 -0.0033251837914259966 -0.013577788286715013 0.0044767789122197171 0 0.0044767789122197171 0.026341474237495804 0 0 0 0.0031909214876952099 -0.014524446876405687 -0.0070847865075983896 0 -0.0070847865075983896 0.018272805244812146 0 0 0 0.00093708959210161286 -0.012157187434878852 -0.0039974938769392482 0 -0.0039974938769392482 0.011803772932902162 0 0 0 -8.8353625494166227e-05 -0.026657395406515898 0.0016580528154242213 0 0.0016580528154242213 0.016972070053289379 0 0 0 -0.0024213313383065899 -0.017409169927369572 0.0031520517011110888 0 0.0031520517011110888 0.044813645179803352 0 0 0 0.0068511188131084588 -0.024818375275943841 0.0061909450173784769 0 0.0061909450173784769 0.051264629120617217 0 0 0 0.0066115634611683405 -0.015196675647630178 -0.002829777377046136 0 -0.002829777377046136 0.017668670747330584 0 0 0 0.0006179987749251048 0.025069328402344992 0.025695576252952046 0 0.025695576252952046 0.018663219778823015 0 0 0 0.010933137045291974 0.033377747414948145 0.016158584822767885 0 0.016158584822767885 0.048943570354436972 0 0 0 0.020580329442346335 0.052359138035504849 0.013197135987634123 0 0.013197135987634123 0.045855511085265199 0 0 0 0.02455366228019229 0.024791457212979557 0.0044159520254048179 0 0.0044159520254048179 0.074430530543413462 0 0 0 0.024805496939098257 0.029261264585237701 0.014462672541925898 0 0.014462672541925898 0.050471683301917647 0 0 0 0.019933236971788837 0.030125418487962546 0.014844007411390692 0 0.014844007411390692 0.051073027502062551 0 0 0 0.020299611497506337 0.0068477089358658372 0.023338172112137956 0 0.023338172112137956 0.047353934866661618 0 0 0 0.013550410950631919 0.017624000041531973 0.015375893044507941 0 0.015375893044507941 0.06174177501956013 0 0 0 0.01984144376527297 -0.016987807445150355 0.0048495107647347213 0 0.0048495107647347213 0.067860459053416533 0 0 0 0.012718162902066538 0.030124172847163195 0.0048516773503358493 0 0.0048516773503358493 0.090447814744813532 0 0 0 0.030142996897994181 0.01509627658448498 0.016672743817258251 0 0.016672743817258251 0.064299617750809057 0 0 0 0.019848973583823315 -0.023562953415974378 -6.4708445048494712e-05 0 -6.4708445048494712e-05 0.029954464785390114 0 0 0 0.001597877842353948 -0.024241777752385091 -0.0016271138498538951 0 -0.0016271138498538951 0.014656346407217802 0 0 0 -0.0023963578362918569 -0.016141069133257649 0.0019143439338828727 0 0.0019143439338828727 0.058857425281914455 0 0 0 0.010679089037164177 -0.018188728762878553 -0.0027099732636237175 0 -0.0027099732636237175 0.033452552439809047 0 0 0 0.0038159559192325887 -0.023382047520465604 -0.0027083448484909803 0 -0.0027083448484909803 0.033523242278675647 0 0 0 0.0025352986895525176 -0.02817347894677941 -0.0062011410745865247 0 -0.0062011410745865247 0.0060203347166690041 0 0 0 -0.0055382860575275729 -0.023100668907686986 -0.0071566612689929754 0 -0.0071566612689929754 0.0072312931996573182 0 0 0 -0.0039673439270074135 -0.020651666093609689 -0.0052957726115526044 0 -0.0052957726115526044 0.0086767957095878478 0 0 0 -0.0029937175960054463 -0.023139157374413674 -0.012186520195327399 0 -0.012186520195327399 -0.004432748179784847 0 0 0 -0.0068929763885496442 -0.023657179919909205 -0.0077722215808092125 0 -0.0077722215808092125 -0.00081485830029232043 0 0 0 -0.0061180095550504021 -0.025262979801064386 -0.010439037809487753 0 -0.010439037809487753 -0.0079381059641883689 0 0 0 -0.0083002714413132339 -0.02351488154186801 -0.012594032420382761 0 -0.012594032420382761 -0.01009737747462286 0 0 0 -0.0084030647541227382 -0.024402769692118881 -0.015019232078037251 0 -0.015019232078037251 -0.0058063057101556126 0 0 0 -0.0075522688505686164 -0.022072962590158673 -0.011713593628011471 0 -0.011713593628011471 -0.0067155158826449068 0 0 0 -0.007197119618200909 -0.019481953306221683 -0.014646517089284064 0 -0.014646517089284064 -0.0036243126167225248 0 0 0 -0.0057765664807360728 -0.025172053326208962 -0.015503995592652871 0 -0.015503995592652871 -0.0064513826004209407 0 0 0 -0.0079058589816574654 -0.020001406981540584 -0.019332709552161181 0 -0.019332709552161181 0.00047647598025993276 0 0 0 -0.0048812327503201663 -0.025711425279924052 -0.018364721987185195 0 -0.018364721987185195 0.0050480522462644783 0 0 0 -0.00516584325841489 -0.021433818226810869 -0.013665009011932155 0 -0.013665009011932155 -0.0017963475581752597 0 0 0 -0.0058075414462465391 -0.021858764462331697 -0.0062503936920235703 0 -0.0062503936920235703 0.00031366747557448615 0 0 0 -0.0053862742466893251 -0.016417136490621969 -0.010421752734483453 0 -0.010421752734483453 0.001941819218565146 0 0 0 -0.0036188293180142266 -0.12704695532207966 0.01158920181098988 0 0.01158920181098988 -0.00091213273638746095 0 0 0 -0.031989772014616724 -0.13570606469206814 0.014789331201401827 0 0.014789331201401827 0.0016743170737192337 0 0 0 -0.03350793690458731 -0.10971051785866826 0.034028121309888693 0 0.034028121309888693 0.011084922465517399 0 0 0 -0.024656398848287853 -0.17402608208436843 0.014492963944524373 0 0.014492963944524373 0.0018557564591841214 0 0 0 -0.043042581406295799 -0.18355094894489135 0.01053994773264566 0 0.01053994773264566 0.005558179012363107 0 0 0 -0.044498192483132082 -0.13145680387809772 0.015689265615624393 0 0.015689265615624393 -8.6335611691273906e-05 0 0 0 -0.032885784872447248 -0.13221317293106788 0.016662074750577904 0 0.016662074750577904 0.0022898505800328373 0 0 0 -0.032480830587758691 -0.10929517402374667 0.035033122970098557 0 0.035033122970098557 0.016129092412112689 0 0 0 -0.023291520402908383 -0.088464800283461764 0.03430161569312444 0 0.03430161569312444 0.015533458568289138 0 0 0 -0.01823283542879317 -0.071582011067130136 0.046253331327690828 0 0.046253331327690828 0.032340568004014525 0 0 0 -0.0098103607657790137 -0.088376250094556186 0.032661285912526483 0 0.032661285912526483 0.0029683529086428351 0 0 0 -0.021351974296478282 -0.075051035423047946 0.047492707845139037 0 0.047492707845139037 0.013636115830632012 0 0 0 -0.015353729898104046 -0.099085272467224317 0.030337923787211118 0 0.030337923787211118 -0.00029282151106624354 0 0 0 -0.024844523494572668 -0.069386486625954438 0.043013092789138896 0 0.043013092789138896 0.0025248416904796178 0 0 0 -0.016715411233868729 -0.01773447826273214 0.059059453715652133 0 0.059059453715652133 0.013139150050660797 0 0 0 -0.0011488320530177731 -0.043796531535576722 0.050468108738709036 0 0.050468108738709036 0.010615443700356941 0 0 0 -0.0082952719588049728 -0.0040321446823933793 0.067120836690002628 0 0.067120836690002628 0.035685119367173224 0 0 0 0.0079132436711950027 -0.043755032487490686 0.052647619203569751 0 0.052647619203569751 0.01304165742457819 0 0 0 -0.0076783437657279574 -0.084998133721617353 0.030813612372889598 0 0.030813612372889598 0.017724363696194567 0 0 0 -0.016818442506355669 -0.054720302627760002 0.049478876617718659 0 0.049478876617718659 0.049719651262754544 0 0 0 -0.001250162841251394 -0.048617478559861566 0.04307817303460687 0 0.04307817303460687 0.034924782899542262 0 0 0 -0.0034231739150798191 -0.015100940181870026 0.061929750919950288 0 0.061929750919950288 0.07984987775697916 0 0 0 0.016187234393777228 0.00059665658769941787 0.065602466214270364 0 0.065602466214270364 0.12963065345655655 0 0 0 0.032556827511063979 0.033842697743284189 0.076781117286036982 0 0.076781117286036982 0.04756412683152389 0 0 0 0.020351706143701964 0.04019534623557737 0.068530394907258541 0 0.068530394907258541 0.046978386025275126 0 0 0 0.0217934330652131 0.0046413616943316027 0.049695152925613828 0 0.049695152925613828 0.015097779625260044 0 0 0 0.0049347853298978839 0.019747316529598824 0.055582674344088479 0 0.055582674344088479 0.01777916233066934 0 0 0 0.0093816197150671243 0.040689557507651575 0.02797370421728157 0 0.02797370421728157 0.019080698094836812 0 0 0 0.014942563900622208 -0.0041138766491133349 0.045005635690798296 0 0.045005635690798296 0.0062108401658744899 0 0 0 0.00052424087919022977 -0.010508989048134132 0.047654355640349699 0 0.047654355640349699 0.0037561533155243687 0 0 0 -0.0016882089331524686 0.015359203855185077 0.036139028244095317 0 0.036139028244095317 0.015403548175546788 0 0 0 0.007690688007683022 0.0060684323869197865 0.028390962269866593 0 0.028390962269866593 0.018423135976002092 0 0 0 0.0061228920907303586 0.009150485952145182 0.029082650582334002 0 0.029082650582334002 0.025380264550669995 0 0 0 0.0086326876257036833 -0.012478192801747001 0.033568133575913039 0 0.033568133575913039 0.018173447045473523 0 0 0 0.001423813560931908 -0.012029258296619938 0.038083997714801476 0 0.038083997714801476 0.0092366440519384696 0 0 0 -0.00069815356117031158 -0.01228724857912411 0.046620381352891149 0 0.046620381352891149 0.0031337919895251254 0 0 0 -0.0022883641473997463 -0.029065220527451321 0.043311859167981526 0 0.043311859167981526 0.00013715587997439882 0 0 0 -0.0072320161618693174 -0.026777768524491874 0.043498397959537138 0 0.043498397959537138 0.00086091535433752142 0 0 0 -0.0064792132925386436 -0.030309204108630805 0.044778970522058037 0 0.044778970522058037 -0.0010676202716144445 0 0 0 -0.0078442060950614234 -0.050006954772476631 0.047291181505535962 0 0.047291181505535962 -0.0010594830922325826 0 0 0 -0.012766609466177359 -0.029259762434320713 0.050155047725289559 0 0.050155047725289559 0.0027483868745410422 0 0 0 -0.0066278438899448622 -0.020863978238034653 0.044134947921045886 0 0.044134947921045886 0.0014215204137686399 0 0 0 -0.0048606144560665587 -0.046581145954577408 0.046969342411704029 0 0.046969342411704029 0.00033454197390625495 0 0 0 -0.011561650995167705 -0.051950308295741654 0.051550979446933543 0 0.051550979446933543 0.0054248866233450599 0 0 0 -0.011631355418099232 -0.072782466446688954 0.037825618411331086 0 0.037825618411331086 -0.0037209198803589416 0 0 0 -0.019125846581761863 -0.075899264235873121 0.040107959506879398 0 0.040107959506879398 0.0064598584247819169 0 0 0 -0.017359851452772856 -0.070596445129248231 0.029853106538517776 0 0.029853106538517776 -0.0017234795158369565 0 0 0 -0.018079981161271075 -0.068993533499007886 0.041779343907684563 0 0.041779343907684563 -0.00031592386909673476 0 0 0 -0.017327364342026252 -0.045865746757100201 0.040858764113205326 0 0.040858764113205326 -0.00021131694342235718 0 0 0 -0.011519265925130528 -0.040722285661647623 0.043499779719946119 0 0.043499779719946119 -0.0047735601173134468 0 0 0 -0.011373961444740371 -0.045686624330842029 0.03313073484803053 0 0.03313073484803053 0.00081499737516299575 0 0 0 -0.011217906738919758 -0.064192674697818086 0.033124031897340034 0 0.033124031897340034 -0.0053536860804954678 0 0 0 -0.017386590194578444 -0.066021782459456002 0.032713686309440826 0 0.032713686309440826 0.0015163457280804593 0 0 0 -0.016126359182843775 -0.073189184226517323 0.013050404400816151 0 0.013050404400816151 -0.0011632060620834217 0 0 0 -0.018588097572150408 -0.05224454990204952 0.013213043670531555 0 0.013213043670531555 0.00054578660815085556 0 0 0 -0.012924690823474694 -0.076571699223153433 0.014574605970865129 0 0.014574605970865129 0.00073018750023101653 0 0 0 -0.018960377930730909 -0.10668311351919546 0.01359063409905095 0 0.01359063409905095 -0.0010258186175815531 0 0 0 -0.026927233034194309 -0.09900008837543478 0.031362675389698946 0 0.031362675389698946 -0.00068240748068482127 0 0 0 -0.024920623964029887 -0.09392410019742975 0.015028892681164918 0 0.015028892681164918 -0.00089397167143245859 0 0 0 -0.023704517967215621 -0.010620878297729716 0.0077153011800521476 0 0.0077153011800521476 0.00051780151013394726 0 0 0 -0.0025257691968987167 -0.030588194973644178 0.012726752343733549 0 0.012726752343733549 -0.0057700126248092509 0 0 0 -0.0090895518996132463 -0.022425976837255668 0.016891454645362736 0 0.016891454645362736 0.001579290339068784 0 0 0 -0.0052116716245467209 -0.021234841423129147 0.0088753109381638877 0 0.0088753109381638877 0.00054457355562309573 0 0 0 -0.0051725669668767349 -0.03767687906752637 0.0098936470774102503 0 0.0098936470774102503 -0.0012531156884576511 0 0 0 -0.0097324986889957277 -0.047034229096347469 0.011143800526994924 0 0.011143800526994924 -0.0021016251637862027 0 0 0 -0.012283963565033362 -0.061329631291219266 0.026625070977243537 0 0.026625070977243537 -0.0050432951613128552 0 0 0 -0.016593231613132975 -0.042016735091796154 0.021017172769680181 0 0.021017172769680181 -0.0062497660347538009 0 0 0 -0.012066625281637489 -0.041477463237685974 0.032914407030784465 0 0.032914407030784465 -0.004366851008487771 0 0 0 -0.011461078561543658 -0.037747955437432701 0.024608612916977135 0 0.024608612916977135 0.0018112997103445494 0 0 0 -0.0089841639317720379 -0.043797433974729127 0.03364374048276747 0 0.03364374048276747 -0.0042405705563233198 0 0 0 -0.012009501132762779 -0.032620373372428402 0.031231406864424605 0 0.031231406864424605 -0.0025326511679759633 0 0 0 -0.0087882561351013688 -0.025568724227215123 0.027170579432490571 0 0.027170579432490571 -0.0074165205003557944 0 0 0 -0.0082463111818926738 -0.029470953281193757 0.027360563248320036 0 0.027360563248320036 -0.006069851837458673 0 0 0 -0.0088852012796633018 -0.011915805823113468 0.020182431308033655 0 0.020182431308033655 -0.0045311883549663534 0 0 0 -0.0041117485445198998 -0.018154740931717317 0.030769970213547174 0 0.030769970213547174 -0.0036930205979261999 0 0 0 -0.0054619403824109902 -0.017643153973826209 0.034537099481301681 0 0.034537099481301681 -0.0036297986609024058 0 0 0 -0.0053182381586818206 -0.021067590237015654 0.037963817957727075 0 0.037963817957727075 0.00081329607842706153 0 0 0 -0.0050635735396471482 -0.02453241441620313 0.033176014157648703 0 0.033176014157648703 -0.0076978849325510801 0 0 0 -0.008057574837188719 -0.033155280314502544 0.038827148466497041 0 0.038827148466497041 -0.0046998985875257304 0 0 0 -0.0094637947255071797 -0.025347769047129709 0.036818593333000083 0 0.036818593333000083 -0.0037221211371574192 0 0 0 -0.007267472546071907 -0.030633957058776431 0.039994748176207517 0 0.039994748176207517 -0.0038522009130703607 0 0 0 -0.0086215394929616985 -0.023011689391717008 0.040878137507245782 0 0.040878137507245782 0.0021325164585044853 0 0 0 -0.0052197932333029745 -0.025412774859151277 0.039435546684269573 0 0.039435546684269573 -0.0015149709594100003 0 0 0 -0.0067319364546403193 -0.015326693509668546 0.036635795800870508 0 0.036635795800870508 0.010231667498231428 0 0 0 -0.0012737565028593384 -0.012588829416204872 0.034247574742674702 0 0.034247574742674702 0.020113863453695036 0 0 0 0.0018812585093728185 -0.0185483304989289 0.040960226853078402 0 0.040960226853078402 0.0036225647288210538 0 0 0 -0.003731441442526906 -0.018696187129770614 0.035794257358899184 0 0.035794257358899184 0.017309888507693216 0 0 0 -0.00034657465551934941 -0.00053301453787346631 0.024769669398846172 0 0.024769669398846172 0.044310138467190008 0 0 0 0.010944280982329024 -0.016891432528132855 0.035441015957657251 0 0.035441015957657251 0.016199988609759686 0 0 0 -0.00017286097959301472 -0.016421960448928741 0.028247580302974473 0 0.028247580302974473 0.038181208142526568 0 0 0 0.0054398119233992626 -0.018917480585217028 0.037035397193450059 0 0.037035397193450059 0.009076216451196828 0 0 0 -0.0024603160335052721 -0.012485979913477996 0.032972895087640841 0 0.032972895087640841 0.016502287883302103 0 0 0 0.0010040769924559712 -0.012174736482662318 0.031597904958380774 0 0.031597904958380774 0.027975620139901736 0 0 0 0.0039502209143098543 -0.0040775477246921543 0.025228385426384836 0 0.025228385426384836 0.014660583633391511 0 0 0 0.0026457589771748946 -0.014059271375058968 0.025739828717818991 0 0.025739828717818991 0.028287523578819807 0 0 0 0.0035570630509400014 -0.0022732359688939496 0.018698890173962868 0 0.018698890173962868 0.018814213051322248 0 0 0 0.0041352442706070747 0.0015711971613581177 0.015980508384953351 0 0.015980508384953351 0.039340931028540638 0 0 0 0.010228032047475022 -0.00150976339428599 0.0080441921081897405 0 0.0080441921081897405 0.039695352712033838 0 0 0 0.009546397329437184 0.001715268083225226 0.0060091304781941801 0 0.0060091304781941801 0.027551261516390847 0 0 0 0.0073166323999042399 0.00044069779393440811 0.012072109617397131 0 0.012072109617397131 0.0034195822085170136 0 0 0 0.00096507000061274439 0.00058371424277758877 0.006069955346449829 0 0.006069955346449829 -0.0023162741379323393 0 0 0 -0.00043313997378868763 -0.0013953994241293621 0.012676278307165173 0 0.012676278307165173 -0.0082536151388010737 0 0 0 -0.0024122536407324979 0.00073387981404238189 0.0083565207757203552 0 0.0083565207757203552 0.0070580951565757388 0 0 0 0.0019479937426547522 -0.0085884025912721373 0.020398267289505334 0 0.020398267289505334 -0.0057877844071620999 0 0 0 -0.0035940467496085038 -0.0070398260514104027 0.021961754994213933 0 0.021961754994213933 0.00027330957330740091 0 0 0 -0.0016916291195256949 -0.010489818950271346 0.026721570606808243 0 0.026721570606808243 -0.0085686162232199159 0 0 0 -0.0047646087933730374 -0.017206839390208506 0.033636240621221392 0 0.033636240621221392 -0.0011084678566555262 0 0 0 -0.0045788268117159525 -0.019831906331666982 0.025682470008267178 0 0.025682470008267178 -0.013841634051176221 0 0 0 -0.0084183850957106898 -0.020476895281778096 0.015437439437070877 0 0.015437439437070877 -0.0072222262772380086 0 0 0 -0.0069247803897541926 -0.0067838240012276785 0.0086214075861862915 0 0.0086214075861862915 -0.0050936308671536423 0 0 0 -0.0029693637170953302 -0.004720509714676302 0.0078888569163269029 0 0.0078888569163269029 -0.0042267424742705728 0 0 0 -0.0022368130472367742 -0.0062408850415491823 0.015933725635458362 0 0.015933725635458362 -0.014017371579275295 0 0 0 -0.0050645641552065079 -0.0022375401358458724 0.0059128083245010288 0 0.0059128083245010288 -7.0451282845773733e-05 0 0 0 -0.00057699785467280051 -0.0034760051108212158 0.00078314065299522895 0 0.00078314065299522895 0.0039656852062910138 0 0 0 0.00012242002386733856 -0.00074344584455943163 0.00071876309338203548 0 0.00071876309338203548 0.00066914913714199997 0 0 0 -1.8574176854357916e-05 -0.0011757232933192752 0.0037958759059040226 0 0.0037958759059040226 -0.0061282856576978517 0 0 0 -0.0018260022377544205 -0.0051396186276617684 0.0019130419279700384 0 0.0019130419279700384 -0.00087058132805051258 0 0 0 -0.0015025499889280702 0.0014916198832533034 0.00017790374185722158 0 0.00017790374185722158 0.0010156514570738295 0 0 0 0.00062681783508189426 -0.00036177958162442181 -0.00086621359212646354 0 -0.00086621359212646354 0.0016100732882975421 0 0 0 0.00031207342666794702 0.0014557971616651066 -0.00060809135604626685 0 -0.00060809135604626685 -8.6607310297637241e-05 0 0 0 0.00034229746284220042 0.0003227738617678777 -0.00027459890664172093 0 -0.00027459890664172093 0.00070133295860497213 0 0 0 0.00025602670509344838 -0.00045120288103617234 0.001447399805848784 0 0.001447399805848784 -0.00082167163648438901 0 0 0 -0.00031821862938019585 -0.0067695236109495127 0.0037420131394612088 0 0.0037420131394612088 -0.0027428697833027371 0 0 0 -0.0023780983485626184 -0.0095865627596067871 0.0069713695604602544 0 0.0069713695604602544 -0.0041874505271399798 0 0 0 -0.0034435033216864142 -0.01845343020100132 -0.010637496062907315 0 -0.010637496062907315 -0.0098684789211043178 0 0 0 -0.0070804772805263538 -0.017402127453027605 -0.011739512813638497 0 -0.011739512813638497 0.012276747190450021 0 0 0 -0.0012813450656444236 -0.025513525155832162 -0.010061675146873547 0 -0.010061675146873547 0.0092084612259913934 0 0 0 -0.0040762659824601366 -0.020747430939314936 -0.012805366888699959 0 -0.012805366888699959 -0.0071598555939602591 0 0 0 -0.0069768216333188273 -0.019693369552156226 -0.010506046925927923 0 -0.010506046925927923 -0.023014005072139243 0 0 0 -0.010676843656073853 -0.016430115440840179 -0.0085474411792022531 0 -0.0085474411792022531 -0.017482806279016438 0 0 0 -0.0084782304299641092 -0.019030180355339155 -0.0058727713584801333 0 -0.0058727713584801333 -0.022250512799863009 0 0 0 -0.010320173288800583 -0.023751989396012085 -0.01013558224278081 0 -0.01013558224278081 -0.017383060354523305 0 0 0 -0.010283762437633792 -0.021981523016392834 -0.0089191318037227657 0 -0.0089191318037227657 -0.013173256561614721 0 0 0 -0.0087886948945019305 -0.024413739873492983 -0.010170977253896013 0 -0.010170977253896013 -0.014444129460275928 0 0 0 -0.0097144673334422157 -0.024896925164046374 -0.010062598168031907 0 -0.010062598168031907 -0.0054323513114153954 0 0 0 -0.007582319118865477 -0.026336345773577102 -0.010365221886146726 0 -0.010365221886146726 -0.0058881658773045631 0 0 0 -0.0080561279127204233 -0.021474762131789782 -0.010080407005246012 0 -0.010080407005246012 -0.010295248421241979 0 0 0 -0.0079425026382579089 -0.020788175755023952 -0.0092755968297423049 0 -0.0092755968297423049 0.01070183775219713 0 0 0 -0.0025215845007067195 -0.027634174367990705 -0.0072782258580193215 0 -0.0072782258580193215 0.007742471907957682 0 0 0 -0.0049729256150082279 -0.01779310371765544 -0.0050443560080569994 0 -0.0050443560080569994 0.037662364226466294 0 0 0 0.0049673151272027483 -0.0089806349909179739 0.0011095871140138769 0 0.0011095871140138769 0.074916522559210441 0 0 0 0.016483971892073151 -0.0042922877886162614 -0.0016002111916521844 0 -0.0016002111916521844 0.087050495059324606 0 0 0 0.020689551817677093 -0.019874181806886632 -0.0045184940414638164 0 -0.0045184940414638164 0.038884920789025057 0 0 0 0.0047526847455345855 -0.0039154208500615795 0.024864231207384346 0 0.024864231207384346 0.054955717543228033 0 0 0 0.012760074173291613 0.011125754173995084 0.01431833653841285 0 0.01431833653841285 0.084333288875569679 0 0 0 0.023864760762391413 -0.0086078851927585687 0.0025452480020407564 0 0.0025452480020407564 0.078256893854562137 0 0 0 0.01741225216545092 0.035497386446988181 0.005109980601960799 0 0.005109980601960799 0.1065872062728878 0 0 0 0.035521148179968993 -0.013396632357442373 0.027989121446743592 0 0.027989121446743592 0.038327799741164625 0 0 0 0.0062327918459306186 0.0052320998278767572 0.018287688836065019 0 0.018287688836065019 0.088282453177457754 0 0 0 0.023378638251333905 0.00077810735182323731 0.017613710327776033 0 0.017613710327776033 0.076519542186196166 0 0 0 0.019324412384504747 0.040969092654753791 0.0051839200945638401 0 0.0051839200945638401 0.12301563869218279 0 0 0 0.040996182836734146 -0.005786004598407779 -0.00076858037394239576 0 -0.00076858037394239576 0.089702874045132497 0 0 0 0.020979217361681179 -0.0059545034751664616 0.019363661609769916 0 0.019363661609769916 0.085865615764471492 0 0 0 0.019977778072326036 0.046333757372651441 0.0051637729403021578 0 0.0051637729403021578 0.13918811076254184 0 0 0 0.046380467033798327 -0.0094661566017610888 0.02319865002945587 0 0.02319865002945587 0.071945161248881284 0 0 0 0.015619751161779716 -0.014562077638115165 -0.0076144068591895708 0 -0.0076144068591895708 0.04458009112546063 0 0 0 0.0075045033718364046 0.00098792013462148387 -0.0030214249255290648 0 -0.0030214249255290648 0.093161366016739744 0 0 0 0.0235373215378403 -0.0141812538299117 -0.0099242159626238557 0 -0.0099242159626238557 0.02497179107278158 0 0 0 0.0026976343107174006 -0.017234669844698625 -0.0089989540718162786 0 -0.0089989540718162786 0.042620939771125688 0 0 0 0.0063465674816067796 -0.008217120710480974 -0.011238189897670781 0 -0.011238189897670781 0.045800762358440161 0 0 0 0.0093959104119896719 -0.010664937453584489 -0.013564241106720415 0 -0.013564241106720415 0.027313589552505957 0 0 0 0.0041621630247303809 0.00061100021328047704 -0.0016170151554422141 0 -0.0016170151554422141 0.095920918689452406 0 0 0 0.024132979725683179 0.0052976513901145106 -0.0069140310326928356 0 -0.0069140310326928356 0.10449456853964562 0 0 0 0.027448054982440073 -0.0079649638611086204 -0.013089681762328664 0 -0.013089681762328664 0.046287823144521179 0 0 0 0.0095807148208531534 -0.0059892368621079495 0.014655918246516686 0 0.014655918246516686 0.10910655557900384 0 0 0 0.025779329679223917 0.051720523659458381 0.0050062518459863745 0 0.0050062518459863745 0.1550994166291626 0 0 0 0.051704985072155249 0.001959973878887189 -0.0029726597729599069 0 -0.0029726597729599069 0.11251798974590038 0 0 0 0.028619490906196865 -0.012733513515414296 0.020085965197909061 0 0.020085965197909061 0.10686112859534624 0 0 0 0.02353190376998282 0.0050661109780923974 0.021246499286573961 0 0.021246499286573961 0.086052331696482853 0 0 0 0.022779610668643868 0.00076847803639301659 0.022737019555289617 0 0.022737019555289617 0.085091686704537928 0 0 0 0.021465041185233069 0.056302029153289336 0.0048946079041167143 0 0.0048946079041167143 0.16985737692808486 0 0 0 0.056539851520343555 -0.0068714207470659261 0.006108259785658321 0 0.006108259785658321 0.11936962475625279 0 0 0 0.028124551002296716 0.0097335747356203772 0.0012822947587003419 0 0.0012822947587003419 0.096513891351983724 0 0 0 0.026561866521900693 -0.0049154019619232214 -0.012153440581264358 0 -0.012153440581264358 0.015479467539499026 0 0 0 0.002641016394393958 0.015080266119812391 -0.0046433302472924098 0 -0.0046433302472924098 0.10911804170747352 0 0 0 0.031049576956821423 0.0095157574084213659 -0.0053520558634977955 0 -0.0053520558634977955 0.10708075575676479 0 0 0 0.029149128291296622 0.019945539806833057 -0.0015147839508645178 0 -0.0015147839508645178 0.081180072798643588 0 0 0 0.02528140315136912 -0.0030602204360501983 -0.008262030432111489 0 -0.008262030432111489 0.016254615381464332 0 0 0 0.0032985987363535196 -0.00029926046948630658 -0.0074484069149521326 0 -0.0074484069149521326 -0.025845407780001217 0 0 0 -0.0065361670623718671 0.0031783496455300431 -0.0049875862331737464 0 -0.0049875862331737464 0.0040238249720178088 0 0 0 0.0018005436543869768 -0.0022886365518277633 -0.003040666834933814 0 -0.003040666834933814 -0.012419253019205165 0 0 0 -0.003676972392758218 -0.0040449542921069115 -0.013411804475468136 0 -0.013411804475468136 -0.00035272301767660941 0 0 0 -0.0010994193274459219 -0.010672367310102016 -0.011586567428917061 0 -0.011586567428917061 -0.020235046928432143 0 0 0 -0.0077268535596335952 -0.015952325792122135 -0.0113785061335753 0 -0.0113785061335753 -0.024292611282920373 0 0 0 -0.010061234268760627 -0.010366643486297344 -0.012768148898071971 0 -0.012768148898071971 -0.0037264195185293669 0 0 0 -0.0035232657512067611 -0.015136418048390887 -0.015123517431588795 0 -0.015123517431588795 -0.0032043354082318398 0 0 0 -0.0045851883641557234 -0.015181009799229636 -0.0066420475533351397 0 -0.0066420475533351397 -0.034732691570104085 0 0 0 -0.012478425342333496 -0.010122752759059238 -0.0087191467896785002 0 -0.0087191467896785002 -0.01987070157331431 0 0 0 -0.0074983635830933523 -0.0082828384495060858 -0.0074182889777023864 0 -0.0074182889777023864 -0.034463049761332742 0 0 0 -0.010686472052709589 -0.0051857289176831523 -0.010595009471342287 0 -0.010595009471342287 -0.020825033019440053 0 0 0 -0.0065026904842808708 -0.0029695710517166352 -0.0033608063041872527 0 -0.0033608063041872527 -0.029292052398433133 0 0 0 -0.0080654058625375114 0.0012792243590943331 -0.0026117495661571039 0 -0.0026117495661571039 -0.026832493545110969 0 0 0 -0.0063883172965041868 -0.0011333116338919341 -0.0015829113839164188 0 -0.0015829113839164188 -0.026854321322357509 0 0 0 -0.0069969082390623745 6.7378962953612564e-05 2.6966128317540417e-05 0 2.6966128317540417e-05 -0.031058379278086301 0 0 0 -0.0077477500787831999 -0.00090098710945863531 0.00096647505793551192 0 0.00096647505793551192 -0.028295725942605064 0 0 0 -0.0072991782630159111 -0.00031294865156664131 0.0007485777560211071 0 0.0007485777560211071 -0.030710046447635975 0 0 0 -0.0077557487748006748 -0.0023364144636533746 0.0012031781505598693 0 0.0012031781505598693 -0.031431388010317307 0 0 0 -0.0084419506184926774 -0.0056919850317993514 -0.0017720039529716958 0 -0.0017720039529716958 -0.033635612912264579 0 0 0 -0.0098318994860159825 0.0019985231541711831 0.0035954708003548275 0 0.0035954708003548275 -0.014240909233708644 0 0 0 -0.0030605965198842958 -0.0008009482033677906 0.0031065182476801567 0 0.0031065182476801567 -0.0226332117005692 0 0 0 -0.0058585399759842338 -0.00061472867281670007 0.0050767386646483614 0 0.0050767386646483614 -0.02834250774754854 0 0 0 -0.0072393091050913516 -0.0035383787464431105 0.0086123175148885012 0 0.0086123175148885012 -0.0078589029104429997 0 0 0 -0.0028493204142214512 -0.0095131822839245039 0.0072865910278851753 0 0.0072865910278851753 -0.026504247856844576 0 0 0 -0.0090043575351923533 -0.01584411343515571 0.0044849187461195594 0 0.0044849187461195594 -0.023573129885666788 0 0 0 -0.009854310830205687 -0.0097320961759349706 0.0057984700116027188 0 0.0057984700116027188 -0.0049856424500952373 0 0 0 -0.0036794346565076214 -0.014467498711134633 0.0084057364404276913 0 0.0084057364404276913 -0.010971797002319733 0 0 0 -0.0063598239283636365 -0.011720138142349179 0.0010650826531639623 0 0.0010650826531639623 -0.033335219875146649 0 0 0 -0.011263839504373985 -0.0053360787430113965 0.004961150142927126 0 0.004961150142927126 -0.021258876667090809 0 0 0 -0.006648738852525593 -0.0081691251895493755 -0.0023210640240994285 0 -0.0023210640240994285 -0.024949931244779844 0 0 0 -0.0082797641085823048 -0.017085032071673861 -0.0031564331628263775 0 -0.0031564331628263775 -0.027903641897515929 0 0 0 -0.011247168492297427 -0.019579913216684897 -0.0054393871567822716 0 -0.0054393871567822716 -0.017092279474491656 0 0 0 -0.0091680481727941521 -0.021665992504634746 -0.0045937415948038574 0 -0.0045937415948038574 -0.023119477523818044 0 0 0 -0.011196367507113225 -0.017575996338336564 -0.002262188610751642 0 -0.002262188610751642 -0.012564853364515849 0 0 0 -0.0075352124257130892 -0.014453564769009174 -0.0014862803913844314 0 -0.0014862803913844314 -0.020228852334818172 0 0 0 -0.0086706042759568495 -0.02136465209017635 -7.7042547207195611e-05 0 -7.7042547207195611e-05 -0.018605814353943928 0 0 0 -0.0099926166110301251 -0.014780976297813581 0.00065734446224430254 0 0.00065734446224430254 -0.016939093709505193 0 0 0 -0.0079300175018296171 -0.020844443584237149 0.0018705454591098625 0 0.0018705454591098625 -0.0097465625429846714 0 0 0 -0.0076477515318054134 -0.015565862936527591 0.001466196708967249 0 0.001466196708967249 0.0093458787065401339 0 0 0 -0.0015549960574968436 -0.017810183247185918 4.3124153718640534e-05 0 4.3124153718640534e-05 -0.0060176458771696861 0 0 0 -0.0059569572810889149 -0.022774272967049897 -0.0051671610216753039 0 -0.0051671610216753039 -0.0058772177707907547 0 0 0 -0.0071628726844601698 -0.027511361339163737 -0.0028244906195855554 0 -0.0028244906195855554 -0.0076074561336909596 0 0 0 -0.0087797043682136255 -0.022083972106793415 -0.0041974905206914603 0 -0.0041974905206914603 0.011715390490537561 0 0 0 -0.0025921454040639391 -0.025528432481542421 -0.0097002441201744227 0 -0.0097002441201744227 -0.0053023051709689267 0 0 0 -0.0077076844131278438 -0.026292120414867753 -0.010462676998860332 0 -0.010462676998860332 -0.0088678628075427035 0 0 0 -0.0087899958056026073 -0.02377963456949253 -0.010378163590379817 0 -0.010378163590379817 -0.012687410764625873 0 0 0 -0.0091167613335295938 -0.022407756523733852 -0.0068984816471230337 0 -0.0068984816471230337 -0.01196041655890933 0 0 0 -0.0085920432706607826 -0.023903553098396257 -0.0081186110117579258 0 -0.0081186110117579258 -0.018455663421201418 0 0 0 -0.010589804129899349 -0.024469406796833688 -0.0057290153560947132 0 -0.0057290153560947132 -0.016110826232217906 0 0 0 -0.010145058257262925 -0.0099931854114153618 -0.016826821277823867 0 -0.016826821277823867 0.046087762644786423 0 0 0 0.0090236443083426821 0.018438685300962418 -0.0079976173231602055 0 -0.0079976173231602055 0.055387809904048159 0 0 0 0.018456623801252646 -0.0082408452647009245 -0.01433678048697784 0 -0.01433678048697784 0.039966322404405341 0 0 0 0.0079313692849260486 -0.011384720285450595 -0.008119861873850498 0 -0.008119861873850498 0.038244325945636093 0 0 0 0.0067149014150463815 -0.020169679516438777 -0.0073811706435195912 0 -0.0073811706435195912 0.037606353842052576 0 0 0 0.0043591685814034498 -0.026214453188351972 -0.0087242908497626726 0 -0.0087242908497626726 0.0086661410431299046 0 0 0 -0.0043870780363055584 -0.025572130060886183 -0.007753989607267614 0 -0.007753989607267614 0.017737882561852825 0 0 0 -0.0019585618747583744 -0.022848979495497676 -0.00097330181651072989 0 -0.00097330181651072989 0.0053030795975969602 0 0 0 -0.0043864749744751269 -0.011878052693904129 -0.0023451445403927795 0 -0.0023451445403927795 0.044292160092491706 0 0 0 0.0081035268496469359 -0.015608820606680951 -0.0031896118605580087 0 -0.0031896118605580087 0.027252389177602643 0 0 0 0.0029108921427304368 -0.01399108394448724 0.0027488912650742714 0 0.0027488912650742714 0.022763901044925622 0 0 0 0.002193204275109592 -0.015345691130330796 0.0013414100262301165 0 0.0013414100262301165 0.0095092648460458618 0 0 0 -0.0014591065710711781 -0.0018483699585266078 -0.002850471925263609 0 -0.002850471925263609 0.053260047933535337 0 0 0 0.012852919493752113 0.0025564158655019265 -0.0021198633343182532 0 -0.0021198633343182532 0.051806049588841163 0 0 0 0.013590616363585828 -0.0091537721234962177 -0.017312866294070473 0 -0.017312866294070473 0.040480695770680919 0 0 0 0.0078317309117961198 -0.015391187359342296 -0.020705321700063783 0 -0.020705321700063783 0.038164887832040556 0 0 0 0.0056934251181745103 0.025562115916000411 -0.0076306776077335889 0 -0.0076306776077335889 0.076770379053940907 0 0 0 0.025583123742485333 -0.0036707770389833305 -0.00496399312359036 0 -0.00496399312359036 0.048025227121014424 0 0 0 0.011088612520507746 -0.0165825197330563 -0.016830731685648637 0 -0.016830731685648637 0.044897887358991029 0 0 0 0.0070788419064838348 0.021931742891820837 -0.0079061061138089739 0 -0.0079061061138089739 0.065874072173635792 0 0 0 0.021951453766364159 -0.012549410994137533 -0.015121359445429028 0 -0.015121359445429028 0.059927386825081363 0 0 0 0.011844493957736013 0.029300940775407323 -0.007264195468438951 0 -0.007264195468438951 0.087956284586817937 0 0 0 0.029314306340556314 0.0047640268049658485 0.00043538709825512411 0 0.00043538709825512411 0.061283820101897257 0 0 0 0.016511961726715763 -0.015633400289957147 -0.018180568604907466 0 -0.018180568604907466 0.059080487580125199 0 0 0 0.010861771822542041 -0.0020614823743980715 -0.019462829884896227 0 -0.019462829884896227 0.045004895269304956 0 0 0 0.010735853223726721 -0.0091464448391599396 0.0076672341880126837 0 0.0076672341880126837 0.013700370126999206 0 0 0 0.0011384813219597611 -0.0064695744664126642 0.0059203963627625644 0 0.0059203963627625644 0.0207779680807475 0 0 0 0.0035770984035837228 0.0025176985199093227 0.0016277930998881973 0 0.0016277930998881973 0.059119382505648632 0 0 0 0.015409270256389468 -0.0053748132153480684 0.0092657610729837692 0 0.0092657610729837692 0.021744338616137796 0 0 0 0.0040923813501974431 -0.0036785487308281239 0.0081737584409384278 0 0.0081737584409384278 -0.0031148488557215526 0 0 0 -0.001698349396637433 0.010609792001138263 0.00095093440090232573 0 0.00095093440090232573 0.058284969742361886 0 0 0 0.017223690435875016 0.0092494125315954467 0.0030914537052191271 0 0.0030914537052191271 0.056803977924260174 0 0 0 0.016513347613963891 0.014298920441343321 -0.00083973506125273323 0 -0.00083973506125273323 0.035987683582414373 0 0 0 0.012571651005939466 -0.0013400733537107523 0.0072698463592678619 0 0.0072698463592678619 -0.0022979868585281116 0 0 0 -0.0009095150530596674 -0.0021621131110493297 -0.01834334775931068 0 -0.01834334775931068 0.04465106733252544 0 0 0 0.010622238555369118 0.03262097321904122 -0.0069232851540464366 0 -0.0069232851540464366 0.098045341257782109 0 0 0 0.032666578619205834 -0.0049038669111891586 -0.0071842669368923084 0 -0.0071842669368923084 0.067409375271117788 0 0 0 0.015626377089982268 0.005802558724454121 -0.0028894809009210043 0 -0.0028894809009210043 0.049146347685788072 0 0 0 0.013737226602560382 -0.00087484976865148667 -0.0068972928418274959 0 -0.0068972928418274959 0.016541761184467596 0 0 0 0.0039167278539538053 0.0012394048044094808 -0.0057863696344271354 0 -0.0057863696344271354 0.0095207676472419053 0 0 0 0.0026900431129127079 -0.0021088568359233228 -0.015421873121547192 0 -0.015421873121547192 0.0065419939641369051 0 0 0 0.0011082842820534511 -0.00066327609378080687 -0.014362716749220517 0 -0.014362716749220517 0.015322834058672186 0 0 0 0.0036648894912230112 -0.0008076923386498569 -0.0099783857059712044 0 -0.0099783857059712044 -0.0058734134335507449 0 0 0 -0.0016702764430499561 -0.0019661963760889689 -0.010083738256456032 0 -0.010083738256456032 -0.010270449603914766 0 0 0 -0.0030591614950008506 0.00049020127970922367 -0.0051229180945172323 0 -0.0051229180945172323 -0.0029012566367532244 0 0 0 -0.0006027638392610557 0.00043868439989056419 -0.0068749475120979398 0 -0.0068749475120979398 0.00024472390123413042 0 0 0 0.00017085207528131244 -0.0059815323279657218 -0.017999384083521974 0 -0.017999384083521974 -0.00280710287072794 0 0 0 -0.0021971587996734154 -0.0087828360348254919 -0.020896928729453257 0 -0.020896928729453257 -0.0080051684387725253 0 0 0 -0.0041970011183995459 -0.008313779703730706 -0.015770383035272451 0 -0.015770383035272451 -0.004172787420130275 0 0 0 -0.0031216417809653008 -0.015988635720158295 -0.025914112330138572 0 -0.025914112330138572 -0.0035548798217392985 0 0 0 -0.0048858788854745372 -0.014040179690463089 -0.026639887520764738 0 -0.026639887520764738 0.012093776963499975 0 0 0 -0.00048660068174075088 -0.012721752204914005 -0.022172506290583649 0 -0.022172506290583649 0.013765772961753964 0 0 0 0.00026100518920990634 -0.0057735199110572344 -0.021049237932545234 0 -0.021049237932545234 0.0023244672357676244 0 0 0 -0.00086226316882254128 0.00013988305727452577 7.7318893798361543e-05 0 7.7318893798361543e-05 0.00060620066947558726 0 0 0 0.00018652093168713968 0.00097567464020398287 0.00038804251837176729 0 0.00038804251837176729 -0.00010539293885658552 0 0 0 0.00021757042533676607 -0.0003324996166397527 0.00055464338046529171 0 0.00055464338046529171 0.0010586063600815112 0 0 0 0.00018152668586055064 0.0010519190489581831 -0.00022465833884810493 0 -0.00022465833884810493 0.00052788744598286641 0 0 0 0.0003949516237353734 -0.0040442443009447437 -0.001645903082699407 0 -0.001645903082699407 -0.0009065467964335383 0 0 0 -0.0012376977743444595 -0.0010181240429405491 -0.0030827613820403332 0 -0.0030827613820403332 -0.0049357920857278081 0 0 0 -0.0014884790321674224 -0.00035511966146639651 -0.00089784157680170007 0 -0.00089784157680170007 -0.0001599613086424867 0 0 0 -0.00012877024252744285 -0.0026095645753131929 -0.0008277679391117676 0 -0.0008277679391117676 0.0020408051973391287 0 0 0 -0.0001421898444937104 -0.0018922160216991188 -0.0047309027329965891 0 -0.0047309027329965891 -0.0020470252213022678 0 0 0 -0.00098481031075029119 -0.0050962535509121443 -0.012111755160930743 0 -0.012111755160930743 -0.011323921190519837 0 0 0 -0.004105043685358023 -0.015967955507381448 -0.019151954805937121 0 -0.019151954805937121 -0.0095267169057755563 0 0 0 -0.0063736681032893761 -0.01514411973558627 -0.011459371651820871 0 -0.011459371651820871 -0.005775208867918824 0 0 0 -0.0052298321508763568 -0.0052781473755206809 -0.0067922947483621821 0 -0.0067922947483621821 -0.0041374548630690455 0 0 0 -0.0023539005596474594 -0.003671502048675411 -0.0060624705338285789 0 -0.0060624705338285789 -0.0028479849999543672 0 0 0 -0.001629871762157363 -0.0055658071053261982 -0.0028816605379433646 0 -0.0028816605379433646 -0.0020864593969773804 0 0 0 -0.0019130666255760265 -0.0070737961639343316 -0.0048681594217461948 0 -0.0048681594217461948 -0.0027949479341149441 0 0 0 -0.0024671860245123467 -0.00045498304532942679 -0.0010416563354692652 0 -0.0010416563354692652 -0.00058679907154779443 0 0 0 -0.00026044552921922204 -0.01589788144540949 -0.0056616421606052241 0 -0.0056616421606052241 0.0012180209516192697 0 0 0 -0.0036699651234474162 -0.0080519681978891144 -0.0051947787565899128 0 -0.0051947787565899128 0.00028190284640761121 0 0 0 -0.0019425163378705701 -0.015882232039419408 -0.011006646857943614 0 -0.011006646857943614 0.00114747425914552 0 0 0 -0.003683689445068361 -0.021279839942464907 -0.0081346493717620039 0 -0.0081346493717620039 -0.0034060306407948659 0 0 0 -0.0061714676458149431 -0.022775504306694061 -0.017697690454015286 0 -0.017697690454015286 -0.0060153637152557948 0 0 0 -0.0071977170054875472 -0.010331719824708374 -0.01401838851271861 0 -0.01401838851271861 -0.0005673209539964752 0 0 0 -0.0027247601946763789 -0.019250104603039664 -0.019800702604083065 0 -0.019800702604083065 -5.0457712210238981e-05 0 0 0 -0.004825140578812448 -0.022195732429744375 -0.023378803816413662 0 -0.023378803816413662 -0.0044481248503500659 0 0 0 -0.0066609643200236102 -0.030675534146973198 -0.02059608377549571 0 -0.02059608377549571 -0.0039083682649522777 0 0 0 -0.0086459756029811756 -0.033493368040763638 -0.024390662946708233 0 -0.024390662946708233 -0.0011310308406589087 0 0 0 -0.0086560997203555257 -0.023983706903341499 -0.024478662395861717 0 -0.024478662395861717 0.0020241667537635177 0 0 0 -0.0054898850373943306 -0.027841877906608858 -0.019038341111718537 0 -0.019038341111718537 -0.00056561447203073989 0 0 0 -0.0071018730946600384 -0.025036500499101111 -0.012148623079788479 0 -0.012148623079788479 -0.0016759930301237791 0 0 0 -0.0066781233823063335 -0.036237985246288851 -0.012596985198498944 0 -0.012596985198498944 -0.0029899847845551442 0 0 0 -0.0098069925077111098 -0.029255252494576167 -0.0089376346755560832 0 -0.0089376346755560832 0.00243261994864441 0 0 0 -0.0067056581364829393 -0.033396449507548165 -0.0067435665071548532 0 -0.0067435665071548532 -0.0022502450541010965 0 0 0 -0.0089116736404125652 -0.026407439681978062 -0.0054829923892795174 0 -0.0054829923892795174 0.00021466400816949616 0 0 0 -0.0065481939184522386 -0.021419676648253394 -0.027835308782375057 0 -0.027835308782375057 0.0089165993200528426 0 0 0 -0.0031257693320501101 -0.018220643474250675 -0.02704893592006774 0 -0.02704893592006774 0.0053398738455632255 0 0 0 -0.0032201924071718624 -0.019203912815456636 -0.023452130943200922 0 -0.023452130943200922 0.022455759178725998 0 0 0 0.00081296159081722941 -0.013485973930934647 -0.026424014133792473 0 -0.026424014133792473 0.0070291432701958811 0 0 0 -0.0016142076651846082 -0.016724495785940707 -0.025746749557102253 0 -0.025746749557102253 -0.0031349449449091793 0 0 0 -0.0049648601827125827 -0.015685573260533436 -0.021806067468337464 0 -0.021806067468337464 -0.0015478428581545689 0 0 0 -0.0043083540296721123 -0.019531221123959219 -0.026887881063646146 0 -0.026887881063646146 0.0012479058551260191 0 0 0 -0.0045708288172082723 -0.023040382661834169 -0.02845761504946942 0 -0.02845761504946942 0.0036724770795584227 0 0 0 -0.0048419763955688255 -0.022441478970947032 -0.027510153467521392 0 -0.027510153467521392 5.2314743844705802e-06 0 0 0 -0.0056090618741406473 -0.023355219904950042 -0.024821377333092018 0 -0.024821377333092018 -0.00031998244390463171 0 0 0 -0.0059188005872135019 -0.027388466396152902 -0.026955305994638024 0 -0.026955305994638024 0.0027711774955786195 0 0 0 -0.0061543222251436852 -0.021839151830723269 -0.027507170445943314 0 -0.027507170445943314 0.009241003531225811 0 0 0 -0.00314953707487442 -0.021155617073135624 -0.027608459971006138 0 -0.027608459971006138 0.0092288308360306548 0 0 0 -0.0029816965592761591 -0.01647521766026705 -0.022772431551719707 0 -0.022772431551719707 0.021753360275218903 0 0 0 0.001319535653737991 -0.018859916327229498 -0.023823623738054023 0 -0.023823623738054023 0.01983232839719129 0 0 0 0.00024310301749030927 -0.012942069138220824 -0.02226340049705533 0 -0.02226340049705533 0.019112309167031771 0 0 0 0.0015425600072026535 -0.020528838989963438 -0.025995162118998549 0 -0.025995162118998549 0.012600309072120952 0 0 0 -0.0019821324794606632 -0.013832516445763878 -0.022934623943853594 0 -0.022934623943853594 0.014832416586855492 0 0 0 0.00024997503527291723 -0.014157678554211017 -0.022870912594968207 0 -0.022870912594968207 0.015177290232607721 0 0 0 0.00025490291959906486 -0.02266007561753236 -0.026896717241296442 0 -0.026896717241296442 0.0088087111459882461 0 0 0 -0.003462841117885973 -0.020391379635444573 -0.025752914444085062 0 -0.025752914444085062 0.010869730088101104 0 0 0 -0.0023804123868359506 -0.023732353079175782 -0.028834279373289085 0 -0.028834279373289085 0.0056604569141316952 0 0 0 -0.0045179740412608846 -0.027493235102433899 -0.027075208618058177 0 -0.027075208618058177 0.0029315656452464367 0 0 0 -0.0061404173642968796 -0.032603160638672912 -0.025168575623442435 0 -0.025168575623442435 0.0011340881913523455 0 0 0 -0.007867268111830087 -0.023566069813764301 -0.026774261790948578 0 -0.026774261790948578 0.0059176112304077932 0 0 0 -0.004412114645839238 -0.02792367390252759 -0.028827753033802389 0 -0.028827753033802389 0.0045226043778372471 0 0 0 -0.0058502673811725581 -0.024366737896103233 -0.025951327511373745 0 -0.025951327511373745 0.0052357293970029112 0 0 0 -0.0047827521247750943 -0.034264335427310721 -0.025371619533373191 0 -0.025371619533373191 0.0032643169415106366 0 0 0 -0.0077500046214500906 -0.033189884075188136 -0.027560240827201994 0 -0.027560240827201994 0.0077820522940563741 0 0 0 -0.0063519579452829267 -0.0084507872876639634 -0.026026793665794572 0 -0.026026793665794572 0.011214522346260081 0 0 0 0.00069093376464907097 -0.0048973989453576783 -0.020202932986883193 0 -0.020202932986883193 0.015949062064185338 0 0 0 0.0027629157797068871 -0.011245279185975066 -0.020871736197084968 0 -0.020871736197084968 0.018049875269230409 0 0 0 0.0017011490208138635 -0.023016745094137064 -0.027021430024572968 0 -0.027021430024572968 0.0090679191692922823 0 0 0 -0.0034872064812111192 -0.014445916339718756 -0.025091691593131737 0 -0.025091691593131737 0.010206810264460575 0 0 0 -0.0010597765188145036 -0.04540546930710343 -0.0094292603271731723 0 -0.0094292603271731723 0.002542588301609694 0 0 0 -0.010715720251373295 -0.059148006231198015 -0.0081360482207958329 0 -0.0081360482207958329 -0.0020967715866150247 0 0 0 -0.015311194454453315 -0.044102829486504784 -0.0080491328929255257 0 -0.0080491328929255257 -0.0026048796492261772 0 0 0 -0.011676927283932874 -0.049755962977324208 -0.007880749873526844 0 -0.007880749873526844 0.00053793258436662938 0 0 0 -0.012304507598239534 -0.04017485115422148 -0.0094863625639274168 0 -0.0094863625639274168 -0.00090911524422931933 0 0 0 -0.010270991599612644 -0.039045063267839186 -0.019876178299526037 0 -0.019876178299526037 0.0012399723309579613 0 0 0 -0.0094512727342201952 -0.041679432252739401 -0.019378973900884833 0 -0.019378973900884833 0.00030217859221959298 0 0 0 -0.010344313415130091 -0.031618523330998183 -0.020014822566902124 0 -0.020014822566902124 -0.00037569440730234049 0 0 0 -0.0079985544345750892 -0.037239285819817836 -0.025743945609709884 0 -0.025743945609709884 0.0035199811493349387 0 0 0 -0.0084298261676207797 -0.04056165247355098 -0.022143521538182553 0 -0.022143521538182553 0.0040252727529386245 0 0 0 -0.0091340949301530472 -0.041966924419034712 -0.022992246089690527 0 -0.022992246089690527 0.0018428893490864962 0 0 0 -0.010031008767487082 -0.042707641864583652 -0.025490312235356694 0 -0.025490312235356694 0.0072853157947966318 0 0 0 -0.0088555815174468158 -0.049845994216725406 -0.018688452856064242 0 -0.018688452856064242 0.0012054704477088285 0 0 0 -0.0121601309422542 -0.052197606550889508 -0.018854066000513869 0 -0.018854066000513869 0.0042745449249278478 0 0 0 -0.011980765406490346 -0.05025794090011082 -0.018563652430367672 0 -0.018563652430367672 0.0007510929893277396 0 0 0 -0.012376711977695853 -0.04677442251617106 -0.015639412162718691 0 -0.015639412162718691 0.0031430822324708396 0 0 0 -0.010907835070925104 -0.066199458206082529 -0.012813005187290061 0 -0.012813005187290061 -0.00020817089971458813 0 0 0 -0.016601907276449224 -0.062110028025071373 -0.006723682759104177 0 -0.006723682759104177 -0.0002017127582332745 0 0 0 -0.015577935195826287 -0.064448725234802162 -0.0086052159095294511 0 -0.0086052159095294511 0.0013150497953744456 0 0 0 -0.015783418859856901 -0.096773402220597216 -0.0061123988377746715 0 -0.0061123988377746715 0.0012154993881359211 0 0 0 -0.023889475708115337 -0.079718892301306687 -0.006907163805150298 0 -0.006907163805150298 0.0011900249413483444 0 0 0 -0.019632216839989558 -0.075155395742444536 -0.0049303001550873304 0 -0.0049303001550873304 -0.00030694949636139723 0 0 0 -0.018865586309701449 -0.067166997557955049 -0.015339104031261652 0 -0.015339104031261652 0.0053452254108921349 0 0 0 -0.015455443036765742 -0.062818807526761999 -0.01398551244112059 0 -0.01398551244112059 0.00069832305232697678 0 0 0 -0.015530121118608742 -0.048032053202192782 -0.020090841717149643 0 -0.020090841717149643 0.0042110561910033706 0 0 0 -0.010955249252797339 -0.048797998800030662 -0.021797310321971797 0 -0.021797310321971797 0.0084601892572542248 0 0 0 -0.010084452385694109 -0.049317996840698416 -0.020881097566512297 0 -0.020881097566512297 0.015152968964286861 0 0 0 -0.0085412569691029477 -0.058183120475937253 -0.014316947967516092 0 -0.014316947967516092 0.0012301362793109838 0 0 0 -0.014238246049156564 -0.05812353961499897 -0.014667768279652382 0 -0.014667768279652382 0.0065757069935537815 0 0 0 -0.012886958155361311 -0.071219121127716778 -0.0056646319289300751 0 -0.0056646319289300751 0.0079417033757044897 0 0 0 -0.015819354438003058 -0.067504827354776614 -0.015031045306998614 0 -0.015031045306998614 0.0069371233353308637 0 0 0 -0.015141926004861445 -0.077539080336231747 -0.0071654662309187656 0 -0.0071654662309187656 0.0014059055400853504 0 0 0 -0.019033293699036613 -0.077182174121223579 -0.0067860833578879121 0 -0.0067860833578879121 0.00055213426336142568 0 0 0 -0.019157509964465524 -0.099903958517765609 -0.0039436540569260199 0 -0.0039436540569260199 0.0021787080451547425 0 0 0 -0.024431312618152651 -0.020511640782510054 -0.024506447576560508 0 -0.024506447576560508 0.013181087797462743 0 0 0 -0.0018326382462618418 0.0013648435161960348 -0.035339251561120152 0 -0.035339251561120152 0.02669473873684125 0 0 0 0.007014895563259349 -0.021496327292541136 -0.027994347094544403 0 -0.027994347094544403 0.013556703498832867 0 0 0 -0.0019849059484270924 -0.024294604744518056 -0.025328577907794081 0 -0.025328577907794081 0.0066244809842093133 0 0 0 -0.0044175309400771856 -0.038766267814506816 -0.023793084552028679 0 -0.023793084552028679 0.0072865596619682282 0 0 0 -0.0078699270381346609 -0.037297513325799059 -0.025342821018071809 0 -0.025342821018071809 0.012086197235719853 0 0 0 -0.0063028290225197459 -0.025607726409999546 -0.029277168130865783 0 -0.029277168130865783 0.016791995375854879 0 0 0 -0.0022039327585362117 -0.039628787752100991 -0.01867012276409119 0 -0.01867012276409119 0.017482198377282154 0 0 0 -0.005536647343704737 -0.056590489062284061 -0.013367321716113947 0 -0.013367321716113947 0.0075783590238605036 0 0 0 -0.012253032509605938 -0.051624444999735168 -0.0094330739615336445 0 -0.0094330739615336445 0.012185922079936476 0 0 0 -0.0098596307299496574 -0.042379214710165591 -0.021461491058012525 0 -0.021461491058012525 0.019500461759851095 0 0 0 -0.0057196882375786795 -0.02358226213137965 -0.02468816493408706 0 -0.02468816493408706 0.024350583482183219 0 0 0 0.0001920803377008784 -0.02263972541230333 -0.023664692496736375 0 -0.023664692496736375 0.026334591678609742 0 0 0 0.00092371656657661005 -0.0048085015502871906 -0.030167179519334703 0 -0.030167179519334703 0.037179610291737886 0 0 0 0.008092777185362672 0.0098888707858711296 -0.046497666473508642 0 -0.046497666473508642 0.076042116427336451 0 0 0 0.021482746803301898 -0.09803592385115148 0.005270290481266704 0 0.005270290481266704 0.040116754706352453 0 0 0 -0.014479792286199736 0.084525754310224938 -0.044707613172115246 0 -0.044707613172115246 0.03615963756361662 0 0 0 0.03017134796846041 0.0028607250662539127 -0.00176476008884926 0 -0.00176476008884926 0.0086453176355450988 0 0 0 0.0028765106754497526 0.015947325739478047 -0.023992023943262608 0 -0.023992023943262608 0.0060853385666610749 0 0 0 0.005508166076534815 0.011857334649146054 -0.020853008279506036 0 -0.020853008279506036 0.016166452220131133 0 0 0 0.0070059467173193418 0.0071463097404099113 -0.0045072855495529029 0 -0.0045072855495529029 0.021513408920685012 0 0 0 0.0071649296652737306 0.037368856156314412 -0.015099476783356991 0 -0.015099476783356991 0.019867803268428963 0 0 0 0.014309164856185774 0.0098574932680160592 -0.0061773839396610112 0 -0.0061773839396610112 0.029659788186810754 0 0 0 0.0098793203637067024 0.011937112646649983 -0.012996319685954216 0 -0.012996319685954216 0.020502224400750557 0 0 0 0.0081098342618501351 0.006793289495899052 -0.022010299544326817 0 -0.022010299544326817 0.014025689098924876 0 0 0 0.005204744648705989 -0.047333720527666212 -0.013382780002705402 0 -0.013382780002705402 0.011438053807271087 0 0 0 -0.0089739166800987952 -0.056653551571301586 -0.015184182818810777 0 -0.015184182818810777 0.020254390562065849 0 0 0 -0.0090997902523089202 -0.045218980400544388 -0.012670033970001424 0 -0.012670033970001424 0.017401309583671892 0 0 0 -0.0069544177042181118 -0.072951663439054099 -0.015781836028731004 0 -0.015781836028731004 0.0127093039481741 0 0 0 -0.01506058987272002 -0.04614808591648635 -0.0076090196389307641 0 -0.0076090196389307641 0.026404371223455264 0 0 0 -0.0049359286732577751 -0.051461776990813224 -0.005131798759353115 0 -0.005131798759353115 0.0070157302654731135 0 0 0 -0.011111511681335035 -0.06497260933300375 -0.011953565101429989 0 -0.011953565101429989 0.074806368634201509 0 0 0 0.0024584398252994535 -0.045958715743919701 3.623904622840346e-05 0 3.623904622840346e-05 0.028002343415816984 0 0 0 -0.0044890930820256775 -0.040226709312562413 -0.0090423711685807609 0 -0.0090423711685807609 0.010113887300756075 0 0 0 -0.0075282055029515862 -0.036040662380566579 -0.0097620081271203619 0 -0.0097620081271203619 0.028937945179738217 0 0 0 -0.0017756793002070906 -0.041541113699570725 -0.0099649566451541771 0 -0.0099649566451541771 0.027506821734008261 0 0 0 -0.0035085729913906134 -0.037831013056193005 -0.012507808923563977 0 -0.012507808923563977 0.030944758303932313 0 0 0 -0.0017215636880652009 -0.037102575781365402 -0.011231312428321552 0 -0.011231312428321552 0.043260421783249771 0 0 0 0.0015394615004710758 -0.030117849220610129 -0.019550766294390304 0 -0.019550766294390304 0.031570483046668721 0 0 0 0.00036315845651464784 -0.027052887548984321 -0.021153505285199034 0 -0.021153505285199034 0.016951042832030996 0 0 0 -0.0025254611792383443 -0.03260436114921493 -0.014427043135285866 0 -0.014427043135285866 0.016781806846607766 0 0 0 -0.0039556385756518014 -0.031604063799555243 -0.017618863515306754 0 -0.017618863515306754 0.01372502700509548 0 0 0 -0.0044697591986149476 -0.034036323895642366 -0.01433155108190453 0 -0.01433155108190453 0.012481637127009698 0 0 0 -0.0053886716921581757 -0.032766111890944631 -0.017703752576483947 0 -0.017703752576483947 0.0054313579945454091 0 0 0 -0.0068336884740998124 -0.041131084521632139 -0.016320706494805895 0 -0.016320706494805895 0.012641801660669277 0 0 0 -0.0071223207152407153 -0.033151364228218433 -0.015961928908571676 0 -0.015961928908571676 0.0078003636020150813 0 0 0 -0.0063377501565508587 -0.033948725664780036 -0.01708901143591196 0 -0.01708901143591196 0.0060722839019412833 0 0 0 -0.0069691104407096777 -0.038591490603699069 -0.016430230716012607 0 -0.016430230716012607 0.0080510485835927348 0 0 0 -0.0076351105050265489 -0.031608425642262669 -0.017323002721176109 0 -0.017323002721176109 0.0020149336953300123 0 0 0 -0.0073983729867331399 -0.0328904020385416 -0.015981532345533817 0 -0.015981532345533817 0.0033890544528934474 0 0 0 -0.007375336896412038 -0.033168361268317188 -0.016141664735452393 0 -0.016141664735452393 0.0096713587349763486 0 0 0 -0.0058742506333351874 -0.027246613356715133 -0.017925444741336963 0 -0.017925444741336963 -0.00030226547297645956 0 0 0 -0.006887219707422898 -0.029133029791123616 -0.018069438807421234 0 -0.018069438807421234 0.0067030800867066143 0 0 0 -0.0056074874261042573 -0.030395514019311898 -0.017743510112045432 0 -0.017743510112045432 0.0026431103582840731 0 0 0 -0.0069381009152569423 -0.027869382896293031 -0.016651972392071362 0 -0.016651972392071362 -0.0029736372643454009 0 0 0 -0.0077107550401596305 -0.026370366002148794 -0.017518839643168471 0 -0.017518839643168471 -7.5060801573698099e-05 0 0 0 -0.006611356700930637 -0.02644640556917302 -0.012682564979890731 0 -0.012682564979890731 -0.0095957495609033661 0 0 0 -0.0090105387825191036 -0.028647510685883434 -0.014139897044430812 0 -0.014139897044430812 -0.0039630899334708869 0 0 0 -0.0081526501548385977 -0.025383897103775865 -0.013776358900533026 0 -0.013776358900533026 -0.0076119017110576059 0 0 0 -0.0082489497037084025 -0.03235529373934376 -0.012962707926895412 0 -0.012962707926895412 0.0085921232468629538 0 0 0 -0.0059407926231201946 -0.028791044352690615 -0.013327375894720231 0 -0.013327375894720231 -0.00048494024699791138 0 0 0 -0.0073189961499221246 -0.03208581945615023 -0.014386146244014075 0 -0.014386146244014075 0.0029875578198878122 0 0 0 -0.0072745654090655872 -0.029493658450050586 -0.0095876484978862087 0 -0.0095876484978862087 -0.0026177332108534013 0 0 0 -0.008027847915225983 -0.031700768777795291 -0.0099751793482787676 0 -0.0099751793482787676 0.0062403209470546228 0 0 0 -0.0063651119576851323 -0.02594719865312356 -0.0086065050457494845 0 -0.0086065050457494845 0.0082252237386298832 0 0 0 -0.0044304937286234192 -0.02707555397790104 -0.010228448759900061 0 -0.010228448759900061 0.02098889868360948 0 0 0 -0.0015216638235729107 -0.03248933347664304 -0.012598790058193698 0 -0.012598790058193698 0.016955744201570422 0 0 0 -0.0038833973187681059 -0.031416893103055843 -0.012356221690236327 0 -0.012356221690236327 0.015566148540399116 0 0 0 -0.0039626861406641956 -0.027036229965799408 -0.0090160360971733577 0 -0.0090160360971733577 0.033785073787713282 0 0 0 0.0016872109554784409 -0.0032447420884171851 -0.013522418532220692 0 -0.013522418532220692 0.032421277580017116 0 0 0 0.007294133872900066 0.015308535818402965 -0.007791221924015124 0 -0.007791221924015124 0.045998858208455 0 0 0 0.015326848506714489 -0.02222522106711447 -0.0098058720079599749 0 -0.0098058720079599749 0.03379241947742917 0 0 0 0.0028917996025786541 -0.010969124877997616 -0.016675784283702089 0 -0.016675784283702089 0.036271009339440718 0 0 0 0.0063254711153608589 -0.0050032671039543231 -0.014625954862631407 0 -0.014625954862631407 0.030659811451201668 0 0 0 0.0064141360868119057 0.0034885875473624206 -0.011996924394179043 0 -0.011996924394179043 0.027490774732546908 0 0 0 0.0077448405699773182 -0.037668875215874198 -0.012153689822894553 0 -0.012153689822894553 0.028510278491711838 0 0 0 -0.0022896491810405761 0.012495431606515848 -0.0072195240682229427 0 -0.0072195240682229427 0.037567624322580762 0 0 0 0.01251576398227415 0.0023930064947659535 -0.012691303772837836 0 -0.012691303772837836 0.02612523025561031 0 0 0 0.0071295591875940867 -0.0036903912080797907 -0.020614610899353958 0 -0.020614610899353958 0.014765776540035969 0 0 0 0.0027688463329890167 0.013602084196931041 -0.011879846399322103 0 -0.011879846399322103 0.022809904495815325 0 0 0 0.0091029971731865778 -0.043622457882735013 -0.013363333021077228 0 -0.013363333021077228 0.020244208150678136 0 0 0 -0.005844562433014247 -0.038975103746738085 -0.016872493624036033 0 -0.016872493624036033 0.011124019862597118 0 0 0 -0.0069627709710352315 -0.039730976169921411 -0.015500205359318536 0 -0.015500205359318536 0.011683415752361315 0 0 0 -0.0070118901043899895 -0.033843963335015909 -0.012080559529719245 0 -0.012080559529719245 0.023148636815315815 0 0 0 -0.0026738316299250442 
</DataArray>
<DataArray type="Float64" Name="cross_section_updated" format="ascii">
1 1 1 1 1 1 1 1 1 1 1 1 1 1 1 1 1 1 1 1 1 1 1 1 1 1 1 1 1 1 1 1 1 1 1 1 1 1 1 1 1 1 1 1 1 1 1 1 1 1 1 1 1 1 1 1 1 1 1 1 1 1 1 1 1 1 1 1 1 1 1 1 1 1 1 1 1 1 1 1 1 1 1 1 1 1 1 1 1 1 1 1 1 1 1 1 1 1 1 1 1 1 1 1 1 1 1 1 1 1 1 1 1 1 1 1 1 1 1 1 1 1 1 1 1 1 1 1 1 1 1 1 1 1 1 1 1 1 1 1 1 1 1 1 1 1 1 1 1 1 1 1 1 1 1 1 1 1 1 1 1 1 1 1 1 1 1 1 1 1 1 1 1 1 1 1 1 1 1 1 1 1 1 1 1 1 1 1 1 1 1 1 1 1 1 1 1 1 1 1 1 1 1 1 1 1 1 1 1 1 1 1 1 1 1 1 1 1 1 1 1 1 1 1 1 1 1 1 1 1 1 1 1 1 1 1 1 1 1 1 1 1 1 1 1 1 1 1 1 1 1 1 1 1 1 1 1 1 1 1 1 1 1 1 1 1 1 1 1 1 1 1 1 1 1 1 1 1 1 1 1 1 1 1 1 1 1 1 1 1 1 1 1 1 1 1 1 1 1 1 1 1 1 1 1 1 1 1 1 1 1 1 1 1 1 1 1 1 1 1 1 1 1 1 1 1 1 1 1 1 1 1 1 1 1 1 1 1 1 1 1 1 1 1 1 1 1 1 1 1 1 1 1 1 1 1 1 1 1 1 1 1 1 1 1 1 1 1 1 1 1 1 1 1 1 1 1 1 1 1 1 1 1 1 1 1 1 1 1 1 1 1 1 1 1 1 1 1 1 1 1 1 1 1 1 1 1 1 1 1 1 1 1 1 1 1 1 1 1 1 1 1 1 1 1 1 1 1 1 1 1 1 1 1 1 1 1 1 1 1 1 1 1 1 1 1 1 1 1 1 1 1 1 1 1 1 1 1 1 1 1 1 1 1 1 1 1 1 1 1 1 1 1 1 1 1 1 1 1 1 1 1 1 1 1 1 1 1 1 1 1 1 1 1 1 1 1 1 1 1 1 1 1 1 1 1 1 1 1 1 1 1 1 1 1 1 1 1 1 1 1 1 1 1 1 1 1 1 1 1 1 1 1 1 1 1 1 1 0.0020262766709601568 1 1 0.002068171142551659 1 1 0.0020972822060111433 1 1 1 1 1 1 1 1 1 1 1 1 1 0.002124062584010788 1 1 1 1 1 0.0021507620446170484 1 1 1 1 1 1 1 1 1 1 1 1 1 1 1 1 1 1 1 1 1 1 1 1 1 1 1 1 1 1 1 1 1 1 1 1 1 1 1 1 1 1 1 1 1 1 1 1 1 1 1 1 1 1 1 1 1 1 1 1 1 1 1 1 1 1 1 1 1 1 1 1 1 1 1 1 1 1 1 1 1 1 1 1 1 1 1 1 1 1 1 1 1 1 1 1 1 1 1 1 1 1 1 1 1 1 1 1 1 1 1 1 1 1 1 1 1 1 1 1 1 1 1 1 1 1 1 1 1 1 1 1 1 1 1 1 1 1 1 1 1 1 1 1 1 1 1 1 1 1 1 1 1 1 1 1 1 1 1 1 1 1 1 1 1 1 1 1 0.0021776651452322972 1 1 1 0.0022050486396386218 1 1 0.0022320191093218589 1 1 1 1 1 1 1 1 1 1 1 0.0022584860788925185 1 1 1 1 0.0022832938135193535 1 1 1 1 1 1 1 1 1 1 1 1 1 1 1 1 1 1 1 1 1 1 1 1 1 1 1 1 1 1 1 1 1 1 1 1 1 1 1 1 1 1 1 1 1 1 1 1 1 1 1 1 1 1 1 1 1 1 0.0010461639826284943 1 1 1 1 1 1 1 1 1 1 1 1 1 1 0.0010639840691393195 1 1 0.0010549032730090896 1 0.0010733024728078271 1 1 1 1 1 1 1 1 1 1 1 1 1 0.0010817234532982203 1 1 1 1 1 1 1 1 1 1 1 1 1 1 1 1 1 1 1 1 1 1 1 1 1 1 1 1 1 1 1 1 1 1 1 1 1 1 1 1 1 1 1 1 1 1 1 1 1 1 1 1 1 1 1 1 1 1 1 1 1 1 1 1 1 1 1 1 1 1 1 1 1 1 1 1 1 1 1 1 1 1 1 1 1 1 1 1 1 1 1 1 1 1 1 1 1 1 1 1 1 1 1 1 1 1 1 1 1 1 1 1 1 1 1 1 1 1 1 1 1 1 1 1 1 1 1 1 1 1 1 1 1 1 1 1 0.0010072110087001192 1 1 0.001017935599069264 1 0.00102472558477888 1 1 1 1 1 1 1 1 1 1 1 1 1 1 1 1 1 1 1 1 1 1 1 1 1 1 1 1 1 1 1 1 1 1 1 1 1 1 1 1 1 1 1 1 1 1 1 0.0010383400121271756 1 1 1 1 1 0.0010313148254253832 1 1 1 1 1 1 1 
</DataArray>
<DataArray type="Float64" Name="displacement_divergence" format="ascii">
-6.1562279983169872e-05 -6.3117500360019814e-05 -5.0702571726018467e-05 -5.3621881197413141e-05 -5.1034945957191416e-05 -5.1014185202020532e-05 -4.6021956487608496e-05 -4.9712035069218404e-05 -4.7255292356514073e-05 -4.0685160287400493e-05 -4.7165080195004927e-05 -3.8092299256805291e-05 -4.7787675527595073e-05 -4.3073356119844286e-05 -4.9663251785256614e-05 -4.7321494218678727e-05 -4.5250375567984815e-05 -5.0392770492476598e-05 -3.4480198619018119e-05 -3.4667332846144979e-05 -3.6520883160534405e-05 -4.0326435107512689e-05 -4.1320897736700473e-05 -3.6392489953457159e-05 -4.006172796493991e-05 -3.8798022124759066e-05 -4.0015779046222371e-05 -4.0049976299986766e-05 -3.3829943164397017e-05 -3.3136303811000943e-05 -3.1248365210757086e-05 -3.0936958132233116e-05 -2.8867025042849088e-05 -2.9124343643184917e-05 -3.2353001804106581e-05 -3.8230991292407763e-05 -3.7261873670472747e-05 -3.3091346372107278e-05 -3.6658479860342366e-05 -3.8472142436570737e-05 -3.3725116793607859e-05 -3.1058554502214713e-05 -3.1908540133494992e-05 -2.8241801483555701e-05 -3.2082358206823072e-05 -2.951496973898291e-05 -2.3690517058671837e-05 -2.7173734687125426e-05 -4.906334484923161e-05 -4.4945374316034221e-05 -5.2293770959422248e-05 -4.5856138078972304e-05 -4.122733786128889e-05 -4.3934589771782968e-05 -4.3037318081345681e-05 -4.414363336684309e-05 -3.8252022989152173e-05 -4.4857662919198547e-05 -3.9646678230095193e-05 -4.3164624325205597e-05 -5.0043398874863201e-05 -4.9476253151612119e-05 -4.7941044418958157e-05 -5.5811023933739252e-05 -5.7785859545083807e-05 -4.8446957227080332e-05 -5.1913576529724713e-05 -6.2026855908067124e-05 -5.2402468875170275e-05 -5.22125687932379e-05 -5.3708417424277511e-05 -6.7404381071130347e-05 -3.8669666224928122e-05 -3.734891945199903e-05 -4.5898853664741787e-05 -4.4596503166155e-05 -3.81534573728949e-05 -4.8615723969309884e-05 -4.5402140539869154e-05 -4.3620134101692498e-05 -3.8603481955488725e-05 -3.3029626538740091e-05 -3.3014003183581253e-05 -3.0382297339920496e-05 -2.8083120458775721e-05 -3.8077567035594702e-05 -2.3972513612670735e-05 -2.6285313964125453e-05 -2.5709834812255992e-05 -1.845608940634382e-05 -2.1522575244039755e-05 -2.2302183838183491e-05 -1.5737996988132895e-05 -1.3469238348510555e-05 -3.1514754842313286e-05 -3.3854828004485985e-05 -2.4604694103467489e-05 -2.5568786369376228e-05 -2.8509638528248255e-05 -3.0837740295662258e-05 -2.0972373486302556e-05 -2.882610266840838e-05 -4.0859581696096263e-06 -2.100653168332727e-05 -1.4184575304223516e-05 -8.9421235610019081e-06 -1.0725918890278879e-06 -3.4810632578338968e-06 -4.5204959167863051e-06 -4.2281589734856893e-06 1.3980721989028809e-05 -2.0769745211234969e-05 -1.6172250372613111e-05 -1.4618576849452524e-05 -2.8935025197649583e-05 -2.8204218864258629e-05 -3.7554045134321085e-05 -4.4340231868060368e-05 -4.5220555144186538e-05 -5.327393898365559e-05 -6.6340875230041943e-05 -5.543667375816966e-05 -5.3461861862457868e-05 -5.765807903078163e-05 -5.1171748422357808e-05 -6.8684643487713101e-05 -5.6139794489784453e-05 -4.3576643516920419e-05 -3.6159706898608589e-05 -4.4139338088199776e-05 4.5659540902304803e-06 -1.2594964742307276e-07 -2.5095978957793874e-06 -2.527739894470163e-06 1.1725340213986678e-06 8.6303887299319909e-06 2.5314878271773418e-06 1.3760659423009988e-06 2.1532289491836925e-06 4.6622367647159639e-07 -3.9902725247116945e-06 1.0071212228174818e-06 6.2887352274931362e-08 2.2649930977880093e-06 3.7586678536792877e-06 4.3258858365333223e-05 5.9103856464143821e-07 2.0339814450192776e-05 -1.0309071154205479e-06 3.8842582777496432e-05 1.79082433469728e-05 3.6784525817162969e-05 9.5654799943019353e-06 7.0233302432387513e-06 1.2780122643910079e-05 -1.4378756145237434e-06 -3.0970002621033419e-06 4.8247400521241011e-06 -3.0741218317927737e-06 7.8973829231187057e-06 -8.5905467845620966e-06 2.1274032144076382e-06 -4.1958681596233901e-06 -6.471264977564941e-06 -1.0496308689050039e-05 -7.4300340667616882e-06 -9.173766923679282e-06 -9.2769881703304855e-06 -1.5340146801609838e-05 -1.3899569189621246e-05 -1.5632768800320737e-05 -1.9086836983654967e-05 -2.0764534259678435e-05 -1.118574001315866e-05 -1.1316594922169181e-05 -1.2684659425387642e-05 -1.4451742824564083e-05 -9.53981904467297e-06 -1.1510706445830138e-05 -6.4037410040241009e-06 -9.0994328987221407e-06 -8.6004980358467236e-06 -3.9791774545856078e-06 -8.7722018615496959e-06 4.3595181900907889e-07 -2.9456889322394745e-06 -6.1395935968678993e-06 2.8558110971914334e-06 -6.0588030439921183e-06 1.1003865877574512e-05 -3.0028440731349641e-06 5.7452736859325206e-06 -3.2412514115602071e-06 1.4900011268119118e-06 4.1734334807121803e-06 -4.97668808658509e-06 -1.7031549714807186e-06 -2.7041286607711442e-06 -6.4938282785902158e-06 -1.2397123156126641e-05 -7.8487811813507635e-06 -8.5619368206522368e-06 -1.2120738133069767e-05 -1.3875708844256063e-05 -1.18565800113672e-05 -9.5591367048182701e-06 -1.4254695758973773e-05 -1.3924331773167761e-05 -1.7065497915252188e-05 -1.2855003184585518e-05 -1.4703193840391151e-05 -1.0588740826999295e-05 -1.3108473067965322e-05 -1.0714221858154657e-05 -2.0773018045220699e-05 -2.0152485383222841e-05 -2.2994821189371664e-05 -1.953641764915006e-05 -1.701495131659719e-05 -1.5834045360650502e-05 -1.5924708651445856e-05 -1.3869672683239141e-05 -1.6840828145958352e-05 -1.839081909815337e-05 -1.7240127667314977e-05 -1.8443500163324439e-05 -2.0842786623507246e-05 -2.4514474429239244e-05 -2.4856626935378226e-05 -2.4271062115658678e-05 -2.7308783941204273e-05 -2.6899695220320434e-05 -2.8680973879115707e-05 -2.7588088088960813e-05 -2.2603108273379547e-05 -2.5437782383308917e-05 -2.2442669692551149e-05 -2.1897003735357439e-05 -2.0123875301744148e-05 -1.8549404948614959e-05 -2.1029426067906211e-05 -2.1713460789031958e-05 -2.3274926545634526e-05 -2.555401675036082e-05 -2.866876203476445e-05 -3.0050316753774863e-05 -1.4933002835287976e-05 -1.3426348283109292e-05 -1.5703457147076103e-05 -1.5801421057548088e-05 -1.8081149559915483e-05 -1.6591529334459712e-05 -1.854898730299332e-05 -1.8427552340769986e-05 -1.5706051192307892e-05 -1.6089320195516627e-05 -1.4064545446233757e-05 -1.5741992935316214e-05 -1.5871983375375742e-05 -1.3889261353037753e-05 -1.5192469412131242e-05 -1.1853549313880849e-05 -1.6433592216251339e-05 -1.373188406468282e-05 -1.3546969387169901e-05 -1.3937738092302125e-05 -1.5462443906859928e-05 -1.3064014702972103e-05 -1.4278624423877453e-05 -1.5811007471758789e-05 -1.8432108672047282e-05 -1.53932806782562e-05 -1.6144863872843234e-05 -1.2684604198865922e-05 -1.3842589757600073e-05 -1.7262609430414785e-05 -1.8740957370063942e-05 -1.7751999904974368e-05 -2.2003931718121437e-05 -2.7320194436382023e-05 -2.813205487568987e-05 -3.5019949227304389e-05 -3.0344536062826787e-05 -2.7769423250501641e-05 -2.3848401433220862e-05 -3.1567126724000506e-05 -2.3732339787605763e-05 -2.0305433679712194e-05 -1.721790557963415e-05 -1.7719656740620017e-05 -1.7680864420356058e-05 -1.2670813277693372e-05 -2.3035442652387471e-05 -2.6728583397016208e-05 -2.3701788199664464e-05 -2.1080362619629773e-05 -3.0732800531953704e-05 -2.2901799263461679e-05 -1.820817526136333e-05 -1.9946304007132966e-05 -9.0596634634811613e-06 -1.6213905410629407e-05 -1.7676945136311105e-05 -1.3187171099102984e-05 -1.4153996842033343e-05 -9.8419474802874711e-06 -1.702076896451058e-06 -5.5225613517153765e-06 -4.0373360834936483e-06 -9.9367926957086961e-06 -6.433705958351626e-06 -1.2629574998332887e-06 -7.4611587556705988e-06 -2.5975315556846774e-06 -8.4515437608782307e-06 -1.0430230383808561e-05 -1.0956519653692855e-05 -9.6027926737205673e-06 -1.3519255199584111e-05 -1.1748347301346475e-05 -1.3890722112304977e-05 -1.354460105975572e-05 -1.5338133858991109e-05 -1.1515818442147402e-05 -1.1065833699182735e-05 -7.5988702032588697e-05 -7.1614602752110535e-05 -6.8729160751698992e-05 -6.3497408144166364e-05 -6.9309289117563437e-05 -8.4241709465232719e-05 -8.7127275323043885e-05 -7.4042443035092926e-05 -6.9002992607876184e-05 -6.241983139799861e-05 -6.9027908974344986e-05 -6.8995902633784624e-05 -6.4945794301842855e-05 -5.2981257478325085e-05 -5.9067452933462812e-05 -7.1091199692422646e-05 -4.9690490138475502e-05 -6.6895490377064492e-05 -5.2066989368856148e-05 -5.2128481415624968e-05 -5.1375777684835483e-05 -5.1918116161037102e-05 -5.3668371752804615e-05 -4.7856217986052688e-05 -4.5132508712230571e-05 -4.3185148500070368e-05 -4.2612097782543162e-05 -3.7186840489967344e-05 -3.2963733671738829e-05 -3.7034405311971572e-05 -3.9363046528374309e-05 -4.0560821478808505e-05 -3.4408764198879138e-05 -2.9341232316091246e-05 -4.0178469756002245e-05 -3.0109922032627866e-05 -3.5038708685386239e-05 -4.1300527015675228e-05 -2.8177121891908051e-05 -3.8084868455440913e-05 -3.4734952990608475e-05 -5.4267602938651393e-05 -5.2397797348423398e-05 -4.9990563255297019e-05 -3.8692666697249607e-05 -4.9390705528860703e-05 -6.1957974012195202e-05 -5.5406178042450077e-05 -6.5120415878281722e-05 -5.8212659946530127e-05 -6.5188352893130597e-05 -5.0361095445357158e-05 -6.0754501610897318e-05 -8.0425659104122886e-05 -8.2639529012032767e-05 -9.1423723707793178e-05 -7.4904261019004682e-05 -8.2215711069669439e-05 -6.5484697674528377e-05 -7.6693142959808832e-05 -6.5638917193631561e-05 -9.2652527094763432e-05 -0.00012509874450748916 -8.8347302712239593e-05 -8.9705199696961261e-05 -0.00011066528813259089 -0.00010012389529657976 -7.7750584661381584e-05 -8.4985373340117055e-05 -8.2405665522075188e-05 -6.1885830786310915e-05 -6.3823588482834256e-05 -5.712984135394144e-05 -5.8739350269150091e-05 -7.1356616896012774e-05 -6.1844216235628645e-05 -3.4042494240977324e-05 -2.3759970971508451e-05 -2.1873098888887176e-05 -5.2289688093264903e-05 -3.9839483428924315e-05 -5.6227616929967685e-05 -4.5746064414001902e-05 -4.1978123686882043e-05 -2.8729481153727039e-05 -4.0627297814916475e-05 -2.9274733502894645e-05 -1.4906532209456216e-05 -2.3289040442126156e-05 -1.072463635206234e-05 -2.4368293940810597e-05 -1.2276513848748086e-05 2.5885053817546299e-06 -1.8072834972132274e-05 1.7237145676237374e-07 2.9291843601797767e-06 2.8279128769669276e-05 2.7254889295470725e-05 -2.7432564523483275e-06 -8.3044009973567057e-06 3.1985142057672266e-05 7.4508493336228842e-05 6.2739201120442454e-05 7.2652880523064707e-05 3.6382290820163258e-05 1.5236955056769605e-05 2.5118078867488467e-05 1.0887613586593595e-05 -1.7230932301537318e-05 -2.2126059297766483e-05 -3.0273380606095075e-05 -4.3369069388958363e-05 -1.8007428475030635e-06 -4.0091929625250408e-05 -6.8192520411789847e-05 -7.2208664332902095e-05 -5.08820866576751e-05 -6.1001963646151395e-05 -5.2839078754397697e-05 -7.9491544030798385e-05 -5.8368340527902691e-05 -7.3113208215886565e-05 -9.1884731153049756e-05 -9.3001536596427014e-05 -0.00012437923250007343 -0.00010046528285486409 -0.0001292288428225019 -0.00010481827149945452 -8.5402070032333644e-05 -9.8061365116956128e-05 1.3243371602195963e-05 1.8849828723016407e-05 1.9700083709167969e-05 1.8016780459731413e-05 1.4683422969909851e-05 5.7037357480931141e-06 1.9615353824679294e-06 1.2168238240032624e-05 -2.0232679931829879e-06 4.926884024386368e-06 -6.7352402402334471e-06 3.7325919746323732e-06 -3.2977800360600657e-06 3.4814442897223381e-06 6.8106398754016109e-06 8.7954524385629325e-07 -2.1598052030243645e-06 -9.0358555981816431e-06 3.8661984790024323e-06 9.5250971502309221e-07 9.84012135835666e-06 -9.5908737663287621e-06 -2.4305387669137885e-06 6.2633884621836485e-06 1.517127817487446e-05 2.888769717962925e-05 1.4650980355078168e-05 1.9149769561290149e-05 1.9247603831979725e-05 3.0398485896027219e-05 4.127633986334404e-05 5.8554209004187135e-05 6.485363249320703e-05 5.6312463191796698e-05 4.4374714127420412e-05 5.1056087490606076e-05 6.8687897418408657e-05 6.5859231881896423e-05 0.00013863496729664082 0.00018125170321776126 0.00017294902504320187 0.00010486799937346205 3.7966129318163547e-05 6.2345946206549907e-05 9.0449966685154085e-05 3.7237709474245177e-05 4.2894001914897168e-05 4.9000163734606479e-05 2.429437152414124e-05 4.0148969438423047e-05 1.3996800732192418e-05 3.0268558523746677e-05 1.3644306823170271e-05 3.257953969321981e-05 5.929781130698634e-06 1.8198091822367653e-05 1.8779373039653422e-05 1.3643328334785488e-05 6.088212538826179e-06 2.9370748579848138e-05 8.3650439977935731e-06 1.6390271818027231e-06 1.2519091656834689e-05 -5.2930587586127943e-06 -1.0049853819390842e-05 -1.0667667621961686e-06 2.2123335926743317e-07 -1.4056625806898573e-05 -1.4534177166397621e-06 -1.0157071256947152e-05 -3.8104123754504975e-06 2.0992589901949288e-05 1.7813972015887376e-05 1.2262232911331354e-05 1.8304659514767776e-05 3.7051934121975756e-05 4.1289285021128271e-05 5.8470801057435419e-05 0.00019212357350310695 -5.9496637637685451e-06 5.2290168058604565e-05 0.00017981860945477193 8.7423822901975843e-05 0.013207556763872644 0.00016557763874611858 6.6949486193846981e-05 0.034079129328191446 -8.2437023744518623e-06 6.204329068947175e-05 0.048630307310848053 1.9248777839395463e-06 3.1900398110600546e-05 -8.3129594785649697e-06 7.977303719238014e-06 2.3427239802540148e-06 -2.2088406373537979e-07 -6.0533283457665148e-06 1.7127797032771055e-05 1.6528908652920865e-05 1.5449969373127837e-06 2.7332842613230195e-05 5.1450823605865992e-05 6.1384155700480985e-05 0.062013742347745635 4.9833092429472058e-05 5.0749028743765504e-05 3.3876027376579911e-05 4.9603609413182738e-05 3.1795407255166266e-05 0.075357492244985433 4.962243395955886e-05 3.9946946058848977e-06 -5.9908945907294993e-06 2.6697722592910507e-05 9.5398897980814392e-06 6.3382467238813894e-06 -1.3845715143819042e-05 -9.9183598175184816e-06 -7.4842939900136331e-06 -1.7232440971374125e-05 -1.5295023887626057e-05 -2.0750678603283039e-05 -2.1007661885306814e-05 -1.8880672126421504e-05 -1.7992799045502246e-05 -1.4441416201840156e-05 -1.9764647454143653e-05 -1.2203081875800429e-05 -1.2914608146037318e-05 -1.4518853615616328e-05 -1.3465685616723287e-05 -9.0470732950355258e-06 -7.9974430036541767e-05 -8.3769842261468067e-05 -6.1640997120719502e-05 -0.00010760645351573983 -0.00011124548120783036 -8.2214462181118202e-05 -8.1202076469396841e-05 -5.8228801007271158e-05 -4.558208857198293e-05 -2.452590191444684e-05 -5.3379935741196e-05 -3.8384324745260173e-05 -6.2111308736431062e-05 -4.1788528084671654e-05 -2.8720801325444892e-06 -2.073817989701218e-05 1.9783109177987177e-05 -1.9195859414319503e-05 -4.2046106265889545e-05 -3.1254071031283973e-06 -8.5579347876996051e-06 4.0468085984442974e-05 8.1392068777659792e-05 5.0879265359254954e-05 5.4483582663032975e-05 1.2336963324744571e-05 2.345404928766749e-05 3.7356409751555276e-05 1.3106021979755939e-06 -4.2205223328810326e-06 1.9226720019207243e-05 1.5307230226826096e-05 2.1581719064259208e-05 3.559533902329666e-06 -1.7453839029251197e-06 -5.7209103684991922e-06 -1.8080040404673032e-05 -1.6198033231346314e-05 -1.9610515237654391e-05 -3.1916523665443362e-05 -1.6569609724862312e-05 -1.2151536140166293e-05 -2.8904127487919479e-05 -2.9078388545247715e-05 -4.7814616454405073e-05 -4.3399628631931838e-05 -4.5199952903178346e-05 -4.3318410855065553e-05 -2.8798164812826165e-05 -2.8434903611851013e-05 -2.8044766847299708e-05 -4.3466475486446041e-05 -4.0315897957109246e-05 -4.6470243930375743e-05 -3.2311727058686622e-05 -4.7400944826826545e-05 -6.731808258548513e-05 -6.2301559910074534e-05 -5.9261294918038897e-05 -6.3144229922473696e-06 -2.2723879749033705e-05 -1.3029179061366768e-05 -1.2931417417191837e-05 -2.4331246722489926e-05 -3.0709908912582642e-05 -4.1483079032832507e-05 -3.0166563204094997e-05 -2.8652696403859597e-05 -2.2460409829430129e-05 -3.0023752831907606e-05 -2.1970640337752503e-05 -2.0615777954733055e-05 -2.2213003199158914e-05 -1.0279371361299541e-05 -1.3654850956027094e-05 -1.3295595396705003e-05 -1.2658933849117419e-05 -2.0143937092972474e-05 -2.3659486813767776e-05 -1.8168681365179603e-05 -2.1553848732404454e-05 -1.304948308325759e-05 -1.6829841136600798e-05 -3.1843912571475729e-06 4.7031462734317339e-06 -9.3286036063179936e-06 -8.664366387984429e-07 2.7360702455823255e-05 -4.3215244898212046e-07 1.359952980849741e-05 -6.1507900837622087e-06 2.5101924811393728e-06 9.8755522857747399e-06 6.614397442938208e-06 8.8926576273500187e-06 1.0338110676518658e-05 2.5570080118686792e-05 2.3865993323593168e-05 1.8291580999760636e-05 2.4126750015323467e-06 -1.082849934471667e-06 -6.0306341018315571e-06 4.8699843566363601e-06 -8.9851168740212942e-06 -4.2290727988135435e-06 -1.191152198343334e-05 -1.1447067029289821e-05 -2.1045962739277106e-05 -1.7311950974384469e-05 -7.4234092927389153e-06 -5.5920326180918314e-06 -1.2661410388016287e-05 -1.4424946366822441e-06 3.0605005966938724e-07 -4.6435442137282568e-08 -4.565005594384542e-06 -3.7563749723202797e-06 1.5670445877042499e-06 7.8018356667024918e-07 8.5574365710737454e-07 6.4006676273411535e-07 -7.9554657345104474e-07 -5.9452458714068235e-06 -8.6087583042173885e-06 -1.7701193201316015e-05 -3.2033626641111068e-06 -1.0190664956150563e-05 -1.7442054083297133e-05 -2.6692109140184555e-05 -2.1195576074910379e-05 -2.5800433222001381e-05 -2.5709406094084637e-05 -2.1971737236254924e-05 -2.4286168333605631e-05 -1.8955797797163697e-05 -2.0140319781801117e-05 -1.9856256595644751e-05 -6.3039612517668073e-06 -1.2432314037520481e-05 1.2418287818006938e-05 4.1209929730182766e-05 5.1723879544192733e-05 1.1881711863836531e-05 3.1900185433229172e-05 5.9661901905978636e-05 4.3530630413627291e-05 0.08880287044992248 1.5581979614825645e-05 5.8446595628332872e-05 4.8311030961261596e-05 0.10249045709183538 5.2448043404202944e-05 4.9944445180816373e-05 0.11595116758449579 3.9049377904449255e-05 1.8761258429591019e-05 5.8843303844600622e-05 6.7440857767935881e-06 1.5866418704016784e-05 2.3489776029974566e-05 1.0405407561825874e-05 6.0332449314207982e-05 6.8620137456100027e-05 2.3951787052133022e-05 6.4448324198059827e-05 0.12926246268038807 7.1548727265492241e-05 5.8829759424957641e-05 5.6949026671609948e-05 5.3662602963082135e-05 0.14134962880085888 7.0311377505741929e-05 6.6404666304753081e-05 6.6025409859849339e-06 7.7623942392053579e-05 7.2872820728241529e-05 6.3203507878422868e-05 8.2464968408838121e-06 -1.6340417655929585e-05 4.5013591359674551e-06 -9.1924309818956449e-06 -2.7485483186146014e-06 -1.931713389908391e-05 -2.5153085671901628e-05 -8.8081643780165298e-06 -1.1462970910389256e-05 -3.1196063355833564e-05 -1.8745908957733467e-05 -2.6716180131773951e-05 -1.6256726210702116e-05 -2.0163514656343709e-05 -1.5970793241260571e-05 -1.7492270597655917e-05 -1.9369375196958121e-05 -1.8247945657539664e-05 -1.9389371937001787e-05 -2.110487654623152e-05 -2.4579748715040104e-05 -7.6514912997110514e-06 -1.4646349939960793e-05 -1.8098272762728232e-05 -7.123301035553628e-06 -2.2510893837980736e-05 -2.4635777075514189e-05 -9.1985866412689309e-06 -1.5899559820908995e-05 -2.8159598760934808e-05 -1.6621847131313857e-05 -2.0699410271455914e-05 -2.8117921230743628e-05 -2.2920120431985515e-05 -2.7990918767782972e-05 -1.8838031064282736e-05 -2.1676510689892136e-05 -2.4981541527575152e-05 -1.982504375457419e-05 -1.9119378829513824e-05 -3.8874901437420525e-06 -1.48923932027223e-05 -1.790718171115047e-05 -2.1949260920534042e-05 -6.4803635101597367e-06 -1.9269211032819564e-05 -2.1974989514006557e-05 -2.2791903333824063e-05 -2.1480108176652041e-05 -2.647451032474846e-05 -2.5362645643157338e-05 2.2559110770857234e-05 0.046141559503131618 1.9828423212315508e-05 1.6787253537615802e-05 1.0897921453508494e-05 -1.0967695090763774e-05 -4.8964046868958666e-06 -1.096618743618783e-05 2.0258817124117442e-05 7.2772303568260401e-06 5.4830106877739909e-06 -3.647766427677902e-06 3.2132298734380206e-05 3.3976540908964444e-05 1.9579327279490221e-05 1.4233562795436431e-05 0.063957809356213313 2.772153130126923e-05 1.7697104766209275e-05 0.054878634415910392 2.9611234894340224e-05 0.073285765851390794 4.1279904316789389e-05 2.7154429556355558e-05 2.6839633059317063e-05 2.846203304899533e-06 8.9427460089590988e-06 3.8523175640974038e-05 1.0230953375493591e-05 -4.2458734915936693e-06 4.3059226089687251e-05 4.1283369034909759e-05 3.142912751484848e-05 -2.273787632649433e-06 2.6555596388422743e-05 0.081666446548014582 3.9065942724955845e-05 3.4343066506401128e-05 9.7918196348845826e-06 6.7251077822817696e-06 2.7707107051331203e-06 9.1622237280574066e-06 -4.1756911076254802e-06 -7.6479037375021004e-06 -1.5069095981525178e-06 4.271301882028127e-07 -5.4928969991838682e-06 -1.0492502795998813e-05 -7.8041044524132259e-06 -1.2214697213686499e-05 -1.216501704351874e-06 6.5251297302502606e-07 -2.1556579220560236e-06 4.6630232921891605e-07 5.439260633414468e-07 4.5381671465149805e-07 9.8737905933777431e-07 -3.0942444358616691e-06 -3.7211975804176713e-06 -3.2192560631832956e-07 -3.554746112340678e-07 -2.4620257768760398e-06 -1.0262609213395474e-05 -1.5934170258223319e-05 -1.3074580377190823e-05 -5.8847513991185443e-06 -4.0746794053934509e-06 -4.7826665639402158e-06 -6.1679650612805198e-06 -6.511138230477255e-07 -9.1749128086188701e-06 -4.856290844676165e-06 -9.2092236126717136e-06 -1.5428669114537434e-05 -1.7994292513718452e-05 -6.8119004866906523e-06 -1.2062851447030686e-05 -1.665241080005893e-05 -2.161493900745274e-05 -2.1640249300888814e-05 -1.3724712593486286e-05 -1.7754682736649584e-05 -1.6695308455765652e-05 -2.4517481269277844e-05 -1.6764145341207444e-05 -2.227918410103091e-05 -1.637048479613025e-05 -7.8144233301252709e-06 -8.0504810179291616e-06 2.0324039770431256e-06 -4.0355191629612083e-06 -1.2412150456781422e-05 -1.0770885074180402e-05 -1.1427072043020906e-05 -1.2104940988922393e-05 -1.4022654685351594e-05 -1.4797001468034449e-05 -1.5385805562859233e-05 -7.873842687186345e-06 -7.4542413981905538e-06 3.2988391343446869e-06 6.077575437262242e-07 3.8564000180061307e-06 -4.955331198651684e-06 6.2493758818209368e-07 6.372572989978096e-07 -8.6571027947150367e-06 -5.951030967089703e-06 -1.129493510315244e-05 -1.5351043410742268e-05 -1.966817027957507e-05 -1.1030286614598355e-05 -1.4625668452931777e-05 -1.195688031193788e-05 -1.9375011553624997e-05 -1.5879894863207516e-05 1.7273344116229376e-06 6.9072894492671873e-06 4.2528725520346936e-06 -8.7180162030277503e-06 -2.6494412970366407e-06 -2.6789300628433325e-05 -3.8277986136133228e-05 -2.9192318209832088e-05 -3.0761268995598608e-05 -2.5677478999031403e-05 -2.3628181835550887e-05 -2.5860783537825062e-05 -1.9996386086437766e-05 -2.1074565419051906e-05 -2.2835237325382566e-05 -2.5077521918717965e-05 -2.2138953793617028e-05 -3.0400327355635221e-05 -2.9951913516225838e-05 -3.0941779944239443e-05 -2.7269587677312751e-05 -4.150476819112371e-05 -3.8944837989565283e-05 -3.9458547149642028e-05 -5.9723689270288439e-05 -4.9080542099974025e-05 -4.7163965774253778e-05 -3.8638607591914571e-05 -3.8825302796521833e-05 -2.7388123131993685e-05 -2.521113096423536e-05 -2.1353142422757558e-05 -3.5595615122891453e-05 -3.2217395388403245e-05 -3.9548386095007509e-05 -3.7854815012153611e-05 -4.7583234247591507e-05 -4.7893774911163798e-05 -6.1078281545381627e-05 -4.5815956156544831e-06 1.7537238908148234e-05 -4.9622648710676763e-06 -1.1043827350192827e-05 -1.9674817595336609e-05 -1.575707255629938e-05 -5.5098318963403656e-06 -1.3841618359261912e-05 -3.0632581274014979e-05 -2.4649076824874073e-05 -1.4299220593946599e-05 4.8020084425222202e-07 2.3092914164414688e-06 2.0231942963406635e-05 5.3706867008254616e-05 -3.6199480715499359e-05 7.5428369921151e-05 0.0071912766886243823 1.377041519133712e-05 1.7514866793298374e-05 0.017912324163184324 3.5772912140464501e-05 0.024698300909266755 2.0274585654625303e-05 1.3011861621764985e-05 -2.2434791700246914e-05 -2.2749475630772311e-05 -1.7386044260545369e-05 -3.7651474681800034e-05 -1.2339821683144477e-05 -2.7778779203337586e-05 6.1460995632486013e-06 -1.1222732705064182e-05 -1.8820513757378965e-05 -4.4391982505177303e-06 -8.7714324784765245e-06 -4.3039092201629746e-06 3.8486537511777106e-06 9.0789614128667544e-07 -6.3136529480958589e-06 -9.8890964391294548e-06 -1.1174397996537418e-05 -1.3471679230395487e-05 -1.7084221185249489e-05 -1.780580178810181e-05 -1.5844375391376993e-05 -1.742277610177422e-05 -1.9087776262566476e-05 -1.8495932466832798e-05 -1.8438342241030236e-05 -1.4685626583338097e-05 -1.7218049268557275e-05 -1.4018718565260598e-05 -1.7345252288142299e-05 -1.9276887600399135e-05 -1.6528391752326598e-05 -2.2526346956297874e-05 -2.0381625387096473e-05 -2.0622374259270927e-05 -1.485198155780045e-05 -1.8297490374805396e-05 -1.8186413522663979e-05 -2.0069619788064838e-05 -1.5912779894212774e-05 -1.107623432155863e-05 -3.8041595589324113e-06 -9.7084932969202214e-06 -9.9067153516603501e-06 4.2180273886960264e-06 1.8235334682249922e-05 0.038317121266786221 7.2294990064466049e-06 1.5813677788401948e-05 1.6035340217029751e-05 1.9362101424943512e-05 -5.7241229526013623e-06 0.031289409955685375 1.7823897968985121e-05 6.9221158324725461e-06 2.2757492932966457e-05 -1.461140608253568e-05 -1.7406927427588112e-05 -1.7529725260974935e-05 -6.6845790748125346e-06 
</DataArray>
</CellData>
</Piece>
</UnstructuredGrid>
</VTKFile>
