<?xml version="1.0"?>
<VTKFile type="UnstructuredGrid" version="0.1" byte_order="LittleEndian">
<UnstructuredGrid>
<Piece NumberOfPoints="3142" NumberOfCells="1054">
<Points>
<DataArray type="Float64" NumberOfComponents="3" format="ascii">
0 0 0 0.049999999999899652 0 0 0.02576622439977887 0.024532886826226379 0 0 0 0 0.02576622439977887 0.024532886826226379 0 0 0.050000000000207989 0 0.049999999999899652 0 0 0.053064897599215843 0.048131547304697528 0 0.02576622439977887 0.024532886826226379 0 0 0.050000000000207989 0 0.02576622439977887 0.024532886826226379 0 0.053064897599215843 0.048131547304697528 0 0 0.10000000000041601 0 0 0.050000000000207989 0 0.044310582753132287 0.101412518374475 0 0 0.15000000000062411 0 0 0.10000000000041601 0 0.044310582753132287 0.101412518374475 0 0.083411279318303222 0.089699755330707398 0 0.044310582753132287 0.101412518374475 0 0.053064897599215843 0.048131547304697528 0 0 0.050000000000207989 0 0.053064897599215843 0.048131547304697528 0 0.044310582753132287 0.101412518374475 0 0.083411279318303222 0.089699755330707398 0 0.065374659239632718 0.1448908038746782 0 0.044310582753132287 0.101412518374475 0 0.083411279318303222 0.089699755330707398 0 0.1053400320299198 0.12877248826361379 0 0.065374659239632718 0.1448908038746782 0 0.083411279318303222 0.089699755330707398 0 0.12372429750337779 0.095814237875728972 0 0.1053400320299198 0.12877248826361379 0 0.14332333627550789 0.14578431753966009 0 0.1053400320299198 0.12877248826361379 0 0.12372429750337779 0.095814237875728972 0 0.14618258501891079 0.062070108745602003 0 0.12372429750337779 0.095814237875728972 0 0.10266856499169109 0.044518360900210059 0 0.083411279318303222 0.089699755330707398 0 0.10266856499169109 0.044518360900210059 0 0.12372429750337779 0.095814237875728972 0 0.099999999999814668 0 0 0.14999999999970359 0 0 0.10266856499169109 0.044518360900210059 0 0.049999999999899652 0 0 0.099999999999814668 0 0 0.053064897599215843 0.048131547304697528 0 0.099999999999814668 0 0 0.10266856499169109 0.044518360900210059 0 0.053064897599215843 0.048131547304697528 0 0.083411279318303222 0.089699755330707398 0 0.053064897599215843 0.048131547304697528 0 0.10266856499169109 0.044518360900210059 0 0 0.25000000000104028 0 0 0.20000000000083221 0 0.044081577119474857 0.2271058242433576 0 0 0.20000000000083221 0 0.038512288486115001 0.1844147282893184 0 0.044081577119474857 0.2271058242433576 0 0.083105206071467416 0.20007701332709979 0 0.044081577119474857 0.2271058242433576 0 0.038512288486115001 0.1844147282893184 0 0 0.15000000000062411 0 0.065374659239632718 0.1448908038746782 0 0.038512288486115001 0.1844147282893184 0 0 0.15000000000062411 0 0.044310582753132287 0.101412518374475 0 0.065374659239632718 0.1448908038746782 0 0.083105206071467416 0.20007701332709979 0 0.038512288486115001 0.1844147282893184 0 0.065374659239632718 0.1448908038746782 0 0 0.20000000000083221 0 0 0.15000000000062411 0 0.038512288486115001 0.1844147282893184 0 0.065374659239632718 0.1448908038746782 0 0.1053400320299198 0.12877248826361379 0 0.106902708054812 0.16453234188234539 0 0.14332333627550789 0.14578431753966009 0 0.106902708054812 0.16453234188234539 0 0.1053400320299198 0.12877248826361379 0 0.083105206071467416 0.20007701332709979 0 0.065374659239632718 0.1448908038746782 0 0.106902708054812 0.16453234188234539 0 0.083105206071467416 0.20007701332709979 0 0.13737030665753211 0.20313708640667491 0 0.095326043202144745 0.24554465089224409 0 0.083105206071467416 0.20007701332709979 0 0.106902708054812 0.16453234188234539 0 0.13737030665753211 0.20313708640667491 0 0.083105206071467416 0.20007701332709979 0 0.095326043202144745 0.24554465089224409 0 0.044081577119474857 0.2271058242433576 0 0.049706944316556423 0.27522722923869108 0 0.044081577119474857 0.2271058242433576 0 0.095326043202144745 0.24554465089224409 0 0.13737030665753211 0.20313708640667491 0 0.14377654328998779 0.2442024734791064 0 0.095326043202144745 0.24554465089224409 0 0.17933913398461551 0.2350063570234002 0 0.14377654328998779 0.2442024734791064 0 0.13737030665753211 0.20313708640667491 0 0.17933913398461551 0.2350063570234002 0 0.13737030665753211 0.20313708640667491 0 0.18124454140915969 0.18790916706335251 0 0.14332333627550789 0.14578431753966009 0 0.18652628422869419 0.14162325200928061 0 0.18124454140915969 0.18790916706335251 0 0.14332333627550789 0.14578431753966009 0 0.13737030665753211 0.20313708640667491 0 0.106902708054812 0.16453234188234539 0 0.14332333627550789 0.14578431753966009 0 0.18124454140915969 0.18790916706335251 0 0.13737030665753211 0.20313708640667491 0 0.14332333627550789 0.14578431753966009 0 0.16141998738593399 0.10404039647458049 0 0.18652628422869419 0.14162325200928061 0 0.2185883431182947 0.18019736283949719 0 0.18652628422869419 0.14162325200928061 0 0.22985637510995899 0.1298347970200906 0 0.2185883431182947 0.18019736283949719 0 0.22985637510995899 0.1298347970200906 0 0.25557216766470708 0.15874861286892261 0 0.2185883431182947 0.18019736283949719 0 0.25557216766470708 0.15874861286892261 0 0.26429849586623999 0.19346700179430079 0 0.2185883431182947 0.18019736283949719 0 0.18124454140915969 0.18790916706335251 0 0.18652628422869419 0.14162325200928061 0 0.17933913398461551 0.2350063570234002 0 0.18124454140915969 0.18790916706335251 0 0.224700362040408 0.22206622194729711 0 0.2185883431182947 0.18019736283949719 0 0.224700362040408 0.22206622194729711 0 0.18124454140915969 0.18790916706335251 0 0.2185883431182947 0.18019736283949719 0 0.26429849586623999 0.19346700179430079 0 0.224700362040408 0.22206622194729711 0 0.25195515620380449 0.25883339815888678 0 0.21049769590865089 0.26857363548218488 0 0.224700362040408 0.22206622194729711 0 0.17933913398461551 0.2350063570234002 0 0.224700362040408 0.22206622194729711 0 0.21049769590865089 0.26857363548218488 0 0.14999999999970359 0 0 0.184418230509967 0.038773194583122873 0 0.14618258501891079 0.062070108745602003 0 0.19922788606653311 0.085920220746880993 0 0.14618258501891079 0.062070108745602003 0 0.184418230509967 0.038773194583122873 0 0.14999999999970359 0 0 0.19999999999955789 0 0 0.184418230509967 0.038773194583122873 0 0.14999999999970359 0 0 0.14618258501891079 0.062070108745602003 0 0.10266856499169109 0.044518360900210059 0 0.14618258501891079 0.062070108745602003 0 0.16141998738593399 0.10404039647458049 0 0.12372429750337779 0.095814237875728972 0 0.14332333627550789 0.14578431753966009 0 0.12372429750337779 0.095814237875728972 0 0.16141998738593399 0.10404039647458049 0 0.19922788606653311 0.085920220746880993 0 0.18652628422869419 0.14162325200928061 0 0.16141998738593399 0.10404039647458049 0 0.19922788606653311 0.085920220746880993 0 0.16141998738593399 0.10404039647458049 0 0.14618258501891079 0.062070108745602003 0 0.19922788606653311 0.085920220746880993 0 0.22985637510995899 0.1298347970200906 0 0.18652628422869419 0.14162325200928061 0 0.19922788606653311 0.085920220746880993 0 0.24218496799700481 0.089025544070598317 0 0.22985637510995899 0.1298347970200906 0 0.27474541102162192 0.11822029332053539 0 0.22985637510995899 0.1298347970200906 0 0.24218496799700481 0.089025544070598317 0 0.19922788606653311 0.085920220746880993 0 0.22668068146512929 0.045875643423131329 0 0.24218496799700481 0.089025544070598317 0 0.27499999999933927 0.060310814194988557 0 0.24218496799700481 0.089025544070598317 0 0.22668068146512929 0.045875643423131329 0 0.19922788606653311 0.085920220746880993 0 0.184418230509967 0.038773194583122873 0 0.22668068146512929 0.045875643423131329 0 0.19999999999955789 0 0 0.22668068146512929 0.045875643423131329 0 0.184418230509967 0.038773194583122873 0 0.19999999999955789 0 0 0.24999999999941211 0 0 0.22668068146512929 0.045875643423131329 0 0.24999999999941211 0 0 0.29999999999926641 0 0 0.27499999999933927 0.060310814194988557 0 0.24999999999941211 0 0 0.27499999999933927 0.060310814194988557 0 0.22668068146512929 0.045875643423131329 0 0.29999999999926641 0 0 0.32541448401678508 0.046215317981507749 0 0.27499999999933927 0.060310814194988557 0 0.29999999999926641 0 0 0.34999999999912063 0 0 0.32541448401678508 0.046215317981507749 0 0.35312867752657662 0.084946736076730367 0 0.32541448401678508 0.046215317981507749 0 0.3615861437013822 0.03582617922508851 0 0.35312867752657662 0.084946736076730367 0 0.3615861437013822 0.03582617922508851 0 0.39591832466117061 0.056982757562006353 0 0.34999999999912063 0 0 0.3615861437013822 0.03582617922508851 0 0.32541448401678508 0.046215317981507749 0 0.34999999999912063 0 0 0.3999999999989749 0 0 0.3615861437013822 0.03582617922508851 0 0.35312867752657662 0.084946736076730367 0 0.39823268594401579 0.1116623613130045 0 0.36246644853392812 0.1399454205365751 0 0.35312867752657662 0.084946736076730367 0 0.36246644853392812 0.1399454205365751 0 0.32215584939770009 0.1218492143506909 0 0.35312867752657662 0.084946736076730367 0 0.3096713403101819 0.085471541595262421 0 0.32541448401678508 0.046215317981507749 0 0.35312867752657662 0.084946736076730367 0 0.32215584939770009 0.1218492143506909 0 0.3096713403101819 0.085471541595262421 0 0.27474541102162192 0.11822029332053539 0 0.3096713403101819 0.085471541595262421 0 0.32215584939770009 0.1218492143506909 0 0.27499999999933927 0.060310814194988557 0 0.32541448401678508 0.046215317981507749 0 0.3096713403101819 0.085471541595262421 0 0.3096713403101819 0.085471541595262421 0 0.27474541102162192 0.11822029332053539 0 0.27499999999933927 0.060310814194988557 0 0.27499999999933927 0.060310814194988557 0 0.27474541102162192 0.11822029332053539 0 0.24218496799700481 0.089025544070598317 0 0.27474541102162192 0.11822029332053539 0 0.25557216766470708 0.15874861286892261 0 0.22985637510995899 0.1298347970200906 0 0.27474541102162192 0.11822029332053539 0 0.29336099386129338 0.15892013001050981 0 0.25557216766470708 0.15874861286892261 0 0.26429849586623999 0.19346700179430079 0 0.25557216766470708 0.15874861286892261 0 0.29336099386129338 0.15892013001050981 0 0.33084213324567391 0.16272720141332131 0 0.31255190597181792 0.19850845631528771 0 0.29336099386129338 0.15892013001050981 0 0.26429849586623999 0.19346700179430079 0 0.29336099386129338 0.15892013001050981 0 0.31255190597181792 0.19850845631528771 0 0.27474541102162192 0.11822029332053539 0 0.32215584939770009 0.1218492143506909 0 0.29336099386129338 0.15892013001050981 0 0.28040350263641872 0.23054717217092141 0 0.25195515620380449 0.25883339815888678 0 0.224700362040408 0.22206622194729711 0 0.26429849586623999 0.19346700179430079 0 0.28040350263641872 0.23054717217092141 0 0.224700362040408 0.22206622194729711 0 0.26429849586623999 0.19346700179430079 0 0.31255190597181792 0.19850845631528771 0 0.28040350263641872 0.23054717217092141 0 0.33758650185219202 0.23837101504325639 0 0.29132859388405002 0.27203693976649962 0 0.28040350263641872 0.23054717217092141 0 0.33758650185219202 0.23837101504325639 0 0.28040350263641872 0.23054717217092141 0 0.31255190597181792 0.19850845631528771 0 0.33758650185219202 0.23837101504325639 0 0.31255190597181792 0.19850845631528771 0 0.3572130504031617 0.1874703368446563 0 0.33758650185219202 0.23837101504325639 0 0.3572130504031617 0.1874703368446563 0 0.38831533174504851 0.2189834941785925 0 0.33758650185219202 0.23837101504325639 0 0.38831533174504851 0.2189834941785925 0 0.3786248352540974 0.27082301512024259 0 0.33084213324567391 0.16272720141332131 0 0.29336099386129338 0.15892013001050981 0 0.32215584939770009 0.1218492143506909 0 0.33084213324567391 0.16272720141332131 0 0.32215584939770009 0.1218492143506909 0 0.36246644853392812 0.1399454205365751 0 0.33084213324567391 0.16272720141332131 0 0.3572130504031617 0.1874703368446563 0 0.31255190597181792 0.19850845631528771 0 0.39801143831225599 0.16651381068160659 0 0.3572130504031617 0.1874703368446563 0 0.36246644853392812 0.1399454205365751 0 0.33084213324567391 0.16272720141332131 0 0.36246644853392812 0.1399454205365751 0 0.3572130504031617 0.1874703368446563 0 0.39801143831225599 0.16651381068160659 0 0.36246644853392812 0.1399454205365751 0 0.39823268594401579 0.1116623613130045 0 0.39801143831225599 0.16651381068160659 0 0.44288491854585582 0.14116182884956319 0 0.42905200079338551 0.19982395548231649 0 0.39801143831225599 0.16651381068160659 0 0.39823268594401579 0.1116623613130045 0 0.44288491854585582 0.14116182884956319 0 0.42377727103934271 0.25099357235810238 0 0.3786248352540974 0.27082301512024259 0 0.38831533174504851 0.2189834941785925 0 0.39801143831225599 0.16651381068160659 0 0.38831533174504851 0.2189834941785925 0 0.3572130504031617 0.1874703368446563 0 0.39801143831225599 0.16651381068160659 0 0.42905200079338551 0.19982395548231649 0 0.38831533174504851 0.2189834941785925 0 0.42377727103934271 0.25099357235810238 0 0.38831533174504851 0.2189834941785925 0 0.42905200079338551 0.19982395548231649 0 0.42377727103934271 0.25099357235810238 0 0.42905200079338551 0.19982395548231649 0 0.46429753744194407 0.22870891180733599 0 0.47357141910802508 0.1873585799078378 0 0.46429753744194407 0.22870891180733599 0 0.42905200079338551 0.19982395548231649 0 0.47357141910802508 0.1873585799078378 0 0.51729576145820033 0.1683240575987815 0 0.50760557329222289 0.20700468884612061 0 0.47357141910802508 0.1873585799078378 0 0.50760557329222289 0.20700468884612061 0 0.46429753744194407 0.22870891180733599 0 0.49695729691142171 0.25014895411178018 0 0.46429753744194407 0.22870891180733599 0 0.50760557329222289 0.20700468884612061 0 0.47357141910802508 0.1873585799078378 0 0.44288491854585582 0.14116182884956319 0 0.48466639505193998 0.1421439844745814 0 0.47357141910802508 0.1873585799078378 0 0.42905200079338551 0.19982395548231649 0 0.44288491854585582 0.14116182884956319 0 0.47357141910802508 0.1873585799078378 0 0.48466639505193998 0.1421439844745814 0 0.51729576145820033 0.1683240575987815 0 0.44288491854585582 0.14116182884956319 0 0.47881186583059909 0.093591717165689425 0 0.48466639505193998 0.1421439844745814 0 0.51076801031701946 0.1202837388510348 0 0.48466639505193998 0.1421439844745814 0 0.47881186583059909 0.093591717165689425 0 0.43698630808430822 0.080423614171545449 0 0.47881186583059909 0.093591717165689425 0 0.44288491854585582 0.14116182884956319 0 0.43698630808430822 0.080423614171545449 0 0.47040171442036788 0.044141676406503738 0 0.47881186583059909 0.093591717165689425 0 0.52375890611712683 0.059318771819432882 0 0.47881186583059909 0.093591717165689425 0 0.47040171442036788 0.044141676406503738 0 0.49999999999869432 0 0 0.52375890611712683 0.059318771819432882 0 0.47040171442036788 0.044141676406503738 0 0.44999999999882923 0 0 0.49999999999869432 0 0 0.47040171442036788 0.044141676406503738 0 0.44999999999882923 0 0 0.47040171442036788 0.044141676406503738 0 0.4320097814748517 0.037406712692169303 0 0.43698630808430822 0.080423614171545449 0 0.4320097814748517 0.037406712692169303 0 0.47040171442036788 0.044141676406503738 0 0.3999999999989749 0 0 0.4320097814748517 0.037406712692169303 0 0.39591832466117061 0.056982757562006353 0 0.43698630808430822 0.080423614171545449 0 0.39591832466117061 0.056982757562006353 0 0.4320097814748517 0.037406712692169303 0 0.3999999999989749 0 0 0.44999999999882923 0 0 0.4320097814748517 0.037406712692169303 0 0.3999999999989749 0 0 0.39591832466117061 0.056982757562006353 0 0.3615861437013822 0.03582617922508851 0 0.35312867752657662 0.084946736076730367 0 0.39591832466117061 0.056982757562006353 0 0.39823268594401579 0.1116623613130045 0 0.43698630808430822 0.080423614171545449 0 0.44288491854585582 0.14116182884956319 0 0.39823268594401579 0.1116623613130045 0 0.43698630808430822 0.080423614171545449 0 0.39823268594401579 0.1116623613130045 0 0.39591832466117061 0.056982757562006353 0 0.43249999999999988 0.43937499999999979 0 0.38707855792647411 0.42299362914874578 0 0.42161023666869668 0.39493916313643851 0 0.38083244760691543 0.38531983672244652 0 0.42161023666869668 0.39493916313643851 0 0.38707855792647411 0.42299362914874578 0 0.38083244760691543 0.38531983672244652 0 0.40076539126862748 0.34589349467022118 0 0.42161023666869668 0.39493916313643851 0 0.43249999999999988 0.43937499999999979 0 0.3908716102680424 0.47010282357248828 0 0.38707855792647411 0.42299362914874578 0 0.38244435121258652 0.51653317813019495 0 0.3908716102680424 0.47010282357248828 0 0.43507373378304309 0.49699695397193322 0 0.43249999999999988 0.43937499999999979 0 0.43507373378304309 0.49699695397193322 0 0.3908716102680424 0.47010282357248828 0 0.43249999999999988 0.43937499999999979 0 0.46111841286828259 0.46690301029591341 0 0.43507373378304309 0.49699695397193322 0 0.43249999999999988 0.43937499999999979 0 0.48858720058566618 0.43964267759203868 0 0.46111841286828259 0.46690301029591341 0 0.49102375406324739 0.49123754822244059 0 0.43507373378304309 0.49699695397193322 0 0.46111841286828259 0.46690301029591341 0 0.49102375406324739 0.49123754822244059 0 0.46111841286828259 0.46690301029591341 0 0.48858720058566618 0.43964267759203868 0 0.52289427570932567 0.3932284363388488 0 0.48858720058566618 0.43964267759203868 0 0.46655310992796922 0.39650496622958609 0 0.43249999999999988 0.43937499999999979 0 0.46655310992796922 0.39650496622958609 0 0.48858720058566618 0.43964267759203868 0 0.43249999999999988 0.43937499999999979 0 0.42161023666869668 0.39493916313643851 0 0.46655310992796922 0.39650496622958609 0 0.4409427642593301 0.35743108089689513 0 0.46655310992796922 0.39650496622958609 0 0.42161023666869668 0.39493916313643851 0 0.52289427570932567 0.3932284363388488 0 0.46655310992796922 0.39650496622958609 0 0.49077833859261139 0.35229981449445641 0 0.5 0.29999999999999999 0 0.49077833859261139 0.35229981449445641 0 0.46226845272279993 0.31901800744800313 0 0.4409427642593301 0.35743108089689513 0 0.46226845272279993 0.31901800744800313 0 0.49077833859261139 0.35229981449445641 0 0.4409427642593301 0.35743108089689513 0 0.41914690343363781 0.30688979866601612 0 0.46226845272279993 0.31901800744800313 0 0.4409427642593301 0.35743108089689513 0 0.49077833859261139 0.35229981449445641 0 0.46655310992796922 0.39650496622958609 0 0.5 0.29999999999999999 0 0.4604742573284204 0.27846934318264788 0 0.49695729691142171 0.25014895411178018 0 0.49695729691142171 0.25014895411178018 0 0.4604742573284204 0.27846934318264788 0 0.46429753744194407 0.22870891180733599 0 0.5 0.29999999999999999 0 0.46226845272279993 0.31901800744800313 0 0.4604742573284204 0.27846934318264788 0 0.41914690343363781 0.30688979866601612 0 0.4604742573284204 0.27846934318264788 0 0.46226845272279993 0.31901800744800313 0 0.42377727103934271 0.25099357235810238 0 0.46429753744194407 0.22870891180733599 0 0.4604742573284204 0.27846934318264788 0 0.42377727103934271 0.25099357235810238 0 0.4604742573284204 0.27846934318264788 0 0.41914690343363781 0.30688979866601612 0 0.42377727103934271 0.25099357235810238 0 0.41914690343363781 0.30688979866601612 0 0.3786248352540974 0.27082301512024259 0 0.36575549820117997 0.31677992835137742 0 0.3786248352540974 0.27082301512024259 0 0.41914690343363781 0.30688979866601612 0 0.4409427642593301 0.35743108089689513 0 0.42161023666869668 0.39493916313643851 0 0.40076539126862748 0.34589349467022118 0 0.4409427642593301 0.35743108089689513 0 0.40076539126862748 0.34589349467022118 0 0.41914690343363781 0.30688979866601612 0 0.36575549820117997 0.31677992835137742 0 0.41914690343363781 0.30688979866601612 0 0.40076539126862748 0.34589349467022118 0 0.40076539126862748 0.34589349467022118 0 0.33277555741076909 0.36432196682010132 0 0.36575549820117997 0.31677992835137742 0 0.38083244760691543 0.38531983672244652 0 0.33277555741076909 0.36432196682010132 0 0.40076539126862748 0.34589349467022118 0 0.36575549820117997 0.31677992835137742 0 0.33277555741076909 0.36432196682010132 0 0.32752639306529541 0.32610012995269699 0 0.33277555741076909 0.36432196682010132 0 0.29644548887253103 0.34914008784168082 0 0.32752639306529541 0.32610012995269699 0 0.33758650185219202 0.23837101504325639 0 0.3786248352540974 0.27082301512024259 0 0.33402499257867951 0.28911035184473982 0 0.36575549820117997 0.31677992835137742 0 0.33402499257867951 0.28911035184473982 0 0.3786248352540974 0.27082301512024259 0 0.36575549820117997 0.31677992835137742 0 0.32752639306529541 0.32610012995269699 0 0.33402499257867951 0.28911035184473982 0 0.29348325746214782 0.31350119524708198 0 0.33402499257867951 0.28911035184473982 0 0.32752639306529541 0.32610012995269699 0 0.33758650185219202 0.23837101504325639 0 0.33402499257867951 0.28911035184473982 0 0.29132859388405002 0.27203693976649962 0 0.29348325746214782 0.31350119524708198 0 0.29132859388405002 0.27203693976649962 0 0.33402499257867951 0.28911035184473982 0 0.29348325746214782 0.31350119524708198 0 0.24432083401701241 0.3006253385567515 0 0.29132859388405002 0.27203693976649962 0 0.25195515620380449 0.25883339815888678 0 0.29132859388405002 0.27203693976649962 0 0.24432083401701241 0.3006253385567515 0 0.25195515620380449 0.25883339815888678 0 0.28040350263641872 0.23054717217092141 0 0.29132859388405002 0.27203693976649962 0 0.27866744612395528 0.38416094670951489 0 0.29644548887253103 0.34914008784168082 0 0.33277555741076909 0.36432196682010132 0 0.29348325746214782 0.31350119524708198 0 0.32752639306529541 0.32610012995269699 0 0.29644548887253103 0.34914008784168082 0 0.29348325746214782 0.31350119524708198 0 0.29644548887253103 0.34914008784168082 0 0.25966125648670141 0.34351016742083729 0 0.29348325746214782 0.31350119524708198 0 0.25966125648670141 0.34351016742083729 0 0.24432083401701241 0.3006253385567515 0 0.27866744612395528 0.38416094670951489 0 0.25966125648670141 0.34351016742083729 0 0.29644548887253103 0.34914008784168082 0 0.27866744612395528 0.38416094670951489 0 0.22033343844674469 0.36963382230740238 0 0.25966125648670141 0.34351016742083729 0 0.27866744612395528 0.38416094670951489 0 0.29124338931648802 0.43334555462578611 0 0.24049127783545701 0.41270748208749802 0 0.29124338931648802 0.43334555462578611 0 0.25982634974572738 0.46097799597715272 0 0.24049127783545701 0.41270748208749802 0 0.27866744612395528 0.38416094670951489 0 0.31778888742534622 0.40581751814196781 0 0.29124338931648802 0.43334555462578611 0 0.27866744612395528 0.38416094670951489 0 0.33277555741076909 0.36432196682010132 0 0.31778888742534622 0.40581751814196781 0 0.33277555741076909 0.36432196682010132 0 0.35221190152536241 0.40457127605439203 0 0.31778888742534622 0.40581751814196781 0 0.34258405725730701 0.4444034294386992 0 0.31778888742534622 0.40581751814196781 0 0.35221190152536241 0.40457127605439203 0 0.34258405725730701 0.4444034294386992 0 0.29124338931648802 0.43334555462578611 0 0.31778888742534622 0.40581751814196781 0 0.34258405725730701 0.4444034294386992 0 0.35221190152536241 0.40457127605439203 0 0.38707855792647411 0.42299362914874578 0 0.38083244760691543 0.38531983672244652 0 0.38707855792647411 0.42299362914874578 0 0.35221190152536241 0.40457127605439203 0 0.38083244760691543 0.38531983672244652 0 0.35221190152536241 0.40457127605439203 0 0.33277555741076909 0.36432196682010132 0 0.38244435121258652 0.51653317813019495 0 0.35024835142131061 0.48654922671676981 0 0.3908716102680424 0.47010282357248828 0 0.34258405725730701 0.4444034294386992 0 0.3908716102680424 0.47010282357248828 0 0.35024835142131061 0.48654922671676981 0 0.34258405725730701 0.4444034294386992 0 0.38707855792647411 0.42299362914874578 0 0.3908716102680424 0.47010282357248828 0 0.34258405725730701 0.4444034294386992 0 0.31068898841644388 0.47541502461811092 0 0.29124338931648802 0.43334555462578611 0 0.35024835142131061 0.48654922671676981 0 0.33190227185843768 0.52715113583864037 0 0.31068898841644388 0.47541502461811092 0 0.34258405725730701 0.4444034294386992 0 0.35024835142131061 0.48654922671676981 0 0.31068898841644388 0.47541502461811092 0 0.28307294598219601 0.50789252727458634 0 0.25982634974572738 0.46097799597715272 0 0.31068898841644388 0.47541502461811092 0 0.29124338931648802 0.43334555462578611 0 0.31068898841644388 0.47541502461811092 0 0.25982634974572738 0.46097799597715272 0 0.28307294598219601 0.50789252727458634 0 0.23975172658309729 0.49475499200540818 0 0.25982634974572738 0.46097799597715272 0 0.22278230690790279 0.44824268025881547 0 0.23975172658309729 0.49475499200540818 0 0.19604738184454831 0.47787523520405789 0 0.22278230690790279 0.44824268025881547 0 0.19604738184454831 0.47787523520405789 0 0.191953871957803 0.42546416763755879 0 0.22278230690790279 0.44824268025881547 0 0.24049127783545701 0.41270748208749802 0 0.25982634974572738 0.46097799597715272 0 0.22278230690790279 0.44824268025881547 0 0.25982634974572738 0.46097799597715272 0 0.23975172658309729 0.49475499200540818 0 0.27866744612395528 0.38416094670951489 0 0.24049127783545701 0.41270748208749802 0 0.22033343844674469 0.36963382230740238 0 0.1650278706801647 0.38791388161335733 0 0.22033343844674469 0.36963382230740238 0 0.191953871957803 0.42546416763755879 0 0.22033343844674469 0.36963382230740238 0 0.24049127783545701 0.41270748208749802 0 0.191953871957803 0.42546416763755879 0 0.22278230690790279 0.44824268025881547 0 0.191953871957803 0.42546416763755879 0 0.24049127783545701 0.41270748208749802 0 0.15801167086041079 0.46008690540259539 0 0.13773355295499351 0.42497777642586831 0 0.191953871957803 0.42546416763755879 0 0.1650278706801647 0.38791388161335733 0 0.191953871957803 0.42546416763755879 0 0.13773355295499351 0.42497777642586831 0 0.1650278706801647 0.38791388161335733 0 0.13773355295499351 0.42497777642586831 0 0.1117088112799664 0.38831403004970022 0 0.15801167086041079 0.46008690540259539 0 0.113541300460994 0.46208784312094731 0 0.13773355295499351 0.42497777642586831 0 0.1216098864341134 0.50637075089503902 0 0.113541300460994 0.46208784312094731 0 0.15801167086041079 0.46008690540259539 0 0.1216098864341134 0.50637075089503902 0 0.15801167086041079 0.46008690540259539 0 0.16618607197337229 0.50652878253548905 0 0.15801167086041079 0.46008690540259539 0 0.19604738184454831 0.47787523520405789 0 0.16618607197337229 0.50652878253548905 0 0.15801167086041079 0.46008690540259539 0 0.191953871957803 0.42546416763755879 0 0.19604738184454831 0.47787523520405789 0 0.25195515620380449 0.25883339815888678 0 0.24432083401701241 0.3006253385567515 0 0.21049769590865089 0.26857363548218488 0 0.19670163708476801 0.31472518408333222 0 0.21049769590865089 0.26857363548218488 0 0.24432083401701241 0.3006253385567515 0 0.19670163708476801 0.31472518408333222 0 0.168349569971391 0.28054490850913671 0 0.21049769590865089 0.26857363548218488 0 0.19670163708476801 0.31472518408333222 0 0.22615676742807109 0.33458786033114157 0 0.18434624290945251 0.35208838264196463 0 0.19670163708476801 0.31472518408333222 0 0.24432083401701241 0.3006253385567515 0 0.22615676742807109 0.33458786033114157 0 0.24432083401701241 0.3006253385567515 0 0.25966125648670141 0.34351016742083729 0 0.22615676742807109 0.33458786033114157 0 0.22033343844674469 0.36963382230740238 0 0.22615676742807109 0.33458786033114157 0 0.25966125648670141 0.34351016742083729 0 0.22033343844674469 0.36963382230740238 0 0.18434624290945251 0.35208838264196463 0 0.22615676742807109 0.33458786033114157 0 0.1650278706801647 0.38791388161335733 0 0.18434624290945251 0.35208838264196463 0 0.22033343844674469 0.36963382230740238 0 0.1650278706801647 0.38791388161335733 0 0.14223753364722069 0.3341983344262433 0 0.18434624290945251 0.35208838264196463 0 0.1650278706801647 0.38791388161335733 0 0.1117088112799664 0.38831403004970022 0 0.14223753364722069 0.3341983344262433 0 0.19670163708476801 0.31472518408333222 0 0.18434624290945251 0.35208838264196463 0 0.14223753364722069 0.3341983344262433 0 0.19670163708476801 0.31472518408333222 0 0.14223753364722069 0.3341983344262433 0 0.168349569971391 0.28054490850913671 0 0.1247745017231483 0.27198077544791172 0 0.168349569971391 0.28054490850913671 0 0.14223753364722069 0.3341983344262433 0 0.1247745017231483 0.27198077544791172 0 0.14377654328998779 0.2442024734791064 0 0.168349569971391 0.28054490850913671 0 0.17933913398461551 0.2350063570234002 0 0.21049769590865089 0.26857363548218488 0 0.168349569971391 0.28054490850913671 0 0.17933913398461551 0.2350063570234002 0 0.168349569971391 0.28054490850913671 0 0.14377654328998779 0.2442024734791064 0 0.049706944316556423 0.27522722923869108 0 0.095326043202144745 0.24554465089224409 0 0.093851963071650835 0.30582068233324772 0 0.1247745017231483 0.27198077544791172 0 0.095326043202144745 0.24554465089224409 0 0.14377654328998779 0.2442024734791064 0 0.1247745017231483 0.27198077544791172 0 0.093851963071650835 0.30582068233324772 0 0.095326043202144745 0.24554465089224409 0 0.1247745017231483 0.27198077544791172 0 0.14223753364722069 0.3341983344262433 0 0.093851963071650835 0.30582068233324772 0 0.049706944316556423 0.27522722923869108 0 0.093851963071650835 0.30582068233324772 0 0.046389130980076937 0.32668781832131749 0 0.087545339447545459 0.35122518864182262 0 0.046389130980076937 0.32668781832131749 0 0.093851963071650835 0.30582068233324772 0 0.087545339447545459 0.35122518864182262 0 0.093851963071650835 0.30582068233324772 0 0.14223753364722069 0.3341983344262433 0 0.087545339447545459 0.35122518864182262 0 0.14223753364722069 0.3341983344262433 0 0.1117088112799664 0.38831403004970022 0 0.087545339447545459 0.35122518864182262 0 0.1117088112799664 0.38831403004970022 0 0.050583896093752537 0.38543522283434112 0 0.087545339447545459 0.35122518864182262 0 0.050583896093752537 0.38543522283434112 0 0.046389130980076937 0.32668781832131749 0 0 0.35000000000145642 0 0.046389130980076937 0.32668781832131749 0 0.050583896093752537 0.38543522283434112 0 0 0.35000000000145642 0 0 0.30000000000124832 0 0.046389130980076937 0.32668781832131749 0 0 0.30000000000124832 0 0.049706944316556423 0.27522722923869108 0 0.046389130980076937 0.32668781832131749 0 0 0.30000000000124832 0 0 0.25000000000104028 0 0.049706944316556423 0.27522722923869108 0 0 0.25000000000104028 0 0.044081577119474857 0.2271058242433576 0 0.049706944316556423 0.27522722923869108 0 0.078358742472063481 0.43365249433908948 0 0.113541300460994 0.46208784312094731 0 0.068743045408989428 0.48853989837882689 0 0.1216098864341134 0.50637075089503902 0 0.068743045408989428 0.48853989837882689 0 0.113541300460994 0.46208784312094731 0 0.113541300460994 0.46208784312094731 0 0.078358742472063481 0.43365249433908948 0 0.13773355295499351 0.42497777642586831 0 0.078358742472063481 0.43365249433908948 0 0.1117088112799664 0.38831403004970022 0 0.13773355295499351 0.42497777642586831 0 0.078358742472063481 0.43365249433908948 0 0.050583896093752537 0.38543522283434112 0 0.1117088112799664 0.38831403004970022 0 0.078358742472063481 0.43365249433908948 0 0.035463093262830522 0.42673416072819947 0 0.050583896093752537 0.38543522283434112 0 0 0.40000000000166441 0 0 0.35000000000145642 0 0.050583896093752537 0.38543522283434112 0 0 0.40000000000166441 0 0.050583896093752537 0.38543522283434112 0 0.035463093262830522 0.42673416072819947 0 0 0.45000000000187229 0 0 0.40000000000166441 0 0.035463093262830522 0.42673416072819947 0 0 0.45000000000187229 0 0.035463093262830522 0.42673416072819947 0 0.033550201249889847 0.46247875832467239 0 0 0.50000000000205869 0 0.033550201249889847 0.46247875832467239 0 0.068743045408989428 0.48853989837882689 0 0.078358742472063481 0.43365249433908948 0 0.068743045408989428 0.48853989837882689 0 0.033550201249889847 0.46247875832467239 0 0.078358742472063481 0.43365249433908948 0 0.033550201249889847 0.46247875832467239 0 0.035463093262830522 0.42673416072819947 0 0 0.50000000000205869 0 0 0.45000000000187229 0 0.033550201249889847 0.46247875832467239 0 0 0.50000000000205869 0 0.068743045408989428 0.48853989837882689 0 0.044576108720083309 0.53509043209532614 0 0 0.55000000000173355 0 0 0.50000000000205869 0 0.044576108720083309 0.53509043209532614 0 0 0.55000000000173355 0 0.044576108720083309 0.53509043209532614 0 0.034381862692950467 0.57372682250960894 0 0.077693244765132896 0.56932317963405099 0 0.034381862692950467 0.57372682250960894 0 0.044576108720083309 0.53509043209532614 0 0.068743045408989428 0.48853989837882689 0 0.085622222639554768 0.53333248912060549 0 0.044576108720083309 0.53509043209532614 0 0.1216098864341134 0.50637075089503902 0 0.085622222639554768 0.53333248912060549 0 0.068743045408989428 0.48853989837882689 0 0.077693244765132896 0.56932317963405099 0 0.044576108720083309 0.53509043209532614 0 0.085622222639554768 0.53333248912060549 0 0.077693244765132896 0.56932317963405099 0 0.085622222639554768 0.53333248912060549 0 0.1154888278694548 0.56733818459978413 0 0.085622222639554768 0.53333248912060549 0 0.1216098864341134 0.50637075089503902 0 0.1154888278694548 0.56733818459978413 0 0.077693244765132896 0.56932317963405099 0 0.1154888278694548 0.56733818459978413 0 0.1024350934457823 0.60772393977513839 0 0.086179601630648681 0.64647209519980475 0 0.050069554451969707 0.61308520079857043 0 0.1024350934457823 0.60772393977513839 0 0.077693244765132896 0.56932317963405099 0 0.1024350934457823 0.60772393977513839 0 0.050069554451969707 0.61308520079857043 0 0.077693244765132896 0.56932317963405099 0 0.050069554451969707 0.61308520079857043 0 0.034381862692950467 0.57372682250960894 0 0 0.60000000000138687 0 0 0.55000000000173355 0 0.034381862692950467 0.57372682250960894 0 0 0.65000000000104008 0 0 0.60000000000138687 0 0.050069554451969707 0.61308520079857043 0 0 0.60000000000138687 0 0.034381862692950467 0.57372682250960894 0 0.050069554451969707 0.61308520079857043 0 0 0.7000000000006934 0 0 0.65000000000104008 0 0.046634677244967337 0.671418230738282 0 0.086179601630648681 0.64647209519980475 0 0.046634677244967337 0.671418230738282 0 0.050069554451969707 0.61308520079857043 0 0 0.65000000000104008 0 0.050069554451969707 0.61308520079857043 0 0.046634677244967337 0.671418230738282 0 0 0.75000000000034661 0 0 0.7000000000006934 0 0.049706944316475897 0.72477277076253799 0 0 0.7000000000006934 0 0.046634677244967337 0.671418230738282 0 0.049706944316475897 0.72477277076253799 0 0 0.75000000000034661 0 0.049706944316475897 0.72477277076253799 0 0.04408157711937423 0.7728941757575627 0 0.049706944316475897 0.72477277076253799 0 0.1020579365089687 0.69352219419301997 0 0.090953281884486245 0.7564451946902494 0 0.1215415378367805 0.72939333680004137 0 0.090953281884486245 0.7564451946902494 0 0.1020579365089687 0.69352219419301997 0 0.049706944316475897 0.72477277076253799 0 0.046634677244967337 0.671418230738282 0 0.1020579365089687 0.69352219419301997 0 0.1215415378367805 0.72939333680004137 0 0.14335651144331049 0.75565258250209677 0 0.090953281884486245 0.7564451946902494 0 0.086179601630648681 0.64647209519980475 0 0.1020579365089687 0.69352219419301997 0 0.046634677244967337 0.671418230738282 0 0.086179601630648681 0.64647209519980475 0 0.1241190223511371 0.64391885572885044 0 0.1020579365089687 0.69352219419301997 0 0.086179601630648681 0.64647209519980475 0 0.1024350934457823 0.60772393977513839 0 0.1241190223511371 0.64391885572885044 0 0.16500388252850301 0.66612077714085194 0 0.1020579365089687 0.69352219419301997 0 0.1241190223511371 0.64391885572885044 0 0.15720202157091859 0.60665697304410315 0 0.16500388252850301 0.66612077714085194 0 0.1241190223511371 0.64391885572885044 0 0.15720202157091859 0.60665697304410315 0 0.19914261668318661 0.62286739485272158 0 0.16500388252850301 0.66612077714085194 0 0.16500388252850301 0.66612077714085194 0 0.15332765547575641 0.71200081858233666 0 0.1020579365089687 0.69352219419301997 0 0.1215415378367805 0.72939333680004137 0 0.15332765547575641 0.71200081858233666 0 0.14335651144331049 0.75565258250209677 0 0.1215415378367805 0.72939333680004137 0 0.1020579365089687 0.69352219419301997 0 0.15332765547575641 0.71200081858233666 0 0.16500388252850301 0.66612077714085194 0 0.19068556247388771 0.71028988922845504 0 0.15332765547575641 0.71200081858233666 0 0.18269480424590959 0.75905448272264375 0 0.14335651144331049 0.75565258250209677 0 0.15332765547575641 0.71200081858233666 0 0.18269480424590959 0.75905448272264375 0 0.15332765547575641 0.71200081858233666 0 0.19068556247388771 0.71028988922845504 0 0.18269480424590959 0.75905448272264375 0 0.19068556247388771 0.71028988922845504 0 0.2248999640082178 0.72584299459689172 0 0.2236846579037573 0.67380363126050236 0 0.2248999640082178 0.72584299459689172 0 0.19068556247388771 0.71028988922845504 0 0.2236846579037573 0.67380363126050236 0 0.26439878998046262 0.7048065392091396 0 0.2248999640082178 0.72584299459689172 0 0.25676291524611189 0.7436741304886243 0 0.22556077506376701 0.77837424984191617 0 0.2248999640082178 0.72584299459689172 0 0.25676291524611189 0.7436741304886243 0 0.2248999640082178 0.72584299459689172 0 0.26439878998046262 0.7048065392091396 0 0.2236846579037573 0.67380363126050236 0 0.16500388252850301 0.66612077714085194 0 0.19914261668318661 0.62286739485272158 0 0.2236846579037573 0.67380363126050236 0 0.19068556247388771 0.71028988922845504 0 0.16500388252850301 0.66612077714085194 0 0.2236846579037573 0.67380363126050236 0 0.19914261668318661 0.62286739485272158 0 0.2459498854893499 0.63248470766216769 0 0.2236846579037573 0.67380363126050236 0 0.2459498854893499 0.63248470766216769 0 0.27820712747429932 0.65530134213254643 0 0.22549374774072969 0.58452645269293457 0 0.2459498854893499 0.63248470766216769 0 0.19914261668318661 0.62286739485272158 0 0.26573297623774761 0.59828298563722948 0 0.2459498854893499 0.63248470766216769 0 0.22549374774072969 0.58452645269293457 0 0.22549374774072969 0.58452645269293457 0 0.19914261668318661 0.62286739485272158 0 0.18381867841758909 0.57774125163628387 0 0.20050006573841939 0.53248514016039872 0 0.22549374774072969 0.58452645269293457 0 0.18381867841758909 0.57774125163628387 0 0.26573297623774761 0.59828298563722948 0 0.22549374774072969 0.58452645269293457 0 0.25115337790845271 0.54719303014923271 0 0.20050006573841939 0.53248514016039872 0 0.25115337790845271 0.54719303014923271 0 0.22549374774072969 0.58452645269293457 0 0.20050006573841939 0.53248514016039872 0 0.23975172658309729 0.49475499200540818 0 0.25115337790845271 0.54719303014923271 0 0.20050006573841939 0.53248514016039872 0 0.16618607197337229 0.50652878253548905 0 0.19604738184454831 0.47787523520405789 0 0.20050006573841939 0.53248514016039872 0 0.19604738184454831 0.47787523520405789 0 0.23975172658309729 0.49475499200540818 0 0.20050006573841939 0.53248514016039872 0 0.18381867841758909 0.57774125163628387 0 0.14934928745814749 0.55042914607228977 0 0.20050006573841939 0.53248514016039872 0 0.14934928745814749 0.55042914607228977 0 0.16618607197337229 0.50652878253548905 0 0.1216098864341134 0.50637075089503902 0 0.16618607197337229 0.50652878253548905 0 0.14934928745814749 0.55042914607228977 0 0.1154888278694548 0.56733818459978413 0 0.1216098864341134 0.50637075089503902 0 0.14934928745814749 0.55042914607228977 0 0.15720202157091859 0.60665697304410315 0 0.1154888278694548 0.56733818459978413 0 0.14934928745814749 0.55042914607228977 0 0.15720202157091859 0.60665697304410315 0 0.1024350934457823 0.60772393977513839 0 0.1154888278694548 0.56733818459978413 0 0.15720202157091859 0.60665697304410315 0 0.1241190223511371 0.64391885572885044 0 0.1024350934457823 0.60772393977513839 0 0.18381867841758909 0.57774125163628387 0 0.19914261668318661 0.62286739485272158 0 0.15720202157091859 0.60665697304410315 0 0.15720202157091859 0.60665697304410315 0 0.14934928745814749 0.55042914607228977 0 0.18381867841758909 0.57774125163628387 0 0.15000000000062411 1 0 0.10000000000041601 1 0 0.10266856499240549 0.95548163909968886 0 0.083411279318375747 0.91030024466934134 0 0.10266856499240549 0.95548163909968886 0 0.053064897599294662 0.95186845269532028 0 0.050000000000207989 1 0 0.053064897599294662 0.95186845269532028 0 0.10000000000041601 1 0 0.10000000000041601 1 0 0.053064897599294662 0.95186845269532028 0 0.10266856499240549 0.95548163909968886 0 0.050000000000207989 1 0 0.025766224399875661 0.97546711317377799 0 0.053064897599294662 0.95186845269532028 0 0 1 0 0.025766224399875661 0.97546711317377799 0 0.050000000000207989 1 0 0 1 0 0 0.94999999999979179 0 0.025766224399875661 0.97546711317377799 0 0 0.94999999999979179 0 0.053064897599294662 0.95186845269532028 0 0.025766224399875661 0.97546711317377799 0 0 0.94999999999979179 0 0.0443105827531413 0.89858748162559932 0 0.053064897599294662 0.95186845269532028 0 0.083411279318375747 0.91030024466934134 0 0.053064897599294662 0.95186845269532028 0 0.0443105827531413 0.89858748162559932 0 0 0.94999999999979179 0 0 0.89999999999958358 0 0.0443105827531413 0.89858748162559932 0 0 0.89999999999958358 0 0 0.84999999999965292 0 0.0443105827531413 0.89858748162559932 0 0.083411279318375747 0.91030024466934134 0 0.0443105827531413 0.89858748162559932 0 0.065374659239661639 0.8551091961254178 0 0.083411279318375747 0.91030024466934134 0 0.065374659239661639 0.8551091961254178 0 0.10562472963403439 0.87143394428979881 0 0.083411279318375747 0.91030024466934134 0 0.1241151115713819 0.9045666525468371 0 0.10266856499240549 0.95548163909968886 0 0.14617343800780541 0.93808063414349496 0 0.10266856499240549 0.95548163909968886 0 0.1241151115713819 0.9045666525468371 0 0.14474682429600511 0.85524784522713515 0 0.1241151115713819 0.9045666525468371 0 0.10562472963403439 0.87143394428979881 0 0.083411279318375747 0.91030024466934134 0 0.10562472963403439 0.87143394428979881 0 0.1241151115713819 0.9045666525468371 0 0.14474682429600511 0.85524784522713515 0 0.10562472963403439 0.87143394428979881 0 0.1074251789111534 0.83564394292147814 0 0.083105206071452636 0.79992298667296435 0 0.1074251789111534 0.83564394292147814 0 0.065374659239661639 0.8551091961254178 0 0.065374659239661639 0.8551091961254178 0 0.1074251789111534 0.83564394292147814 0 0.10562472963403439 0.87143394428979881 0 0 0.84999999999965292 0 0.038512288486097702 0.8155852717111195 0 0.065374659239661639 0.8551091961254178 0 0 0.84999999999965292 0 0.065374659239661639 0.8551091961254178 0 0.0443105827531413 0.89858748162559932 0 0 0.84999999999965292 0 0 0.79999999999999982 0 0.038512288486097702 0.8155852717111195 0 0.083105206071452636 0.79992298667296435 0 0.065374659239661639 0.8551091961254178 0 0.038512288486097702 0.8155852717111195 0 0.083105206071452636 0.79992298667296435 0 0.038512288486097702 0.8155852717111195 0 0.04408157711937423 0.7728941757575627 0 0 0.79999999999999982 0 0.04408157711937423 0.7728941757575627 0 0.038512288486097702 0.8155852717111195 0 0 0.79999999999999982 0 0 0.75000000000034661 0 0.04408157711937423 0.7728941757575627 0 0.049706944316475897 0.72477277076253799 0 0.090953281884486245 0.7564451946902494 0 0.04408157711937423 0.7728941757575627 0 0.083105206071452636 0.79992298667296435 0 0.04408157711937423 0.7728941757575627 0 0.090953281884486245 0.7564451946902494 0 0.083105206071452636 0.79992298667296435 0 0.1382744753146134 0.79650574229207483 0 0.1074251789111534 0.83564394292147814 0 0.083105206071452636 0.79992298667296435 0 0.090953281884486245 0.7564451946902494 0 0.1382744753146134 0.79650574229207483 0 0.1382744753146134 0.79650574229207483 0 0.090953281884486245 0.7564451946902494 0 0.14335651144331049 0.75565258250209677 0 0.18269480424590959 0.75905448272264375 0 0.1382744753146134 0.79650574229207483 0 0.14335651144331049 0.75565258250209677 0 0.18269480424590959 0.75905448272264375 0 0.17777405986036951 0.81832336108265358 0 0.1382744753146134 0.79650574229207483 0 0.18269480424590959 0.75905448272264375 0 0.2248999640082178 0.72584299459689172 0 0.22556077506376701 0.77837424984191617 0 0.21858834311891909 0.81980263716112767 0 0.22556077506376701 0.77837424984191617 0 0.26104540868854792 0.81401944968719064 0 0.21858834311891909 0.81980263716112767 0 0.17777405986036951 0.81832336108265358 0 0.22556077506376701 0.77837424984191617 0 0.18269480424590959 0.75905448272264375 0 0.22556077506376701 0.77837424984191617 0 0.17777405986036951 0.81832336108265358 0 0.21858834311891909 0.81980263716112767 0 0.19741632902693801 0.86755867406447229 0 0.17777405986036951 0.81832336108265358 0 0.21858834311891909 0.81980263716112767 0 0.26104540868854792 0.81401944968719064 0 0.2401283238295133 0.85648409884788523 0 0.21858834311891909 0.81980263716112767 0 0.2401283238295133 0.85648409884788523 0 0.19741632902693801 0.86755867406447229 0 0.14474682429600511 0.85524784522713515 0 0.17777405986036951 0.81832336108265358 0 0.19741632902693801 0.86755867406447229 0 0.14474682429600511 0.85524784522713515 0 0.19741632902693801 0.86755867406447229 0 0.16206583317966519 0.89685560785156404 0 0.14474682429600511 0.85524784522713515 0 0.1382744753146134 0.79650574229207483 0 0.17777405986036951 0.81832336108265358 0 0.14474682429600511 0.85524784522713515 0 0.1074251789111534 0.83564394292147814 0 0.1382744753146134 0.79650574229207483 0 0.14474682429600511 0.85524784522713515 0 0.16206583317966519 0.89685560785156404 0 0.1241151115713819 0.9045666525468371 0 0.14617343800780541 0.93808063414349496 0 0.1241151115713819 0.9045666525468371 0 0.16206583317966519 0.89685560785156404 0 0.19901705110390991 0.9175543425573498 0 0.14617343800780541 0.93808063414349496 0 0.16206583317966519 0.89685560785156404 0 0.19901705110390991 0.9175543425573498 0 0.16206583317966519 0.89685560785156404 0 0.19741632902693801 0.86755867406447229 0 0.19901705110390991 0.9175543425573498 0 0.19741632902693801 0.86755867406447229 0 0.24536017905392571 0.90704567837671446 0 0.19741632902693801 0.86755867406447229 0 0.2401283238295133 0.85648409884788523 0 0.24536017905392571 0.90704567837671446 0 0.19901705110390991 0.9175543425573498 0 0.24536017905392571 0.90704567837671446 0 0.22850979588452081 0.95594428570238643 0 0.19901705110390991 0.9175543425573498 0 0.22850979588452081 0.95594428570238643 0 0.18474005699953849 0.96231585248064622 0 0.27609987656793722 0.94991445621608572 0 0.22850979588452081 0.95594428570238643 0 0.24536017905392571 0.90704567837671446 0 0.25000000000104028 1 0 0.20000000000083221 1 0 0.22850979588452081 0.95594428570238643 0 0.20000000000083221 1 0 0.18474005699953849 0.96231585248064622 0 0.22850979588452081 0.95594428570238643 0 0.20000000000083221 1 0 0.15000000000062411 1 0 0.18474005699953849 0.96231585248064622 0 0.19901705110390991 0.9175543425573498 0 0.18474005699953849 0.96231585248064622 0 0.14617343800780541 0.93808063414349496 0 0.15000000000062411 1 0 0.14617343800780541 0.93808063414349496 0 0.18474005699953849 0.96231585248064622 0 0.15000000000062411 1 0 0.10266856499240549 0.95548163909968886 0 0.14617343800780541 0.93808063414349496 0 0.35000000000145642 1 0 0.32544832635163229 0.95485394099568932 0 0.36184234618600131 0.96443954459096326 0 0.40000000000166441 1 0 0.35000000000145642 1 0 0.36184234618600131 0.96443954459096326 0 0.35752321586431363 0.9185439911803448 0 0.36184234618600131 0.96443954459096326 0 0.32544832635163229 0.95485394099568932 0 0.35752321586431363 0.9185439911803448 0 0.39641108128798319 0.94356127926187128 0 0.36184234618600131 0.96443954459096326 0 0.35000000000145642 1 0 0.30000000000124832 1 0 0.32544832635163229 0.95485394099568932 0 0.30000000000124832 1 0 0.25000000000104028 1 0 0.27609987656793722 0.94991445621608572 0 0.25000000000104028 1 0 0.22850979588452081 0.95594428570238643 0 0.27609987656793722 0.94991445621608572 0 0.30000000000124832 1 0 0.27609987656793722 0.94991445621608572 0 0.32544832635163229 0.95485394099568932 0 0.27609987656793722 0.94991445621608572 0 0.30864387279288652 0.89906554525974958 0 0.32544832635163229 0.95485394099568932 0 0.27270076654418179 0.87751467830216623 0 0.30864387279288652 0.89906554525974958 0 0.24536017905392571 0.90704567837671446 0 0.27609987656793722 0.94991445621608572 0 0.24536017905392571 0.90704567837671446 0 0.30864387279288652 0.89906554525974958 0 0.27270076654418179 0.87751467830216623 0 0.24536017905392571 0.90704567837671446 0 0.2401283238295133 0.85648409884788523 0 0.35752321586431363 0.9185439911803448 0 0.30864387279288652 0.89906554525974958 0 0.35864759629805099 0.87963482415279515 0 0.35752321586431363 0.9185439911803448 0 0.32544832635163229 0.95485394099568932 0 0.30864387279288652 0.89906554525974958 0 0.35752321586431363 0.9185439911803448 0 0.35864759629805099 0.87963482415279515 0 0.39767323751400468 0.89584229130535065 0 0.35864759629805099 0.87963482415279515 0 0.33403534827021109 0.84402799729020661 0 0.39536230704883951 0.84069429572832477 0 0.33403534827021109 0.84402799729020661 0 0.35642984951668422 0.80994399665655703 0 0.39536230704883951 0.84069429572832477 0 0.33403534827021109 0.84402799729020661 0 0.30857225866488791 0.81101973481716805 0 0.35642984951668422 0.80994399665655703 0 0.33403534827021109 0.84402799729020661 0 0.35864759629805099 0.87963482415279515 0 0.30864387279288652 0.89906554525974958 0 0.33403534827021109 0.84402799729020661 0 0.30864387279288652 0.89906554525974958 0 0.29209212897034281 0.84715728365233667 0 0.27270076654418179 0.87751467830216623 0 0.29209212897034281 0.84715728365233667 0 0.30864387279288652 0.89906554525974958 0 0.27270076654418179 0.87751467830216623 0 0.2401283238295133 0.85648409884788523 0 0.29209212897034281 0.84715728365233667 0 0.26104540868854792 0.81401944968719064 0 0.29209212897034281 0.84715728365233667 0 0.2401283238295133 0.85648409884788523 0 0.26104540868854792 0.81401944968719064 0 0.30857225866488791 0.81101973481716805 0 0.29209212897034281 0.84715728365233667 0 0.33403534827021109 0.84402799729020661 0 0.29209212897034281 0.84715728365233667 0 0.30857225866488791 0.81101973481716805 0 0.26104540868854792 0.81401944968719064 0 0.2792923945214143 0.77665808831789485 0 0.30857225866488791 0.81101973481716805 0 0.33123028043633618 0.77629643437932982 0 0.30857225866488791 0.81101973481716805 0 0.2792923945214143 0.77665808831789485 0 0.26104540868854792 0.81401944968719064 0 0.22556077506376701 0.77837424984191617 0 0.2792923945214143 0.77665808831789485 0 0.25676291524611189 0.7436741304886243 0 0.29904318922293632 0.74132814928635593 0 0.2792923945214143 0.77665808831789485 0 0.25676291524611189 0.7436741304886243 0 0.2792923945214143 0.77665808831789485 0 0.22556077506376701 0.77837424984191617 0 0.33123028043633618 0.77629643437932982 0 0.2792923945214143 0.77665808831789485 0 0.29904318922293632 0.74132814928635593 0 0.33123028043633618 0.77629643437932982 0 0.29904318922293632 0.74132814928635593 0 0.35415581127540569 0.73730480045900215 0 0.33123028043633618 0.77629643437932982 0 0.35642984951668422 0.80994399665655703 0 0.30857225866488791 0.81101973481716805 0 0.33123028043633618 0.77629643437932982 0 0.38586766253264881 0.78219501014812498 0 0.35642984951668422 0.80994399665655703 0 0.33123028043633618 0.77629643437932982 0 0.35415581127540569 0.73730480045900215 0 0.38586766253264881 0.78219501014812498 0 0.40326160981139969 0.73346192995102844 0 0.42676259796334498 0.76772545931379299 0 0.38586766253264881 0.78219501014812498 0 0.40326160981139969 0.73346192995102844 0 0.38586766253264881 0.78219501014812498 0 0.35415581127540569 0.73730480045900215 0 0.39536230704883951 0.84069429572832477 0 0.38586766253264881 0.78219501014812498 0 0.42609163930740518 0.80361684430568059 0 0.39536230704883951 0.84069429572832477 0 0.35642984951668422 0.80994399665655703 0 0.38586766253264881 0.78219501014812498 0 0.38586766253264881 0.78219501014812498 0 0.42676259796334498 0.76772545931379299 0 0.42609163930740518 0.80361684430568059 0 0.4656888918609538 0.78493261229743638 0 0.42676259796334498 0.76772545931379299 0 0.45582236402875981 0.73896743678908217 0 0.4656888918609538 0.78493261229743638 0 0.45582236402875981 0.73896743678908217 0 0.50945740445113552 0.75476055527778108 0 0.4656888918609538 0.78493261229743638 0 0.50945740445113552 0.75476055527778108 0 0.50731287292894423 0.78963574450233831 0 0.4656888918609538 0.78493261229743638 0 0.50731287292894423 0.78963574450233831 0 0.50627822638148745 0.8263979829520941 0 0.4656888918609538 0.78493261229743638 0 0.45677673713123867 0.84253684404072415 0 0.42609163930740518 0.80361684430568059 0 0.4656888918609538 0.78493261229743638 0 0.42609163930740518 0.80361684430568059 0 0.42676259796334498 0.76772545931379299 0 0.4656888918609538 0.78493261229743638 0 0.50627822638148745 0.8263979829520941 0 0.45677673713123867 0.84253684404072415 0 0.50202631463681879 0.87892870825713787 0 0.45677673713123867 0.84253684404072415 0 0.50627822638148745 0.8263979829520941 0 0.50202631463681879 0.87892870825713787 0 0.44003836461056539 0.88093474584252718 0 0.45677673713123867 0.84253684404072415 0 0.39536230704883951 0.84069429572832477 0 0.45677673713123867 0.84253684404072415 0 0.44003836461056539 0.88093474584252718 0 0.39536230704883951 0.84069429572832477 0 0.44003836461056539 0.88093474584252718 0 0.39767323751400468 0.89584229130535065 0 0.39536230704883951 0.84069429572832477 0 0.42609163930740518 0.80361684430568059 0 0.45677673713123867 0.84253684404072415 0 0.39536230704883951 0.84069429572832477 0 0.39767323751400468 0.89584229130535065 0 0.35864759629805099 0.87963482415279515 0 0.35752321586431363 0.9185439911803448 0 0.39767323751400468 0.89584229130535065 0 0.39641108128798319 0.94356127926187128 0 0.4367309254023824 0.92065556789053882 0 0.39641108128798319 0.94356127926187128 0 0.39767323751400468 0.89584229130535065 0 0.4367309254023824 0.92065556789053882 0 0.39767323751400468 0.89584229130535065 0 0.44003836461056539 0.88093474584252718 0 0.4367309254023824 0.92065556789053882 0 0.44003836461056539 0.88093474584252718 0 0.47401147028110507 0.91529957330468115 0 0.50202631463681879 0.87892870825713787 0 0.47401147028110507 0.91529957330468115 0 0.44003836461056539 0.88093474584252718 0 0.52122150208832174 0.94089974453840242 0 0.47135117303824892 0.95556877749289892 0 0.47401147028110507 0.91529957330468115 0 0.50202631463681879 0.87892870825713787 0 0.52122150208832174 0.94089974453840242 0 0.47401147028110507 0.91529957330468115 0 0.4367309254023824 0.92065556789053882 0 0.47401147028110507 0.91529957330468115 0 0.47135117303824892 0.95556877749289892 0 0.4367309254023824 0.92065556789053882 0 0.47135117303824892 0.95556877749289892 0 0.4308986359464303 0.96395712492906194 0 0.50000000000205869 1 0 0.47135117303824892 0.95556877749289892 0 0.52122150208832174 0.94089974453840242 0 0.50000000000205869 1 0 0.45000000000187229 1 0 0.47135117303824892 0.95556877749289892 0 0.45000000000187229 1 0 0.4308986359464303 0.96395712492906194 0 0.47135117303824892 0.95556877749289892 0 0.45000000000187229 1 0 0.40000000000166441 1 0 0.4308986359464303 0.96395712492906194 0 0.40000000000166441 1 0 0.39641108128798319 0.94356127926187128 0 0.4308986359464303 0.96395712492906194 0 0.4367309254023824 0.92065556789053882 0 0.4308986359464303 0.96395712492906194 0 0.39641108128798319 0.94356127926187128 0 0.40000000000166441 1 0 0.36184234618600131 0.96443954459096326 0 0.39641108128798319 0.94356127926187128 0 0.33122374654748771 0.57588941099433744 0 0.35765792684946668 0.6000687869219653 0 0.31502927232353312 0.6134992213375432 0 0.35864735590330371 0.63903383440414463 0 0.31502927232353312 0.6134992213375432 0 0.35765792684946668 0.6000687869219653 0 0.35864735590330371 0.63903383440414463 0 0.35765792684946668 0.6000687869219653 0 0.39743091024207589 0.6239520004230239 0 0.33122374654748771 0.57588941099433744 0 0.37272913873093971 0.56192925302619479 0 0.35765792684946668 0.6000687869219653 0 0.38244435121258652 0.51653317813019495 0 0.37272913873093971 0.56192925302619479 0 0.33190227185843768 0.52715113583864037 0 0.33122374654748771 0.57588941099433744 0 0.33190227185843768 0.52715113583864037 0 0.37272913873093971 0.56192925302619479 0 0.38244435121258652 0.51653317813019495 0 0.33190227185843768 0.52715113583864037 0 0.35024835142131061 0.48654922671676981 0 0.33122374654748771 0.57588941099433744 0 0.29110487519241501 0.56588143995431495 0 0.33190227185843768 0.52715113583864037 0 0.28307294598219601 0.50789252727458634 0 0.33190227185843768 0.52715113583864037 0 0.29110487519241501 0.56588143995431495 0 0.31068898841644388 0.47541502461811092 0 0.33190227185843768 0.52715113583864037 0 0.28307294598219601 0.50789252727458634 0 0.28307294598219601 0.50789252727458634 0 0.25115337790845271 0.54719303014923271 0 0.23975172658309729 0.49475499200540818 0 0.28307294598219601 0.50789252727458634 0 0.29110487519241501 0.56588143995431495 0 0.25115337790845271 0.54719303014923271 0 0.26573297623774761 0.59828298563722948 0 0.25115337790845271 0.54719303014923271 0 0.29110487519241501 0.56588143995431495 0 0.33122374654748771 0.57588941099433744 0 0.31502927232353312 0.6134992213375432 0 0.29110487519241501 0.56588143995431495 0 0.26573297623774761 0.59828298563722948 0 0.29110487519241501 0.56588143995431495 0 0.31502927232353312 0.6134992213375432 0 0.26573297623774761 0.59828298563722948 0 0.31502927232353312 0.6134992213375432 0 0.27820712747429932 0.65530134213254643 0 0.26573297623774761 0.59828298563722948 0 0.27820712747429932 0.65530134213254643 0 0.2459498854893499 0.63248470766216769 0 0.2236846579037573 0.67380363126050236 0 0.27820712747429932 0.65530134213254643 0 0.26439878998046262 0.7048065392091396 0 0.31378396441836959 0.70157213313026345 0 0.27820712747429932 0.65530134213254643 0 0.32263089806001177 0.66003674931826484 0 0.31378396441836959 0.70157213313026345 0 0.26439878998046262 0.7048065392091396 0 0.27820712747429932 0.65530134213254643 0 0.27820712747429932 0.65530134213254643 0 0.31502927232353312 0.6134992213375432 0 0.32263089806001177 0.66003674931826484 0 0.25676291524611189 0.7436741304886243 0 0.26439878998046262 0.7048065392091396 0 0.29904318922293632 0.74132814928635593 0 0.31378396441836959 0.70157213313026345 0 0.29904318922293632 0.74132814928635593 0 0.26439878998046262 0.7048065392091396 0 0.31378396441836959 0.70157213313026345 0 0.35415581127540569 0.73730480045900215 0 0.29904318922293632 0.74132814928635593 0 0.31378396441836959 0.70157213313026345 0 0.36622285152418499 0.69092437780804039 0 0.35415581127540569 0.73730480045900215 0 0.40326160981139969 0.73346192995102844 0 0.35415581127540569 0.73730480045900215 0 0.36622285152418499 0.69092437780804039 0 0.35864735590330371 0.63903383440414463 0 0.32263089806001177 0.66003674931826484 0 0.31502927232353312 0.6134992213375432 0 0.31378396441836959 0.70157213313026345 0 0.32263089806001177 0.66003674931826484 0 0.36622285152418499 0.69092437780804039 0 0.35864735590330371 0.63903383440414463 0 0.36622285152418499 0.69092437780804039 0 0.32263089806001177 0.66003674931826484 0 0.35864735590330371 0.63903383440414463 0 0.3977710372045391 0.65868194622830212 0 0.36622285152418499 0.69092437780804039 0 0.35864735590330371 0.63903383440414463 0 0.39743091024207589 0.6239520004230239 0 0.3977710372045391 0.65868194622830212 0 0.36622285152418499 0.69092437780804039 0 0.3977710372045391 0.65868194622830212 0 0.43323420005758778 0.6913544522562407 0 0.43846182030517877 0.64845797726506715 0 0.43323420005758778 0.6913544522562407 0 0.3977710372045391 0.65868194622830212 0 0.43846182030517877 0.64845797726506715 0 0.39743091024207589 0.6239520004230239 0 0.43545892161006339 0.61093128915313821 0 0.43846182030517877 0.64845797726506715 0 0.3977710372045391 0.65868194622830212 0 0.39743091024207589 0.6239520004230239 0 0.40326160981139969 0.73346192995102844 0 0.36622285152418499 0.69092437780804039 0 0.43323420005758778 0.6913544522562407 0 0.40326160981139969 0.73346192995102844 0 0.43323420005758778 0.6913544522562407 0 0.45582236402875981 0.73896743678908217 0 0.40326160981139969 0.73346192995102844 0 0.45582236402875981 0.73896743678908217 0 0.42676259796334498 0.76772545931379299 0 0.5 0.69999999999999996 0 0.45582236402875981 0.73896743678908217 0 0.43323420005758778 0.6913544522562407 0 0.5 0.69999999999999996 0 0.50945740445113552 0.75476055527778108 0 0.45582236402875981 0.73896743678908217 0 0.5 0.69999999999999996 0 0.43323420005758778 0.6913544522562407 0 0.47913475093885149 0.66010775372412711 0 0.43846182030517877 0.64845797726506715 0 0.47095389620662098 0.61892551373708504 0 0.47913475093885149 0.66010775372412711 0 0.43846182030517877 0.64845797726506715 0 0.43545892161006339 0.61093128915313821 0 0.47095389620662098 0.61892551373708504 0 0.43846182030517877 0.64845797726506715 0 0.47913475093885149 0.66010775372412711 0 0.43323420005758778 0.6913544522562407 0 0.50715858906372158 0.63295939104129484 0 0.47913475093885149 0.66010775372412711 0 0.47095389620662098 0.61892551373708504 0 0.50715858906372158 0.63295939104129484 0 0.47095389620662098 0.61892551373708504 0 0.5166924242153631 0.59825134841919447 0 0.46666084890304671 0.57634471035397938 0 0.5166924242153631 0.59825134841919447 0 0.47095389620662098 0.61892551373708504 0 0.46666084890304671 0.57634471035397938 0 0.47095389620662098 0.61892551373708504 0 0.43545892161006339 0.61093128915313821 0 0.4089290844030305 0.58728915500154233 0 0.43545892161006339 0.61093128915313821 0 0.39743091024207589 0.6239520004230239 0 0.43545892161006339 0.61093128915313821 0 0.4089290844030305 0.58728915500154233 0 0.46666084890304671 0.57634471035397938 0 0.4089290844030305 0.58728915500154233 0 0.42644501560315817 0.54603747078095544 0 0.46666084890304671 0.57634471035397938 0 0.4089290844030305 0.58728915500154233 0 0.37272913873093971 0.56192925302619479 0 0.42644501560315817 0.54603747078095544 0 0.4089290844030305 0.58728915500154233 0 0.35765792684946668 0.6000687869219653 0 0.37272913873093971 0.56192925302619479 0 0.4089290844030305 0.58728915500154233 0 0.39743091024207589 0.6239520004230239 0 0.35765792684946668 0.6000687869219653 0 0.38244435121258652 0.51653317813019495 0 0.42644501560315817 0.54603747078095544 0 0.37272913873093971 0.56192925302619479 0 0.38244435121258652 0.51653317813019495 0 0.43507373378304309 0.49699695397193322 0 0.42644501560315817 0.54603747078095544 0 0.46666084890304671 0.57634471035397938 0 0.47793794143994173 0.52940715638744962 0 0.53245488764484505 0.55078124999999989 0 0.49102375406324739 0.49123754822244059 0 0.47793794143994173 0.52940715638744962 0 0.43507373378304309 0.49699695397193322 0 0.43507373378304309 0.49699695397193322 0 0.47793794143994173 0.52940715638744962 0 0.42644501560315817 0.54603747078095544 0 0.46666084890304671 0.57634471035397938 0 0.42644501560315817 0.54603747078095544 0 0.47793794143994173 0.52940715638744962 0 0.49102375406324739 0.49123754822244059 0 0.53330375813596242 0.50827942741749099 0 0.47793794143994173 0.52940715638744962 0 0.53245488764484505 0.55078124999999989 0 0.47793794143994173 0.52940715638744962 0 0.53330375813596242 0.50827942741749099 0 0.53245488764484505 0.55078124999999989 0 0.53330375813596242 0.50827942741749099 0 0.57435499076887508 0.54267261987897775 0 0.57412547362576272 0.58273804879550706 0 0.53245488764484505 0.55078124999999989 0 0.57435499076887508 0.54267261987897775 0 0.57611405284611883 0.50165903596042916 0 0.57435499076887508 0.54267261987897775 0 0.53330375813596242 0.50827942741749099 0 0.57611405284611883 0.50165903596042916 0 0.62042975506801734 0.54295974692364424 0 0.57435499076887508 0.54267261987897775 0 0.57412547362576272 0.58273804879550706 0 0.57435499076887508 0.54267261987897775 0 0.62042975506801734 0.54295974692364424 0 0.57611405284611883 0.50165903596042916 0 0.61547661924074692 0.48539576058873962 0 0.62042975506801734 0.54295974692364424 0 0.6405463747586706 0.63290524857395714 0 0.5991018319127801 0.62925360607495295 0 0.63065402604362242 0.59661356661633302 0 0.57412547362576272 0.58273804879550706 0 0.63065402604362242 0.59661356661633302 0 0.5991018319127801 0.62925360607495295 0 0.57412547362576272 0.58273804879550706 0 0.62042975506801734 0.54295974692364424 0 0.63065402604362242 0.59661356661633302 0 0.57412547362576272 0.58273804879550706 0 0.5991018319127801 0.62925360607495295 0 0.5498280205245758 0.6290146943450976 0 0.46666084890304671 0.57634471035397938 0 0.53245488764484505 0.55078124999999989 0 0.5166924242153631 0.59825134841919447 0 0.57412547362576272 0.58273804879550706 0 0.5498280205245758 0.6290146943450976 0 0.5166924242153631 0.59825134841919447 0 0.57412547362576272 0.58273804879550706 0 0.5166924242153631 0.59825134841919447 0 0.53245488764484505 0.55078124999999989 0 0.50715858906372158 0.63295939104129484 0 0.5166924242153631 0.59825134841919447 0 0.5498280205245758 0.6290146943450976 0 0.50715858906372158 0.63295939104129484 0 0.52584555706968406 0.66664215091846768 0 0.47913475093885149 0.66010775372412711 0 0.50715858906372158 0.63295939104129484 0 0.5498280205245758 0.6290146943450976 0 0.52584555706968406 0.66664215091846768 0 0.5 0.69999999999999996 0 0.47913475093885149 0.66010775372412711 0 0.52584555706968406 0.66664215091846768 0 0.54999999999999993 0.69999999999999996 0 0.52584555706968406 0.66664215091846768 0 0.57484956128872922 0.66573805030881994 0 0.57484956128872922 0.66573805030881994 0 0.52584555706968406 0.66664215091846768 0 0.5498280205245758 0.6290146943450976 0 0.50945740445113552 0.75476055527778108 0 0.5 0.69999999999999996 0 0.55363780716230748 0.74348740161571747 0 0.5 0.69999999999999996 0 0.52584555706968406 0.66664215091846768 0 0.54999999999999993 0.69999999999999996 0 0.5 0.69999999999999996 0 0.54999999999999993 0.69999999999999996 0 0.5 0.69999999999999996 0 0.54999999999999993 0.69999999999999996 0 0.55363780716230748 0.74348740161571747 0 0.59999999999999976 0.69999999999999996 0 0.59636844454254345 0.75937156204589151 0 0.55363780716230748 0.74348740161571747 0 0.54999999999999993 0.69999999999999996 0 0.59999999999999976 0.69999999999999996 0 0.54999999999999993 0.69999999999999996 0 0.57484956128872922 0.66573805030881994 0 0.59999999999999976 0.69999999999999996 0 0.54999999999999993 0.69999999999999996 0 0.59999999999999976 0.69999999999999996 0 0.55363780716230748 0.74348740161571747 0 0.59999999999999976 0.69999999999999996 0 0.6499999999999998 0.69999999999999996 0 0.59999999999999976 0.69999999999999996 0 0.62460753523532009 0.66851202781000296 0 0.6499999999999998 0.69999999999999996 0 0.59999999999999976 0.69999999999999996 0 0.63221990677827677 0.73442891067859706 0 0.59636844454254345 0.75937156204589151 0 0.57484956128872922 0.66573805030881994 0 0.5498280205245758 0.6290146943450976 0 0.5991018319127801 0.62925360607495295 0 0.59999999999999976 0.69999999999999996 0 0.57484956128872922 0.66573805030881994 0 0.62460753523532009 0.66851202781000296 0 0.57484956128872922 0.66573805030881994 0 0.5991018319127801 0.62925360607495295 0 0.62460753523532009 0.66851202781000296 0 0.6405463747586706 0.63290524857395714 0 0.62460753523532009 0.66851202781000296 0 0.5991018319127801 0.62925360607495295 0 0.6405463747586706 0.63290524857395714 0 0.675261390228442 0.65996937624687813 0 0.62460753523532009 0.66851202781000296 0 0.6499999999999998 0.69999999999999996 0 0.62460753523532009 0.66851202781000296 0 0.675261390228442 0.65996937624687813 0 0.6499999999999998 0.69999999999999996 0 0.675261390228442 0.65996937624687813 0 0.69999999999999984 0.69999999999999996 0 0.6405463747586706 0.63290524857395714 0 0.67529834988829951 0.61613270668143583 0 0.675261390228442 0.65996937624687813 0 0.64753070846764316 0.77332939069435502 0 0.63221990677827677 0.73442891067859706 0 0.66427993341343905 0.73232764502436276 0 0.6499999999999998 0.69999999999999996 0 0.66427993341343905 0.73232764502436276 0 0.63221990677827677 0.73442891067859706 0 0.59999999999999976 0.69999999999999996 0 0.6499999999999998 0.69999999999999996 0 0.63221990677827677 0.73442891067859706 0 0.6499999999999998 0.69999999999999996 0 0.69999999999999984 0.69999999999999996 0 0.6499999999999998 0.69999999999999996 0 0.69999999999999984 0.69999999999999996 0 0.66427993341343905 0.73232764502436276 0 0.69999999999999984 0.69999999999999996 0 0.6916490518212759 0.75387992374886192 0 0.66427993341343905 0.73232764502436276 0 0.69999999999999984 0.69999999999999996 0 0.72501250972655151 0.74067302935308721 0 0.6916490518212759 0.75387992374886192 0 0.69999999999999984 0.69999999999999996 0 0.74999999999999989 0.69999999999999996 0 0.72501250972655151 0.74067302935308721 0 0.69999999999999984 0.69999999999999996 0 0.72500000000000064 0.67022701834392062 0 0.74999999999999989 0.69999999999999996 0 0.69999999999999984 0.69999999999999996 0 0.74999999999999989 0.69999999999999996 0 0.74999999999999989 0.69999999999999996 0 0.75841349681148107 0.75422312624214749 0 0.72501250972655151 0.74067302935308721 0 0.71406021706547751 0.63292083137662503 0 0.72500000000000064 0.67022701834392062 0 0.675261390228442 0.65996937624687813 0 0.71406021706547751 0.63292083137662503 0 0.675261390228442 0.65996937624687813 0 0.67529834988829951 0.61613270668143583 0 0.69999999999999984 0.69999999999999996 0 0.675261390228442 0.65996937624687813 0 0.72500000000000064 0.67022701834392062 0 0.71406021706547751 0.63292083137662503 0 0.74994237037456724 0.62775548192980357 0 0.72500000000000064 0.67022701834392062 0 0.7750489929959945 0.66593931409600093 0 0.72500000000000064 0.67022701834392062 0 0.74994237037456724 0.62775548192980357 0 0.71406021706547751 0.63292083137662503 0 0.71809016091162536 0.58185040402320831 0 0.74994237037456724 0.62775548192980357 0 0.77293540622714185 0.59448302402785813 0 0.74994237037456724 0.62775548192980357 0 0.71809016091162536 0.58185040402320831 0 0.71406021706547751 0.63292083137662503 0 0.67529834988829951 0.61613270668143583 0 0.71809016091162536 0.58185040402320831 0 0.67323294229744413 0.57556450033612505 0 0.67569444444444449 0.53500863336860327 0 0.71809016091162536 0.58185040402320831 0 0.67323294229744413 0.57556450033612505 0 0.71809016091162536 0.58185040402320831 0 0.67529834988829951 0.61613270668143583 0 0.7152569930854884 0.5237994455134295 0 0.77151014687832564 0.54436834383023036 0 0.71809016091162536 0.58185040402320831 0 0.7152569930854884 0.5237994455134295 0 0.73947346780852752 0.49062440112282169 0 0.77151014687832564 0.54436834383023036 0 0.7152569930854884 0.5237994455134295 0 0.67569444444444449 0.53500863336860327 0 0.69385896817107129 0.48377516041410151 0 0.7152569930854884 0.5237994455134295 0 0.71809016091162536 0.58185040402320831 0 0.67569444444444449 0.53500863336860327 0 0.67323294229744413 0.57556450033612505 0 0.62042975506801734 0.54295974692364424 0 0.67569444444444449 0.53500863336860327 0 0.6541250972820879 0.49999999999999989 0 0.69385896817107129 0.48377516041410151 0 0.67569444444444449 0.53500863336860327 0 0.6541250972820879 0.49999999999999989 0 0.67569444444444449 0.53500863336860327 0 0.62042975506801734 0.54295974692364424 0 0.6541250972820879 0.49999999999999989 0 0.62042975506801734 0.54295974692364424 0 0.61547661924074692 0.48539576058873962 0 0.67323294229744413 0.57556450033612505 0 0.63065402604362242 0.59661356661633302 0 0.62042975506801734 0.54295974692364424 0 0.6405463747586706 0.63290524857395714 0 0.63065402604362242 0.59661356661633302 0 0.67529834988829951 0.61613270668143583 0 0.67323294229744413 0.57556450033612505 0 0.67529834988829951 0.61613270668143583 0 0.63065402604362242 0.59661356661633302 0 0.60000000000138687 1 0 0.57382506491224949 0.9629411906298494 0 0.62065498684670595 0.95224934003983619 0 0.65000000000104008 1 0 0.60000000000138687 1 0 0.62065498684670595 0.95224934003983619 0 0.57724883562309992 0.92155686857100794 0 0.62065498684670595 0.95224934003983619 0 0.57382506491224949 0.9629411906298494 0 0.60000000000138687 1 0 0.55000000000173355 1 0 0.57382506491224949 0.9629411906298494 0 0.55000000000173355 1 0 0.50000000000205869 1 0 0.52122150208832174 0.94089974453840242 0 0.57724883562309992 0.92155686857100794 0 0.57382506491224949 0.9629411906298494 0 0.52122150208832174 0.94089974453840242 0 0.55000000000173355 1 0 0.52122150208832174 0.94089974453840242 0 0.57382506491224949 0.9629411906298494 0 0.57724883562309992 0.92155686857100794 0 0.52122150208832174 0.94089974453840242 0 0.54783390826260769 0.89287767010860219 0 0.50202631463681879 0.87892870825713787 0 0.54783390826260769 0.89287767010860219 0 0.52122150208832174 0.94089974453840242 0 0.55899371797446828 0.85003102233514438 0 0.5832743223239254 0.88483152652961872 0 0.54783390826260769 0.89287767010860219 0 0.57724883562309992 0.92155686857100794 0 0.54783390826260769 0.89287767010860219 0 0.5832743223239254 0.88483152652961872 0 0.57724883562309992 0.92155686857100794 0 0.5832743223239254 0.88483152652961872 0 0.61885627562261258 0.90282959257498208 0 0.57724883562309992 0.92155686857100794 0 0.61885627562261258 0.90282959257498208 0 0.62065498684670595 0.95224934003983619 0 0.61343887413683884 0.856862479058357 0 0.61885627562261258 0.90282959257498208 0 0.5832743223239254 0.88483152652961872 0 0.61343887413683884 0.856862479058357 0 0.60294066490120068 0.80851322453934582 0 0.65005442820240822 0.82644988530054031 0 0.61343887413683884 0.856862479058357 0 0.55899371797446828 0.85003102233514438 0 0.60294066490120068 0.80851322453934582 0 0.54782696902220018 0.79245182748204157 0 0.60294066490120068 0.80851322453934582 0 0.55899371797446828 0.85003102233514438 0 0.61343887413683884 0.856862479058357 0 0.5832743223239254 0.88483152652961872 0 0.55899371797446828 0.85003102233514438 0 0.50202631463681879 0.87892870825713787 0 0.55899371797446828 0.85003102233514438 0 0.54783390826260769 0.89287767010860219 0 0.50202631463681879 0.87892870825713787 0 0.50627822638148745 0.8263979829520941 0 0.55899371797446828 0.85003102233514438 0 0.54782696902220018 0.79245182748204157 0 0.55899371797446828 0.85003102233514438 0 0.50627822638148745 0.8263979829520941 0 0.54782696902220018 0.79245182748204157 0 0.50627822638148745 0.8263979829520941 0 0.50731287292894423 0.78963574450233831 0 0.54782696902220018 0.79245182748204157 0 0.50731287292894423 0.78963574450233831 0 0.50945740445113552 0.75476055527778108 0 0.54782696902220018 0.79245182748204157 0 0.50945740445113552 0.75476055527778108 0 0.55363780716230748 0.74348740161571747 0 0.54782696902220018 0.79245182748204157 0 0.55363780716230748 0.74348740161571747 0 0.59636844454254345 0.75937156204589151 0 0.54782696902220018 0.79245182748204157 0 0.59636844454254345 0.75937156204589151 0 0.60294066490120068 0.80851322453934582 0 0.64753070846764316 0.77332939069435502 0 0.60294066490120068 0.80851322453934582 0 0.59636844454254345 0.75937156204589151 0 0.64753070846764316 0.77332939069435502 0 0.59636844454254345 0.75937156204589151 0 0.63221990677827677 0.73442891067859706 0 0.64753070846764316 0.77332939069435502 0 0.65005442820240822 0.82644988530054031 0 0.60294066490120068 0.80851322453934582 0 0.64753070846764316 0.77332939069435502 0 0.68024162096458085 0.79868546898116533 0 0.65005442820240822 0.82644988530054031 0 0.64753070846764316 0.77332939069435502 0 0.6916490518212759 0.75387992374886192 0 0.68024162096458085 0.79868546898116533 0 0.64753070846764316 0.77332939069435502 0 0.66427993341343905 0.73232764502436276 0 0.6916490518212759 0.75387992374886192 0 0.6916490518212759 0.75387992374886192 0 0.72501250972655151 0.74067302935308721 0 0.72500000000000064 0.7952620967744265 0 0.72501250972655151 0.74067302935308721 0 0.75841349681148107 0.75422312624214749 0 0.72500000000000064 0.7952620967744265 0 0.72500000000000064 0.7952620967744265 0 0.68024162096458085 0.79868546898116533 0 0.6916490518212759 0.75387992374886192 0 0.72500000000000064 0.7952620967744265 0 0.68697391633157634 0.84450604838764298 0 0.68024162096458085 0.79868546898116533 0 0.72500000000000064 0.7952620967744265 0 0.72863726579783861 0.85390518901155588 0 0.68697391633157634 0.84450604838764298 0 0.72500000000000064 0.7952620967744265 0 0.76901770135486491 0.84293557325473656 0 0.72863726579783861 0.85390518901155588 0 0.7250000000005199 0.89375000000045834 0 0.68697391633157634 0.84450604838764298 0 0.72863726579783861 0.85390518901155588 0 0.7250000000005199 0.89375000000045834 0 0.66412543161245952 0.88015090885499059 0 0.68697391633157634 0.84450604838764298 0 0.68697391633157634 0.84450604838764298 0 0.66412543161245952 0.88015090885499059 0 0.65005442820240822 0.82644988530054031 0 0.68697391633157634 0.84450604838764298 0 0.65005442820240822 0.82644988530054031 0 0.68024162096458085 0.79868546898116533 0 0.61343887413683884 0.856862479058357 0 0.65005442820240822 0.82644988530054031 0 0.66412543161245952 0.88015090885499059 0 0.61343887413683884 0.856862479058357 0 0.66412543161245952 0.88015090885499059 0 0.61885627562261258 0.90282959257498208 0 0.65507451745379841 0.92229208810758578 0 0.61885627562261258 0.90282959257498208 0 0.66412543161245952 0.88015090885499059 0 0.65507451745379841 0.92229208810758578 0 0.62065498684670595 0.95224934003983619 0 0.61885627562261258 0.90282959257498208 0 0.65507451745379841 0.92229208810758578 0 0.68987011941058407 0.92105047536677087 0 0.68015064798562208 0.95924320340003011 0 0.65507451745379841 0.92229208810758578 0 0.66412543161245952 0.88015090885499059 0 0.68987011941058407 0.92105047536677087 0 0.7250000000005199 0.89375000000045834 0 0.68987011941058407 0.92105047536677087 0 0.66412543161245952 0.88015090885499059 0 0.7250000000005199 0.89375000000045834 0 0.72863726579783861 0.85390518901155588 0 0.76891166905518427 0.88835469571185499 0 0.7250000000005199 0.89375000000045834 0 0.75729602384198635 0.92353652857884294 0 0.7250000000005199 0.94981617647078953 0 0.7250000000005199 0.89375000000045834 0 0.7250000000005199 0.94981617647078953 0 0.68987011941058407 0.92105047536677087 0 0.7250000000005199 0.94981617647078953 0 0.68015064798562208 0.95924320340003011 0 0.68987011941058407 0.92105047536677087 0 0.75000000000034661 1 0 0.7000000000006934 1 0 0.7250000000005199 0.94981617647078953 0 0.75000000000034661 1 0 0.7250000000005199 0.94981617647078953 0 0.770759834363826 0.95919399014344442 0 0.7000000000006934 1 0 0.68015064798562208 0.95924320340003011 0 0.7250000000005199 0.94981617647078953 0 0.7000000000006934 1 0 0.65000000000104008 1 0 0.68015064798562208 0.95924320340003011 0 0.65507451745379841 0.92229208810758578 0 0.68015064798562208 0.95924320340003011 0 0.62065498684670595 0.95224934003983619 0 0.65000000000104008 1 0 0.62065498684670595 0.95224934003983619 0 0.68015064798562208 0.95924320340003011 0 0.84999999999965292 1 0 0.85170973911348691 0.93569607295217616 0 0.89898474358632463 0.95391965591118966 0 0.84999999999965292 1 0 0.81486180804382891 0.96321394949790495 0 0.85170973911348691 0.93569607295217616 0 0.79680861578988083 0.92656778056766709 0 0.85170973911348691 0.93569607295217616 0 0.81486180804382891 0.96321394949790495 0 0.84999999999965292 1 0 0.79999999999999982 1 0 0.81486180804382891 0.96321394949790495 0 0.79999999999999982 1 0 0.770759834363826 0.95919399014344442 0 0.81486180804382891 0.96321394949790495 0 0.79999999999999982 1 0 0.75000000000034661 1 0 0.770759834363826 0.95919399014344442 0 0.7250000000005199 0.94981617647078953 0 0.75729602384198635 0.92353652857884294 0 0.770759834363826 0.95919399014344442 0 0.79680861578988083 0.92656778056766709 0 0.81486180804382891 0.96321394949790495 0 0.770759834363826 0.95919399014344442 0 0.79680861578988083 0.92656778056766709 0 0.75729602384198635 0.92353652857884294 0 0.76891166905518427 0.88835469571185499 0 0.79680861578988083 0.92656778056766709 0 0.770759834363826 0.95919399014344442 0 0.75729602384198635 0.92353652857884294 0 0.7250000000005199 0.89375000000045834 0 0.76891166905518427 0.88835469571185499 0 0.75729602384198635 0.92353652857884294 0 0.79680861578988083 0.92656778056766709 0 0.76891166905518427 0.88835469571185499 0 0.81159157511211755 0.88795995483179491 0 0.85170973911348691 0.93569607295217616 0 0.81159157511211755 0.88795995483179491 0 0.85600844944837662 0.88483418979512773 0 0.79680861578988083 0.92656778056766709 0 0.81159157511211755 0.88795995483179491 0 0.85170973911348691 0.93569607295217616 0 0.90416666666660628 0.9041666666666166 0 0.85170973911348691 0.93569607295217616 0 0.85600844944837662 0.88483418979512773 0 0.82709327591091286 0.84937141670920724 0 0.88088768115933802 0.84674609810493673 0 0.85600844944837662 0.88483418979512773 0 0.82709327591091286 0.84937141670920724 0 0.84725310900444062 0.80779732082917555 0 0.88088768115933802 0.84674609810493673 0 0.82709327591091286 0.84937141670920724 0 0.80041942726660109 0.81543261647703358 0 0.84725310900444062 0.80779732082917555 0 0.82709327591091286 0.84937141670920724 0 0.85600844944837662 0.88483418979512773 0 0.81159157511211755 0.88795995483179491 0 0.76901770135486491 0.84293557325473656 0 0.81159157511211755 0.88795995483179491 0 0.76891166905518427 0.88835469571185499 0 0.82709327591091286 0.84937141670920724 0 0.81159157511211755 0.88795995483179491 0 0.76901770135486491 0.84293557325473656 0 0.76901770135486491 0.84293557325473656 0 0.76891166905518427 0.88835469571185499 0 0.72863726579783861 0.85390518901155588 0 0.76901770135486491 0.84293557325473656 0 0.77094201086366854 0.79647480515688507 0 0.80041942726660109 0.81543261647703358 0 0.82709327591091286 0.84937141670920724 0 0.76901770135486491 0.84293557325473656 0 0.80041942726660109 0.81543261647703358 0 0.80185942888539485 0.77452061303608133 0 0.80041942726660109 0.81543261647703358 0 0.77094201086366854 0.79647480515688507 0 0.72500000000000064 0.7952620967744265 0 0.75841349681148107 0.75422312624214749 0 0.77094201086366854 0.79647480515688507 0 0.72500000000000064 0.7952620967744265 0 0.77094201086366854 0.79647480515688507 0 0.76901770135486491 0.84293557325473656 0 0.80185942888539485 0.77452061303608133 0 0.77094201086366854 0.79647480515688507 0 0.75841349681148107 0.75422312624214749 0 0.80185942888539485 0.77452061303608133 0 0.75841349681148107 0.75422312624214749 0 0.78578450296893509 0.73292684821144505 0 0.80185942888539485 0.77452061303608133 0 0.85491058998424563 0.76004753345552634 0 0.84725310900444062 0.80779732082917555 0 0.80185942888539485 0.77452061303608133 0 0.81864958914779962 0.73589050177899629 0 0.85491058998424563 0.76004753345552634 0 0.80185942888539485 0.77452061303608133 0 0.84725310900444062 0.80779732082917555 0 0.80041942726660109 0.81543261647703358 0 0.90299850604011456 0.79563452813489832 0 0.84725310900444062 0.80779732082917555 0 0.85491058998424563 0.76004753345552634 0 0.90299850604011456 0.79563452813489832 0 0.85491058998424563 0.76004753345552634 0 0.89999166460796554 0.74528934923809909 0 0.90299850604011456 0.79563452813489832 0 0.94399509803918602 0.75600490196082126 0 0.95386563387742829 0.80414874155775029 0 0.90299850604011456 0.79563452813489832 0 0.89999166460796554 0.74528934923809909 0 0.94399509803918602 0.75600490196082126 0 0.94399509803918602 0.75600490196082126 0 0.97435614836745565 0.77499999999987745 0 0.95386563387742829 0.80414874155775029 0 0.94399509803918602 0.75600490196082126 0 0.97166519676947294 0.73337114490064459 0 0.97435614836745565 0.77499999999987745 0 1 0.74999999999993494 0 0.97435614836745565 0.77499999999987745 0 0.97166519676947294 0.73337114490064459 0 1 0.74999999999993494 0 1 0.7999999999998193 0 0.97435614836745565 0.77499999999987745 0 1 0.7999999999998193 0 0.95386563387742829 0.80414874155775029 0 0.97435614836745565 0.77499999999987745 0 1 0.84999999999982645 0 0.95391631417670719 0.89584263333814784 0 0.93677536231884972 0.85000000000000286 0 1 0.84999999999982645 0 0.93677536231884972 0.85000000000000286 0 0.95386563387742829 0.80414874155775029 0 1 0.7999999999998193 0 1 0.84999999999982645 0 0.95386563387742829 0.80414874155775029 0 0.90416666666660628 0.9041666666666166 0 0.88088768115933802 0.84674609810493673 0 0.93677536231884972 0.85000000000000286 0 0.90299850604011456 0.79563452813489832 0 0.95386563387742829 0.80414874155775029 0 0.93677536231884972 0.85000000000000286 0 0.90299850604011456 0.79563452813489832 0 0.93677536231884972 0.85000000000000286 0 0.88088768115933802 0.84674609810493673 0 0.90299850604011456 0.79563452813489832 0 0.88088768115933802 0.84674609810493673 0 0.84725310900444062 0.80779732082917555 0 0.90416666666660628 0.9041666666666166 0 0.85600844944837662 0.88483418979512773 0 0.88088768115933802 0.84674609810493673 0 0.90416666666660628 0.9041666666666166 0 0.89898474358632463 0.95391965591118966 0 0.85170973911348691 0.93569607295217616 0 0.90416666666660628 0.9041666666666166 0 0.95391631417670719 0.89584263333814784 0 0.94399509803919068 0.9439950980391687 0 0.90416666666660628 0.9041666666666166 0 0.94399509803919068 0.9439950980391687 0 0.89898474358632463 0.95391965591118966 0 0.90416666666660628 0.9041666666666166 0 0.93677536231884972 0.85000000000000286 0 0.95391631417670719 0.89584263333814784 0 1 0.84999999999982645 0 1 0.8999999999998336 0 0.95391631417670719 0.89584263333814784 0 1 0.8999999999998336 0 1 0.94999999999997109 0 0.97435614836744289 0.92499999999990257 0 1 0.8999999999998336 0 0.97435614836744289 0.92499999999990257 0 0.95391631417670719 0.89584263333814784 0 0.94399509803919068 0.9439950980391687 0 0.95391631417670719 0.89584263333814784 0 0.97435614836744289 0.92499999999990257 0 0.94399509803919068 0.9439950980391687 0 0.97435614836744289 0.92499999999990257 0 0.97166519676946206 0.96662885509935492 0 1 0.94999999999997109 0 0.97166519676946206 0.96662885509935492 0 0.97435614836744289 0.92499999999990257 0 1 1 0 0.97166519676946206 0.96662885509935492 0 1 0.94999999999997109 0 1 1 0 0.94999999999979179 1 0 0.97166519676946206 0.96662885509935492 0 0.94999999999979179 1 0 0.94399509803919068 0.9439950980391687 0 0.97166519676946206 0.96662885509935492 0 0.94999999999979179 1 0 0.89999999999958358 1 0 0.89898474358632463 0.95391965591118966 0 0.94999999999979179 1 0 0.89898474358632463 0.95391965591118966 0 0.94399509803919068 0.9439950980391687 0 0.89999999999958358 1 0 0.84999999999965292 1 0 0.89898474358632463 0.95391965591118966 0 0.86956835336234861 0.571283299838105 0 0.81723410853263523 0.59419663659258926 0 0.82862096804812391 0.55037090955459045 0 0.83758014339878906 0.63222013025741819 0 0.81723410853263523 0.59419663659258926 0 0.87159648282691515 0.61285406320581504 0 0.83758014339878906 0.63222013025741819 0 0.79884539758237771 0.62875045078114233 0 0.81723410853263523 0.59419663659258926 0 0.86956835336234861 0.571283299838105 0 0.87159648282691515 0.61285406320581504 0 0.81723410853263523 0.59419663659258926 0 0.86956835336234861 0.571283299838105 0 0.82862096804812391 0.55037090955459045 0 0.86907294890112186 0.52008116128001669 0 0.82862096804812391 0.55037090955459045 0 0.81441713509985358 0.51161854125224959 0 0.86907294890112186 0.52008116128001669 0 0.84723782639812573 0.48638347960178252 0 0.86907294890112186 0.52008116128001669 0 0.81441713509985358 0.51161854125224959 0 0.82862096804812391 0.55037090955459045 0 0.77151014687832564 0.54436834383023036 0 0.81441713509985358 0.51161854125224959 0 0.77846603114747959 0.49850927265137401 0 0.81441713509985358 0.51161854125224959 0 0.77151014687832564 0.54436834383023036 0 0.77846603114747959 0.49850927265137401 0 0.77151014687832564 0.54436834383023036 0 0.73947346780852752 0.49062440112282169 0 0.77293540622714185 0.59448302402785813 0 0.71809016091162536 0.58185040402320831 0 0.77151014687832564 0.54436834383023036 0 0.81723410853263523 0.59419663659258926 0 0.77293540622714185 0.59448302402785813 0 0.77151014687832564 0.54436834383023036 0 0.82862096804812391 0.55037090955459045 0 0.81723410853263523 0.59419663659258926 0 0.77151014687832564 0.54436834383023036 0 0.77293540622714185 0.59448302402785813 0 0.81723410853263523 0.59419663659258926 0 0.79884539758237771 0.62875045078114233 0 0.77293540622714185 0.59448302402785813 0 0.79884539758237771 0.62875045078114233 0 0.74994237037456724 0.62775548192980357 0 0.7750489929959945 0.66593931409600093 0 0.74994237037456724 0.62775548192980357 0 0.79884539758237771 0.62875045078114233 0 0.74999999999999989 0.69999999999999996 0 0.72500000000000064 0.67022701834392062 0 0.7750489929959945 0.66593931409600093 0 0.79999999999999982 0.69999999999999996 0 0.7750489929959945 0.66593931409600093 0 0.82457059160610424 0.66831947184359608 0 0.7750489929959945 0.66593931409600093 0 0.79884539758237771 0.62875045078114233 0 0.82457059160610424 0.66831947184359608 0 0.74999999999999989 0.69999999999999996 0 0.78578450296893509 0.73292684821144505 0 0.75841349681148107 0.75422312624214749 0 0.74999999999999989 0.69999999999999996 0 0.79999999999999982 0.69999999999999996 0 0.78578450296893509 0.73292684821144505 0 0.74999999999999989 0.69999999999999996 0 0.7750489929959945 0.66593931409600093 0 0.79999999999999982 0.69999999999999996 0 0.74999999999999989 0.69999999999999996 0 0.79999999999999982 0.69999999999999996 0 0.80185942888539485 0.77452061303608133 0 0.78578450296893509 0.73292684821144505 0 0.81864958914779962 0.73589050177899629 0 0.79999999999999982 0.69999999999999996 0 0.81864958914779962 0.73589050177899629 0 0.78578450296893509 0.73292684821144505 0 0.84999999999999987 0.69999999999999996 0 0.85491058998424563 0.76004753345552634 0 0.81864958914779962 0.73589050177899629 0 0.79999999999999982 0.69999999999999996 0 0.84999999999999987 0.69999999999999996 0 0.79999999999999982 0.69999999999999996 0 0.82457059160610424 0.66831947184359608 0 0.84999999999999987 0.69999999999999996 0 0.79999999999999982 0.69999999999999996 0 0.84999999999999987 0.69999999999999996 0 0.81864958914779962 0.73589050177899629 0 0.84999999999999987 0.69999999999999996 0 0.89999999999999991 0.69999999999999996 0 0.84999999999999987 0.69999999999999996 0 0.89999166460796554 0.74528934923809909 0 0.85491058998424563 0.76004753345552634 0 0.83758014339878906 0.63222013025741819 0 0.82457059160610424 0.66831947184359608 0 0.79884539758237771 0.62875045078114233 0 0.84999999999999987 0.69999999999999996 0 0.82457059160610424 0.66831947184359608 0 0.87712158428786946 0.65709029563313581 0 0.83758014339878906 0.63222013025741819 0 0.87159648282691515 0.61285406320581504 0 0.87712158428786946 0.65709029563313581 0 0.83758014339878906 0.63222013025741819 0 0.87712158428786946 0.65709029563313581 0 0.82457059160610424 0.66831947184359608 0 0.91750694127105259 0.63017627779935648 0 0.92057473616084773 0.66770436535372446 0 0.87712158428786946 0.65709029563313581 0 0.91750694127105259 0.63017627779935648 0 0.87712158428786946 0.65709029563313581 0 0.87159648282691515 0.61285406320581504 0 0.84999999999999987 0.69999999999999996 0 0.87712158428786946 0.65709029563313581 0 0.89999999999999991 0.69999999999999996 0 0.89999999999999991 0.69999999999999996 0 0.87712158428786946 0.65709029563313581 0 0.92057473616084773 0.66770436535372446 0 0.91750694127105259 0.63017627779935648 0 0.9578014258160763 0.65787212321113708 0 0.92057473616084773 0.66770436535372446 0 0.84999999999999987 0.69999999999999996 0 0.89999999999999991 0.69999999999999996 0 0.89999166460796554 0.74528934923809909 0 0.89999999999999991 0.69999999999999996 0 0.94999999999999996 0.69999999999999996 0 0.89999999999999991 0.69999999999999996 0 0.92057473616084773 0.66770436535372446 0 0.94999999999999996 0.69999999999999996 0 0.89999999999999991 0.69999999999999996 0 0.94999999999999996 0.69999999999999996 0 0.89999166460796554 0.74528934923809909 0 0.94999999999999996 0.69999999999999996 0 0.94399509803918602 0.75600490196082126 0 0.89999166460796554 0.74528934923809909 0 0.94999999999999996 0.69999999999999996 0 0.97166519676947294 0.73337114490064459 0 0.94399509803918602 0.75600490196082126 0 0.94999999999999996 0.69999999999999996 0 1 0.69999999999999996 0 1 0.69999999999999996 0 0.97166519676947294 0.73337114490064459 0 0.94999999999999996 0.69999999999999996 0 1 0.69999999999999996 0 1 0.74999999999993494 0 0.97166519676947294 0.73337114490064459 0 0.91750694127105259 0.63017627779935648 0 0.95867599106212187 0.60011091146651041 0 0.9578014258160763 0.65787212321113708 0 0.94999999999999996 0.69999999999999996 0 0.92057473616084773 0.66770436535372446 0 0.9578014258160763 0.65787212321113708 0 1 0.69999999999999996 0 0.94999999999999996 0.69999999999999996 0 0.9578014258160763 0.65787212321113708 0 1 0.69999999999999996 0 0.9578014258160763 0.65787212321113708 0 1 0.64999999999986979 0 1 0.64999999999986979 0 0.9578014258160763 0.65787212321113708 0 0.95867599106212187 0.60011091146651041 0 1 0.54999999999963112 0 0.95867599106212187 0.60011091146651041 0 0.93732437411268477 0.55911392101136159 0 1 0.59999999999973963 0 1 0.64999999999986979 0 0.95867599106212187 0.60011091146651041 0 1 0.54999999999963112 0 1 0.59999999999973963 0 0.95867599106212187 0.60011091146651041 0 0.91750694127105259 0.63017627779935648 0 0.91143117093204207 0.58709913730335972 0 0.95867599106212187 0.60011091146651041 0 0.93732437411268477 0.55911392101136159 0 0.95867599106212187 0.60011091146651041 0 0.91143117093204207 0.58709913730335972 0 0.86956835336234861 0.571283299838105 0 0.90900154012161016 0.53607784105648792 0 0.91143117093204207 0.58709913730335972 0 0.86956835336234861 0.571283299838105 0 0.91143117093204207 0.58709913730335972 0 0.87159648282691515 0.61285406320581504 0 0.91750694127105259 0.63017627779935648 0 0.87159648282691515 0.61285406320581504 0 0.91143117093204207 0.58709913730335972 0 0.91696753777131557 0.497780560203536 0 0.90900154012161016 0.53607784105648792 0 0.86907294890112186 0.52008116128001669 0 0.86956835336234861 0.571283299838105 0 0.86907294890112186 0.52008116128001669 0 0.90900154012161016 0.53607784105648792 0 0.93732437411268477 0.55911392101136159 0 0.90900154012161016 0.53607784105648792 0 0.95631871884947484 0.51827533208233789 0 0.93732437411268477 0.55911392101136159 0 0.91143117093204207 0.58709913730335972 0 0.90900154012161016 0.53607784105648792 0 0.91696753777131557 0.497780560203536 0 0.95631871884947484 0.51827533208233789 0 0.90900154012161016 0.53607784105648792 0 1 0.54999999999963112 0 0.93732437411268477 0.55911392101136159 0 0.95631871884947484 0.51827533208233789 0 1 0.49999999999950101 0 1 0.54999999999963112 0 0.95631871884947484 0.51827533208233789 0 1 0.49999999999950101 0 0.95631871884947484 0.51827533208233789 0 0.96228564064454991 0.48206450662049471 0 1 0.44999999999963131 0 1 0.49999999999950101 0 0.96228564064454991 0.48206450662049471 0 1 0.44999999999963131 0 0.96228564064454991 0.48206450662049471 0 0.93814194660195893 0.44426664081746747 0 0.91696753777131557 0.497780560203536 0 0.93814194660195893 0.44426664081746747 0 0.96228564064454991 0.48206450662049471 0 0.91696753777131557 0.497780560203536 0 0.96228564064454991 0.48206450662049471 0 0.95631871884947484 0.51827533208233789 0 1 0.34999999999993492 0 1 0.39999999999978308 0 0.95871855522754235 0.40006508612975411 0 1 0.39999999999978308 0 1 0.44999999999963131 0 0.95871855522754235 0.40006508612975411 0 1 0.44999999999963131 0 0.93814194660195893 0.44426664081746747 0 0.95871855522754235 0.40006508612975411 0 0.91750694127107502 0.36982372220068471 0 0.95871855522754235 0.40006508612975411 0 0.90594285160987287 0.4141265964174129 0 0.93814194660195893 0.44426664081746747 0 0.90594285160987287 0.4141265964174129 0 0.95871855522754235 0.40006508612975411 0 0.90594285160987287 0.4141265964174129 0 0.88594198078881503 0.46167788676578442 0 0.86411095495256451 0.42388805655111889 0 0.86411095495256451 0.42388805655111889 0 0.86844634540301924 0.38530937474099819 0 0.90594285160987287 0.4141265964174129 0 0.91750694127107502 0.36982372220068471 0 0.90594285160987287 0.4141265964174129 0 0.86844634540301924 0.38530937474099819 0 0.91696753777131557 0.497780560203536 0 0.88594198078881503 0.46167788676578442 0 0.93814194660195893 0.44426664081746747 0 0.93814194660195893 0.44426664081746747 0 0.88594198078881503 0.46167788676578442 0 0.90594285160987287 0.4141265964174129 0 0.91696753777131557 0.497780560203536 0 0.86907294890112186 0.52008116128001669 0 0.88594198078881503 0.46167788676578442 0 0.84723782639812573 0.48638347960178252 0 0.88594198078881503 0.46167788676578442 0 0.86907294890112186 0.52008116128001669 0 0.84723782639812573 0.48638347960178252 0 0.81441713509985358 0.51161854125224959 0 0.81400510706333218 0.47357325943904899 0 0.84723782639812573 0.48638347960178252 0 0.81400510706333218 0.47357325943904899 0 0.84925632466077294 0.45359738909549091 0 0.81973119833356312 0.43505687159469048 0 0.84925632466077294 0.45359738909549091 0 0.81400510706333218 0.47357325943904899 0 0.84723782639812573 0.48638347960178252 0 0.84925632466077294 0.45359738909549091 0 0.88594198078881503 0.46167788676578442 0 0.86411095495256451 0.42388805655111889 0 0.84925632466077294 0.45359738909549091 0 0.81973119833356312 0.43505687159469048 0 0.86411095495256451 0.42388805655111889 0 0.88594198078881503 0.46167788676578442 0 0.84925632466077294 0.45359738909549091 0 0.86411095495256451 0.42388805655111889 0 0.81308179852519835 0.39754945808726527 0 0.86844634540301924 0.38530937474099819 0 0.83573492347052902 0.36590755630746369 0 0.86844634540301924 0.38530937474099819 0 0.81308179852519835 0.39754945808726527 0 0.86411095495256451 0.42388805655111889 0 0.81973119833356312 0.43505687159469048 0 0.81308179852519835 0.39754945808726527 0 0.77354604466818633 0.40378688774472771 0 0.81973119833356312 0.43505687159469048 0 0.77972660463949339 0.45529290596363098 0 0.77354604466818633 0.40378688774472771 0 0.81308179852519835 0.39754945808726527 0 0.81973119833356312 0.43505687159469048 0 0.77354604466818633 0.40378688774472771 0 0.78145581580700685 0.34881365920033602 0 0.81308179852519835 0.39754945808726527 0 0.77354604466818633 0.40378688774472771 0 0.77972660463949339 0.45529290596363098 0 0.73483647259922602 0.44789725365921768 0 0.73483647259922602 0.44789725365921768 0 0.77972660463949339 0.45529290596363098 0 0.73947346780852752 0.49062440112282169 0 0.77846603114747959 0.49850927265137401 0 0.73947346780852752 0.49062440112282169 0 0.77972660463949339 0.45529290596363098 0 0.77846603114747959 0.49850927265137401 0 0.77972660463949339 0.45529290596363098 0 0.81400510706333218 0.47357325943904899 0 0.77846603114747959 0.49850927265137401 0 0.81400510706333218 0.47357325943904899 0 0.81441713509985358 0.51161854125224959 0 0.81973119833356312 0.43505687159469048 0 0.81400510706333218 0.47357325943904899 0 0.77972660463949339 0.45529290596363098 0 0.79999999999999982 0.29999999999999999 0 0.77075983436335049 0.25919399014334171 0 0.81486180804364938 0.26321394949780091 0 0.74999999999999989 0.29999999999999999 0 0.79999999999999982 0.29999999999999999 0 0.74999999999999989 0.29999999999999999 0 0.77075983436335049 0.25919399014334171 0 0.79999999999999982 0.29999999999999999 0 0.74999999999999989 0.29999999999999999 0 0.79999999999999982 0.29999999999999999 0 0.78145581580700685 0.34881365920033602 0 0.74999999999999989 0.29999999999999999 0 0.78145581580700685 0.34881365920033602 0 0.73090396928863699 0.33699297293167962 0 0.77354604466818633 0.40378688774472771 0 0.74764719760526988 0.3719647154012321 0 0.78145581580700685 0.34881365920033602 0 0.78145581580700685 0.34881365920033602 0 0.74764719760526988 0.3719647154012321 0 0.73090396928863699 0.33699297293167962 0 0.83573492347052902 0.36590755630746369 0 0.81308179852519835 0.39754945808726527 0 0.78145581580700685 0.34881365920033602 0 0.79999999999999982 0.29999999999999999 0 0.82500000000000062 0.33010209762754811 0 0.78145581580700685 0.34881365920033602 0 0.83573492347052902 0.36590755630746369 0 0.78145581580700685 0.34881365920033602 0 0.82500000000000062 0.33010209762754811 0 0.83573492347052902 0.36590755630746369 0 0.82500000000000062 0.33010209762754811 0 0.87430060258887643 0.34056085888204451 0 0.83573492347052902 0.36590755630746369 0 0.87430060258887643 0.34056085888204451 0 0.86844634540301924 0.38530937474099819 0 0.84999999999999987 0.29999999999999999 0 0.87430060258887643 0.34056085888204451 0 0.82500000000000062 0.33010209762754811 0 0.84999999999999987 0.29999999999999999 0 0.89999999999999991 0.29999999999999999 0 0.87430060258887643 0.34056085888204451 0 0.84999999999999987 0.29999999999999999 0 0.81486180804364938 0.26321394949780091 0 0.8517097391133297 0.2356960729520409 0 0.84999999999999987 0.29999999999999999 0 0.8517097391133297 0.2356960729520409 0 0.89898474358614167 0.25391965591104898 0 0.84999999999999987 0.29999999999999999 0 0.89999999999999991 0.29999999999999999 0 0.79999999999999982 0.29999999999999999 0 0.84999999999999987 0.29999999999999999 0 0.82500000000000062 0.33010209762754811 0 0.79999999999999982 0.29999999999999999 0 0.81486180804364938 0.26321394949780091 0 0.84999999999999987 0.29999999999999999 0 0.79999999999999982 0.29999999999999999 0 0.84999999999999987 0.29999999999999999 0 0.84999999999999987 0.29999999999999999 0 0.89898474358614167 0.25391965591104898 0 0.89999999999999991 0.29999999999999999 0 0.89999999999999991 0.29999999999999999 0 0.94999999999999996 0.29999999999999999 0 0.89999999999999991 0.29999999999999999 0 0.94999999999999996 0.29999999999999999 0 0.92012390126144183 0.33123581297173937 0 0.89999999999999991 0.29999999999999999 0 0.89898474358614167 0.25391965591104898 0 0.94999999999999996 0.29999999999999999 0 0.94999999999999996 0.29999999999999999 0 0.89898474358614167 0.25391965591104898 0 0.94399509803921056 0.24399509803922639 0 0.91750694127107502 0.36982372220068471 0 0.86844634540301924 0.38530937474099819 0 0.87430060258887643 0.34056085888204451 0 0.91750694127107502 0.36982372220068471 0 0.87430060258887643 0.34056085888204451 0 0.92012390126144183 0.33123581297173937 0 0.89999999999999991 0.29999999999999999 0 0.92012390126144183 0.33123581297173937 0 0.87430060258887643 0.34056085888204451 0 0.91750694127107502 0.36982372220068471 0 0.92012390126144183 0.33123581297173937 0 0.95780851984364423 0.34215720972155339 0 0.91750694127107502 0.36982372220068471 0 0.95780851984364423 0.34215720972155339 0 0.95871855522754235 0.40006508612975411 0 0.94999999999999996 0.29999999999999999 0 0.95780851984364423 0.34215720972155339 0 0.92012390126144183 0.33123581297173937 0 1 0.29999999999999999 0 0.95780851984364423 0.34215720972155339 0 0.94999999999999996 0.29999999999999999 0 1 0.29999999999999999 0 1 0.34999999999993492 0 0.95780851984364423 0.34215720972155339 0 1 0.34999999999993492 0 0.95871855522754235 0.40006508612975411 0 0.95780851984364423 0.34215720972155339 0 0.94999999999999996 0.29999999999999999 0 0.94399509803921056 0.24399509803922639 0 0.97166519676951801 0.26662885509932011 0 0.94999999999999996 0.29999999999999999 0 1 0.29999999999999999 0 1 0.29999999999999999 0 0.94999999999999996 0.29999999999999999 0 0.97166519676951801 0.26662885509932011 0 1 0.29999999999999999 0 0.97166519676951801 0.26662885509932011 0 1 0.24999999999987299 0 1 0.24999999999987299 0 0.97166519676951801 0.26662885509932011 0 0.97435614836740092 0.22499999999981049 0 1 0.19999999999974799 0 1 0.24999999999987299 0 0.97435614836740092 0.22499999999981049 0 0.94399509803921056 0.24399509803922639 0 0.95391631417672862 0.19584263333809451 0 0.97435614836740092 0.22499999999981049 0 0.94399509803921056 0.24399509803922639 0 0.97435614836740092 0.22499999999981049 0 0.97166519676951801 0.26662885509932011 0 1 0.19999999999974799 0 0.97435614836740092 0.22499999999981049 0 0.95391631417672862 0.19584263333809451 0 1 0.14999999999961891 0 0.95391631417672862 0.19584263333809451 0 0.93677536231883773 0.14999999999999089 0 1 0.14999999999961891 0 0.93677536231883773 0.14999999999999089 0 0.95386563387744361 0.1041487415577465 0 1 0.14999999999961891 0 1 0.19999999999974799 0 0.95391631417672862 0.19584263333809451 0 0.90416666666668166 0.20416666666667119 0 0.93677536231883773 0.14999999999999089 0 0.95391631417672862 0.19584263333809451 0 0.90416666666668166 0.20416666666667119 0 0.88088768115941807 0.14674609810479519 0 0.93677536231883773 0.14999999999999089 0 0.90299850604006393 0.09563452813493091 0 0.93677536231883773 0.14999999999999089 0 0.88088768115941807 0.14674609810479519 0 0.90416666666668166 0.20416666666667119 0 0.85600844944842547 0.1848341897950983 0 0.88088768115941807 0.14674609810479519 0 0.90416666666668166 0.20416666666667119 0 0.89898474358614167 0.25391965591104898 0 0.8517097391133297 0.2356960729520409 0 0.90416666666668166 0.20416666666667119 0 0.94399509803921056 0.24399509803922639 0 0.89898474358614167 0.25391965591104898 0 0.90416666666668166 0.20416666666667119 0 0.95391631417672862 0.19584263333809451 0 0.94399509803921056 0.24399509803922639 0 0.94999999999986839 0 0 0.97166519676946894 0.033371144900598393 0 0.94399509803922566 0.056004901960802607 0 1 0 0 0.97166519676946894 0.033371144900598393 0 0.94999999999986839 0 0 1 0 0 1 0.049999999999896842 0 0.97166519676946894 0.033371144900598393 0 1 0.049999999999896842 0 0.97435614836748241 0.074999999999825387 0 0.97166519676946894 0.033371144900598393 0 0.94399509803922566 0.056004901960802607 0 0.97166519676946894 0.033371144900598393 0 0.97435614836748241 0.074999999999825387 0 0.94399509803922566 0.056004901960802607 0 0.97435614836748241 0.074999999999825387 0 0.95386563387744361 0.1041487415577465 0 1 0.099999999999753911 0 0.95386563387744361 0.1041487415577465 0 0.97435614836748241 0.074999999999825387 0 1 0.049999999999896842 0 1 0.099999999999753911 0 0.97435614836748241 0.074999999999825387 0 1 0.099999999999753911 0 1 0.14999999999961891 0 0.95386563387744361 0.1041487415577465 0 0.90299850604006393 0.09563452813493091 0 0.95386563387744361 0.1041487415577465 0 0.93677536231883773 0.14999999999999089 0 0.90299850604006393 0.09563452813493091 0 0.88088768115941807 0.14674609810479519 0 0.84725310900442086 0.10779732082922661 0 0.90299850604006393 0.09563452813493091 0 0.85491058998398861 0.060047533455626502 0 0.899991664607802 0.045289349238254978 0 0.90299850604006393 0.09563452813493091 0 0.94399509803922566 0.056004901960802607 0 0.95386563387744361 0.1041487415577465 0 0.90299850604006393 0.09563452813493091 0 0.899991664607802 0.045289349238254978 0 0.94399509803922566 0.056004901960802607 0 0.94999999999986839 0 0 0.94399509803922566 0.056004901960802607 0 0.899991664607802 0.045289349238254978 0 0.84999999999960507 0 0 0.89999999999973679 0 0 0.899991664607802 0.045289349238254978 0 0.89999999999973679 0 0 0.94999999999986839 0 0 0.899991664607802 0.045289349238254978 0 0.79999999999947335 0 0 0.84999999999960507 0 0 0.81864958914740749 0.035890501779055867 0 0.84999999999960507 0 0 0.899991664607802 0.045289349238254978 0 0.85491058998398861 0.060047533455626502 0 0.80185942888501827 0.074520613036224564 0 0.81864958914740749 0.035890501779055867 0 0.85491058998398861 0.060047533455626502 0 0.84999999999960507 0 0 0.85491058998398861 0.060047533455626502 0 0.81864958914740749 0.035890501779055867 0 0.80185942888501827 0.074520613036224564 0 0.85491058998398861 0.060047533455626502 0 0.84725310900442086 0.10779732082922661 0 0.90299850604006393 0.09563452813493091 0 0.84725310900442086 0.10779732082922661 0 0.85491058998398861 0.060047533455626502 0 0.80185942888501827 0.074520613036224564 0 0.84725310900442086 0.10779732082922661 0 0.80076557130237269 0.1154587552654202 0 0.82709327591102189 0.14937141670914489 0 0.80076557130237269 0.1154587552654202 0 0.84725310900442086 0.10779732082922661 0 0.80185942888501827 0.074520613036224564 0 0.80076557130237269 0.1154587552654202 0 0.76878382444651716 0.097147941686331368 0 0.72525833953073282 0.1032114801687094 0 0.76878382444651716 0.097147941686331368 0 0.77144070960558853 0.14311854477243749 0 0.77144070960558853 0.14311854477243749 0 0.76878382444651716 0.097147941686331368 0 0.80076557130237269 0.1154587552654202 0 0.80185942888501827 0.074520613036224564 0 0.76878382444651716 0.097147941686331368 0 0.7527966693318906 0.053051678021508272 0 0.80185942888501827 0.074520613036224564 0 0.78393852574753176 0.032039079577822822 0 0.81864958914740749 0.035890501779055867 0 0.80185942888501827 0.074520613036224564 0 0.7527966693318906 0.053051678021508272 0 0.78393852574753176 0.032039079577822822 0 0.74999999999934175 0 0 0.78393852574753176 0.032039079577822822 0 0.7527966693318906 0.053051678021508272 0 0.74999999999934175 0 0 0.79999999999947335 0 0 0.78393852574753176 0.032039079577822822 0 0.79999999999947335 0 0 0.81864958914740749 0.035890501779055867 0 0.78393852574753176 0.032039079577822822 0 0.79680861578956375 0.22656778056752541 0 0.81283102246527783 0.1881007222486438 0 0.8517097391133297 0.2356960729520409 0 0.8517097391133297 0.2356960729520409 0 0.81283102246527783 0.1881007222486438 0 0.85600844944842547 0.1848341897950983 0 0.79680861578956375 0.22656778056752541 0 0.8517097391133297 0.2356960729520409 0 0.81486180804364938 0.26321394949780091 0 0.90416666666668166 0.20416666666667119 0 0.8517097391133297 0.2356960729520409 0 0.85600844944842547 0.1848341897950983 0 0.82709327591102189 0.14937141670914489 0 0.88088768115941807 0.14674609810479519 0 0.85600844944842547 0.1848341897950983 0 0.82709327591102189 0.14937141670914489 0 0.84725310900442086 0.10779732082922661 0 0.88088768115941807 0.14674609810479519 0 0.82709327591102189 0.14937141670914489 0 0.85600844944842547 0.1848341897950983 0 0.81283102246527783 0.1881007222486438 0 0.77144070960558853 0.14311854477243749 0 0.81283102246527783 0.1881007222486438 0 0.76587607630038135 0.18880039518954719 0 0.82709327591102189 0.14937141670914489 0 0.81283102246527783 0.1881007222486438 0 0.77144070960558853 0.14311854477243749 0 0.82709327591102189 0.14937141670914489 0 0.77144070960558853 0.14311854477243749 0 0.80076557130237269 0.1154587552654202 0 0.77144070960558853 0.14311854477243749 0 0.76587607630038135 0.18880039518954719 0 0.72634814642510737 0.16106886917518889 0 0.79680861578956375 0.22656778056752541 0 0.75668890529066124 0.2244279804069782 0 0.76587607630038135 0.18880039518954719 0 0.79680861578956375 0.22656778056752541 0 0.76587607630038135 0.18880039518954719 0 0.81283102246527783 0.1881007222486438 0 0.79680861578956375 0.22656778056752541 0 0.81486180804364938 0.26321394949780091 0 0.77075983436335049 0.25919399014334171 0 0.79680861578956375 0.22656778056752541 0 0.77075983436335049 0.25919399014334171 0 0.75668890529066124 0.2244279804069782 0 0.72500000000000064 0.2498161764706 0 0.75668890529066124 0.2244279804069782 0 0.77075983436335049 0.25919399014334171 0 0.72500000000001008 0.19776155966387679 0 0.75668890529066124 0.2244279804069782 0 0.72500000000000064 0.2498161764706 0 0.72500000000001008 0.19776155966387679 0 0.72500000000000064 0.2498161764706 0 0.69397719155551807 0.2245125647000914 0 0.72500000000000064 0.2498161764706 0 0.67933712972090698 0.25920070958121938 0 0.69397719155551807 0.2245125647000914 0 0.72500000000001008 0.19776155966387679 0 0.69397719155551807 0.2245125647000914 0 0.6865991819015953 0.189116534044597 0 0.72500000000001008 0.19776155966387679 0 0.76587607630038135 0.18880039518954719 0 0.75668890529066124 0.2244279804069782 0 0.72500000000001008 0.19776155966387679 0 0.72634814642510737 0.16106886917518889 0 0.76587607630038135 0.18880039518954719 0 0.72525833953073282 0.1032114801687094 0 0.77144070960558853 0.14311854477243749 0 0.72634814642510737 0.16106886917518889 0 0.72525833953073282 0.1032114801687094 0 0.72634814642510737 0.16106886917518889 0 0.68391457121233579 0.14440470121196541 0 0.72500000000001008 0.19776155966387679 0 0.6865991819015953 0.189116534044597 0 0.72634814642510737 0.16106886917518889 0 0.68391457121233579 0.14440470121196541 0 0.72634814642510737 0.16106886917518889 0 0.6865991819015953 0.189116534044597 0 0.68391457121233579 0.14440470121196541 0 0.6865991819015953 0.189116534044597 0 0.64011864159029941 0.18789607982138171 0 0.6236733212988993 0.14864538214901801 0 0.65290632656860115 0.11434202593454081 0 0.68391457121233579 0.14440470121196541 0 0.6236733212988993 0.14864538214901801 0 0.68391457121233579 0.14440470121196541 0 0.64011864159029941 0.18789607982138171 0 0.65394964615507722 0.22666784374016369 0 0.59814117807200873 0.23398510860739519 0 0.64011864159029941 0.18789607982138171 0 0.65394964615507722 0.22666784374016369 0 0.62657463266645097 0.26524202571255862 0 0.59814117807200873 0.23398510860739519 0 0.65394964615507722 0.22666784374016369 0 0.69397719155551807 0.2245125647000914 0 0.67933712972090698 0.25920070958121938 0 0.65394964615507722 0.22666784374016369 0 0.64011864159029941 0.18789607982138171 0 0.6865991819015953 0.189116534044597 0 0.65394964615507722 0.22666784374016369 0 0.6865991819015953 0.189116534044597 0 0.69397719155551807 0.2245125647000914 0 0.69999999999921003 0 0 0.72683645290270404 0.027797073151180601 0 0.7010294155333181 0.056779085686491267 0 0.69999999999921003 0 0 0.7010294155333181 0.056779085686491267 0 0.66369801598854572 0.036327466368102787 0 0.74999999999934175 0 0 0.7527966693318906 0.053051678021508272 0 0.72683645290270404 0.027797073151180601 0 0.69999999999921003 0 0 0.74999999999934175 0 0 0.72683645290270404 0.027797073151180601 0 0.7527966693318906 0.053051678021508272 0 0.7010294155333181 0.056779085686491267 0 0.72683645290270404 0.027797073151180601 0 0.72525833953073282 0.1032114801687094 0 0.68330259535470161 0.10038702501083881 0 0.7010294155333181 0.056779085686491267 0 0.72525833953073282 0.1032114801687094 0 0.7010294155333181 0.056779085686491267 0 0.7527966693318906 0.053051678021508272 0 0.72525833953073282 0.1032114801687094 0 0.7527966693318906 0.053051678021508272 0 0.76878382444651716 0.097147941686331368 0 0.72525833953073282 0.1032114801687094 0 0.68391457121233579 0.14440470121196541 0 0.68330259535470161 0.10038702501083881 0 0.65408113592120842 0.073941773121567966 0 0.68330259535470161 0.10038702501083881 0 0.65290632656860115 0.11434202593454081 0 0.68391457121233579 0.14440470121196541 0 0.65290632656860115 0.11434202593454081 0 0.68330259535470161 0.10038702501083881 0 0.6236733212988993 0.14864538214901801 0 0.61956000905586006 0.1043312481793135 0 0.65290632656860115 0.11434202593454081 0 0.65408113592120842 0.073941773121567966 0 0.65290632656860115 0.11434202593454081 0 0.61956000905586006 0.1043312481793135 0 0.65408113592120842 0.073941773121567966 0 0.61956000905586006 0.1043312481793135 0 0.61940220174112337 0.047251958781050582 0 0.65408113592120842 0.073941773121567966 0 0.7010294155333181 0.056779085686491267 0 0.68330259535470161 0.10038702501083881 0 0.65408113592120842 0.073941773121567966 0 0.66369801598854572 0.036327466368102787 0 0.7010294155333181 0.056779085686491267 0 0.65408113592120842 0.073941773121567966 0 0.61940220174112337 0.047251958781050582 0 0.66369801598854572 0.036327466368102787 0 0.64999999999907843 0 0 0.66369801598854572 0.036327466368102787 0 0.61940220174112337 0.047251958781050582 0 0.64999999999907843 0 0 0.69999999999921003 0 0 0.66369801598854572 0.036327466368102787 0 0.5499999999988151 0 0 0.59999999999894682 0 0 0.57396793757665954 0.037011367187645222 0 0.59999999999894682 0 0 0.64999999999907843 0 0 0.61940220174112337 0.047251958781050582 0 0.59999999999894682 0 0 0.61940220174112337 0.047251958781050582 0 0.57396793757665954 0.037011367187645222 0 0.57667858002728545 0.078486105337742612 0 0.57396793757665954 0.037011367187645222 0 0.61940220174112337 0.047251958781050582 0 0.57667858002728545 0.078486105337742612 0 0.61940220174112337 0.047251958781050582 0 0.61956000905586006 0.1043312481793135 0 0.6236733212988993 0.14864538214901801 0 0.58516465772821369 0.11653801664834119 0 0.61956000905586006 0.1043312481793135 0 0.57667858002728545 0.078486105337742612 0 0.61956000905586006 0.1043312481793135 0 0.58516465772821369 0.11653801664834119 0 0.56202748619534593 0.15054058349222879 0 0.54979595918804436 0.1060565713905809 0 0.58516465772821369 0.11653801664834119 0 0.57667858002728545 0.078486105337742612 0 0.58516465772821369 0.11653801664834119 0 0.54979595918804436 0.1060565713905809 0 0.51076801031701946 0.1202837388510348 0 0.52375890611712683 0.059318771819432882 0 0.54979595918804436 0.1060565713905809 0 0.51076801031701946 0.1202837388510348 0 0.47881186583059909 0.093591717165689425 0 0.52375890611712683 0.059318771819432882 0 0.57667858002728545 0.078486105337742612 0 0.54979595918804436 0.1060565713905809 0 0.52375890611712683 0.059318771819432882 0 0.5499999999988151 0 0 0.57396793757665954 0.037011367187645222 0 0.52375890611712683 0.059318771819432882 0 0.57667858002728545 0.078486105337742612 0 0.52375890611712683 0.059318771819432882 0 0.57396793757665954 0.037011367187645222 0 0.49999999999869432 0 0 0.5499999999988151 0 0 0.52375890611712683 0.059318771819432882 0 0.55306006949600994 0.20198184231352201 0 0.59443395090188023 0.18455690917515069 0 0.59814117807200873 0.23398510860739519 0 0.55306006949600994 0.20198184231352201 0 0.59814117807200873 0.23398510860739519 0 0.54248833945060504 0.2520322959927106 0 0.59814117807200873 0.23398510860739519 0 0.59443395090188023 0.18455690917515069 0 0.64011864159029941 0.18789607982138171 0 0.6236733212988993 0.14864538214901801 0 0.64011864159029941 0.18789607982138171 0 0.59443395090188023 0.18455690917515069 0 0.6236733212988993 0.14864538214901801 0 0.56202748619534593 0.15054058349222879 0 0.58516465772821369 0.11653801664834119 0 0.6236733212988993 0.14864538214901801 0 0.59443395090188023 0.18455690917515069 0 0.56202748619534593 0.15054058349222879 0 0.55306006949600994 0.20198184231352201 0 0.56202748619534593 0.15054058349222879 0 0.59443395090188023 0.18455690917515069 0 0.55306006949600994 0.20198184231352201 0 0.51729576145820033 0.1683240575987815 0 0.56202748619534593 0.15054058349222879 0 0.51076801031701946 0.1202837388510348 0 0.54979595918804436 0.1060565713905809 0 0.56202748619534593 0.15054058349222879 0 0.51076801031701946 0.1202837388510348 0 0.51729576145820033 0.1683240575987815 0 0.48466639505193998 0.1421439844745814 0 0.51076801031701946 0.1202837388510348 0 0.56202748619534593 0.15054058349222879 0 0.51729576145820033 0.1683240575987815 0 0.55306006949600994 0.20198184231352201 0 0.50760557329222289 0.20700468884612061 0 0.51729576145820033 0.1683240575987815 0 0.50760557329222289 0.20700468884612061 0 0.55306006949600994 0.20198184231352201 0 0.54248833945060504 0.2520322959927106 0 0.49695729691142171 0.25014895411178018 0 0.50760557329222289 0.20700468884612061 0 0.54248833945060504 0.2520322959927106 0 0.5 0.29999999999999999 0 0.49695729691142171 0.25014895411178018 0 0.54248833945060504 0.2520322959927106 0 0.5 0.29999999999999999 0 0.54999999999999993 0.29999999999999999 0 0.52752007115234678 0.33170632466418198 0 0.5 0.29999999999999999 0 0.54248833945060504 0.2520322959927106 0 0.54999999999999993 0.29999999999999999 0 0.5 0.29999999999999999 0 0.54999999999999993 0.29999999999999999 0 0.54999999999999993 0.29999999999999999 0 0.54248833945060504 0.2520322959927106 0 0.5794309697024993 0.27124795968204829 0 0.59814117807200873 0.23398510860739519 0 0.5794309697024993 0.27124795968204829 0 0.54248833945060504 0.2520322959927106 0 0.54999999999999993 0.29999999999999999 0 0.59999999999999976 0.29999999999999999 0 0.54999999999999993 0.29999999999999999 0 0.5794309697024993 0.27124795968204829 0 0.59999999999999976 0.29999999999999999 0 0.59999999999999976 0.29999999999999999 0 0.6499999999999998 0.29999999999999999 0 0.59999999999999976 0.29999999999999999 0 0.5794309697024993 0.27124795968204829 0 0.62657463266645097 0.26524202571255862 0 0.59814117807200873 0.23398510860739519 0 0.62657463266645097 0.26524202571255862 0 0.5794309697024993 0.27124795968204829 0 0.6084546825910605 0.37989672713932537 0 0.56836770495988642 0.3523062350852913 0 0.61959173890754571 0.33832250091341232 0 0.59999999999999976 0.29999999999999999 0 0.6499999999999998 0.29999999999999999 0 0.61959173890754571 0.33832250091341232 0 0.59999999999999976 0.29999999999999999 0 0.61959173890754571 0.33832250091341232 0 0.56836770495988642 0.3523062350852913 0 0.54999999999999993 0.29999999999999999 0 0.59999999999999976 0.29999999999999999 0 0.56836770495988642 0.3523062350852913 0 0.56836770495988642 0.3523062350852913 0 0.52289427570932567 0.3932284363388488 0 0.52752007115234678 0.33170632466418198 0 0.54999999999999993 0.29999999999999999 0 0.56836770495988642 0.3523062350852913 0 0.52752007115234678 0.33170632466418198 0 0.5 0.29999999999999999 0 0.52752007115234678 0.33170632466418198 0 0.49077833859261139 0.35229981449445641 0 0.52752007115234678 0.33170632466418198 0 0.52289427570932567 0.3932284363388488 0 0.49077833859261139 0.35229981449445641 0 0.52289427570932567 0.3932284363388488 0 0.56836770495988642 0.3523062350852913 0 0.57744073070774993 0.41535148636609359 0 0.52289427570932567 0.3932284363388488 0 0.57744073070774993 0.41535148636609359 0 0.53823865529665704 0.45873898050322898 0 0.52289427570932567 0.3932284363388488 0 0.53823865529665704 0.45873898050322898 0 0.48858720058566618 0.43964267759203868 0 0.49102375406324739 0.49123754822244059 0 0.53823865529665704 0.45873898050322898 0 0.53330375813596242 0.50827942741749099 0 0.49102375406324739 0.49123754822244059 0 0.48858720058566618 0.43964267759203868 0 0.53823865529665704 0.45873898050322898 0 0.57611405284611883 0.50165903596042916 0 0.53330375813596242 0.50827942741749099 0 0.53823865529665704 0.45873898050322898 0 0.57611405284611883 0.50165903596042916 0 0.57975577671020095 0.46172033326338591 0 0.61547661924074692 0.48539576058873962 0 0.57611405284611883 0.50165903596042916 0 0.53823865529665704 0.45873898050322898 0 0.57975577671020095 0.46172033326338591 0 0.61209567303293111 0.44669033081290321 0 0.57975577671020095 0.46172033326338591 0 0.57744073070774993 0.41535148636609359 0 0.53823865529665704 0.45873898050322898 0 0.57744073070774993 0.41535148636609359 0 0.57975577671020095 0.46172033326338591 0 0.61209567303293111 0.44669033081290321 0 0.61547661924074692 0.48539576058873962 0 0.57975577671020095 0.46172033326338591 0 0.6084546825910605 0.37989672713932537 0 0.57744073070774993 0.41535148636609359 0 0.56836770495988642 0.3523062350852913 0 0.61209567303293111 0.44669033081290321 0 0.57744073070774993 0.41535148636609359 0 0.63912439215427275 0.41063340167983359 0 0.6084546825910605 0.37989672713932537 0 0.63912439215427275 0.41063340167983359 0 0.57744073070774993 0.41535148636609359 0 0.6084546825910605 0.37989672713932537 0 0.65481233915350323 0.35652751921065562 0 0.63912439215427275 0.41063340167983359 0 0.6879972333610942 0.43038561374960838 0 0.65178832218679827 0.45929119821019959 0 0.63912439215427275 0.41063340167983359 0 0.6879972333610942 0.43038561374960838 0 0.63912439215427275 0.41063340167983359 0 0.68128176404677243 0.38629093627004979 0 0.65481233915350323 0.35652751921065562 0 0.68128176404677243 0.38629093627004979 0 0.63912439215427275 0.41063340167983359 0 0.6541250972820879 0.49999999999999989 0 0.61547661924074692 0.48539576058873962 0 0.65178832218679827 0.45929119821019959 0 0.61209567303293111 0.44669033081290321 0 0.65178832218679827 0.45929119821019959 0 0.61547661924074692 0.48539576058873962 0 0.61209567303293111 0.44669033081290321 0 0.63912439215427275 0.41063340167983359 0 0.65178832218679827 0.45929119821019959 0 0.6879972333610942 0.43038561374960838 0 0.69385896817107129 0.48377516041410151 0 0.65178832218679827 0.45929119821019959 0 0.6541250972820879 0.49999999999999989 0 0.65178832218679827 0.45929119821019959 0 0.69385896817107129 0.48377516041410151 0 0.7152569930854884 0.5237994455134295 0 0.69385896817107129 0.48377516041410151 0 0.73947346780852752 0.49062440112282169 0 0.6879972333610942 0.43038561374960838 0 0.73483647259922602 0.44789725365921768 0 0.69385896817107129 0.48377516041410151 0 0.73483647259922602 0.44789725365921768 0 0.73947346780852752 0.49062440112282169 0 0.69385896817107129 0.48377516041410151 0 0.71508799138962864 0.36622814920737751 0 0.72622533758026719 0.40265885511101601 0 0.68128176404677243 0.38629093627004979 0 0.6879972333610942 0.43038561374960838 0 0.72622533758026719 0.40265885511101601 0 0.73483647259922602 0.44789725365921768 0 0.6879972333610942 0.43038561374960838 0 0.68128176404677243 0.38629093627004979 0 0.72622533758026719 0.40265885511101601 0 0.77354604466818633 0.40378688774472771 0 0.73483647259922602 0.44789725365921768 0 0.72622533758026719 0.40265885511101601 0 0.71508799138962864 0.36622814920737751 0 0.74764719760526988 0.3719647154012321 0 0.72622533758026719 0.40265885511101601 0 0.77354604466818633 0.40378688774472771 0 0.72622533758026719 0.40265885511101601 0 0.74764719760526988 0.3719647154012321 0 0.71508799138962864 0.36622814920737751 0 0.73090396928863699 0.33699297293167962 0 0.74764719760526988 0.3719647154012321 0 0.71508799138962864 0.36622814920737751 0 0.68887083591306764 0.33632058575757479 0 0.73090396928863699 0.33699297293167962 0 0.71508799138962864 0.36622814920737751 0 0.68128176404677243 0.38629093627004979 0 0.68887083591306764 0.33632058575757479 0 0.69999999999999984 0.29999999999999999 0 0.73090396928863699 0.33699297293167962 0 0.68887083591306764 0.33632058575757479 0 0.69999999999999984 0.29999999999999999 0 0.72500000000000064 0.2498161764706 0 0.74999999999999989 0.29999999999999999 0 0.69999999999999984 0.29999999999999999 0 0.74999999999999989 0.29999999999999999 0 0.69999999999999984 0.29999999999999999 0 0.74999999999999989 0.29999999999999999 0 0.73090396928863699 0.33699297293167962 0 0.74999999999999989 0.29999999999999999 0 0.72500000000000064 0.2498161764706 0 0.77075983436335049 0.25919399014334171 0 0.69999999999999984 0.29999999999999999 0 0.67933712972090698 0.25920070958121938 0 0.72500000000000064 0.2498161764706 0 0.6499999999999998 0.29999999999999999 0 0.67933712972090698 0.25920070958121938 0 0.69999999999999984 0.29999999999999999 0 0.6499999999999998 0.29999999999999999 0 0.69999999999999984 0.29999999999999999 0 0.68887083591306764 0.33632058575757479 0 0.6499999999999998 0.29999999999999999 0 0.69999999999999984 0.29999999999999999 0 0.6499999999999998 0.29999999999999999 0 0.62657463266645097 0.26524202571255862 0 0.67933712972090698 0.25920070958121938 0 0.65394964615507722 0.22666784374016369 0 0.67933712972090698 0.25920070958121938 0 0.62657463266645097 0.26524202571255862 0 0.59999999999999976 0.29999999999999999 0 0.62657463266645097 0.26524202571255862 0 0.6499999999999998 0.29999999999999999 0 0.6499999999999998 0.29999999999999999 0 0.65481233915350323 0.35652751921065562 0 0.61959173890754571 0.33832250091341232 0 0.6084546825910605 0.37989672713932537 0 0.61959173890754571 0.33832250091341232 0 0.65481233915350323 0.35652751921065562 0 0.65481233915350323 0.35652751921065562 0 0.68887083591306764 0.33632058575757479 0 0.68128176404677243 0.38629093627004979 0 0.6499999999999998 0.29999999999999999 0 0.68887083591306764 0.33632058575757479 0 0.65481233915350323 0.35652751921065562 0 
</DataArray>
</Points>
<Cells>
<DataArray type="UInt32" Name="connectivity" format="ascii">
0 1 2 3 4 5 6 7 8 9 10 11 12 13 14 15 16 17 18 19 20 21 22 23 24 25 26 27 28 29 30 31 32 33 34 35 36 37 38 39 40 41 42 43 44 45 46 47 48 49 50 51 52 53 54 55 56 57 58 59 60 61 62 63 64 65 66 67 68 69 70 71 72 73 74 75 76 77 78 79 80 81 82 83 84 85 86 87 88 89 90 91 92 93 94 95 96 97 98 99 100 101 102 103 104 105 106 107 108 109 110 111 112 113 114 115 116 117 118 119 120 121 122 123 124 125 126 127 128 129 130 131 132 133 134 135 136 137 138 139 140 141 142 143 144 145 146 147 148 149 150 151 152 153 154 155 156 157 158 159 160 161 162 163 164 165 166 167 168 169 170 171 172 173 174 175 176 177 178 179 180 181 182 183 184 185 186 187 188 189 190 191 192 193 194 195 196 197 198 199 200 201 202 203 204 205 206 207 208 209 210 211 212 213 214 215 216 217 218 219 220 221 222 223 224 225 226 227 228 229 230 231 232 233 234 235 236 237 238 239 240 241 242 243 244 245 246 247 248 249 250 251 252 253 254 255 256 257 258 259 260 261 262 263 264 265 266 267 268 269 270 271 272 273 274 275 276 277 278 279 280 281 282 283 284 285 286 287 288 289 290 291 292 293 294 295 296 297 298 299 300 301 302 303 304 305 306 307 308 309 310 311 312 313 314 315 316 317 318 319 320 321 322 323 324 325 326 327 328 329 330 331 332 333 334 335 336 337 338 339 340 341 342 343 344 345 346 347 348 349 350 351 352 353 354 355 356 357 358 359 360 361 362 363 364 365 366 367 368 369 370 371 372 373 374 375 376 377 378 379 380 381 382 383 384 385 386 387 388 389 390 391 392 393 394 395 396 397 398 399 400 401 402 403 404 405 406 407 408 409 410 411 412 413 414 415 416 417 418 419 420 421 422 423 424 425 426 427 428 429 430 431 432 433 434 435 436 437 438 439 440 441 442 443 444 445 446 447 448 449 450 451 452 453 454 455 456 457 458 459 460 461 462 463 464 465 466 467 468 469 470 471 472 473 474 475 476 477 478 479 480 481 482 483 484 485 486 487 488 489 490 491 492 493 494 495 496 497 498 499 500 501 502 503 504 505 506 507 508 509 510 511 512 513 514 515 516 517 518 519 520 521 522 523 524 525 526 527 528 529 530 531 532 533 534 535 536 537 538 539 540 541 542 543 544 545 546 547 548 549 550 551 552 553 554 555 556 557 558 559 560 561 562 563 564 565 566 567 568 569 570 571 572 573 574 575 576 577 578 579 580 581 582 583 584 585 586 587 588 589 590 591 592 593 594 595 596 597 598 599 600 601 602 603 604 605 606 607 608 609 610 611 612 613 614 615 616 617 618 619 620 621 622 623 624 625 626 627 628 629 630 631 632 633 634 635 636 637 638 639 640 641 642 643 644 645 646 647 648 649 650 651 652 653 654 655 656 657 658 659 660 661 662 663 664 665 666 667 668 669 670 671 672 673 674 675 676 677 678 679 680 681 682 683 684 685 686 687 688 689 690 691 692 693 694 695 696 697 698 699 700 701 702 703 704 705 706 707 708 709 710 711 712 713 714 715 716 717 718 719 720 721 722 723 724 725 726 727 728 729 730 731 732 733 734 735 736 737 738 739 740 741 742 743 744 745 746 747 748 749 750 751 752 753 754 755 756 757 758 759 760 761 762 763 764 765 766 767 768 769 770 771 772 773 774 775 776 777 778 779 780 781 782 783 784 785 786 787 788 789 790 791 792 793 794 795 796 797 798 799 800 801 802 803 804 805 806 807 808 809 810 811 812 813 814 815 816 817 818 819 820 821 822 823 824 825 826 827 828 829 830 831 832 833 834 835 836 837 838 839 840 841 842 843 844 845 846 847 848 849 850 851 852 853 854 855 856 857 858 859 860 861 862 863 864 865 866 867 868 869 870 871 872 873 874 875 876 877 878 879 880 881 882 883 884 885 886 887 888 889 890 891 892 893 894 895 896 897 898 899 900 901 902 903 904 905 906 907 908 909 910 911 912 913 914 915 916 917 918 919 920 921 922 923 924 925 926 927 928 929 930 931 932 933 934 935 936 937 938 939 940 941 942 943 944 945 946 947 948 949 950 951 952 953 954 955 956 957 958 959 960 961 962 963 964 965 966 967 968 969 970 971 972 973 974 975 976 977 978 979 980 981 982 983 984 985 986 987 988 989 990 991 992 993 994 995 996 997 998 999 1000 1001 1002 1003 1004 1005 1006 1007 1008 1009 1010 1011 1012 1013 1014 1015 1016 1017 1018 1019 1020 1021 1022 1023 1024 1025 1026 1027 1028 1029 1030 1031 1032 1033 1034 1035 1036 1037 1038 1039 1040 1041 1042 1043 1044 1045 1046 1047 1048 1049 1050 1051 1052 1053 1054 1055 1056 1057 1058 1059 1060 1061 1062 1063 1064 1065 1066 1067 1068 1069 1070 1071 1072 1073 1074 1075 1076 1077 1078 1079 1080 1081 1082 1083 1084 1085 1086 1087 1088 1089 1090 1091 1092 1093 1094 1095 1096 1097 1098 1099 1100 1101 1102 1103 1104 1105 1106 1107 1108 1109 1110 1111 1112 1113 1114 1115 1116 1117 1118 1119 1120 1121 1122 1123 1124 1125 1126 1127 1128 1129 1130 1131 1132 1133 1134 1135 1136 1137 1138 1139 1140 1141 1142 1143 1144 1145 1146 1147 1148 1149 1150 1151 1152 1153 1154 1155 1156 1157 1158 1159 1160 1161 1162 1163 1164 1165 1166 1167 1168 1169 1170 1171 1172 1173 1174 1175 1176 1177 1178 1179 1180 1181 1182 1183 1184 1185 1186 1187 1188 1189 1190 1191 1192 1193 1194 1195 1196 1197 1198 1199 1200 1201 1202 1203 1204 1205 1206 1207 1208 1209 1210 1211 1212 1213 1214 1215 1216 1217 1218 1219 1220 1221 1222 1223 1224 1225 1226 1227 1228 1229 1230 1231 1232 1233 1234 1235 1236 1237 1238 1239 1240 1241 1242 1243 1244 1245 1246 1247 1248 1249 1250 1251 1252 1253 1254 1255 1256 1257 1258 1259 1260 1261 1262 1263 1264 1265 1266 1267 1268 1269 1270 1271 1272 1273 1274 1275 1276 1277 1278 1279 1280 1281 1282 1283 1284 1285 1286 1287 1288 1289 1290 1291 1292 1293 1294 1295 1296 1297 1298 1299 1300 1301 1302 1303 1304 1305 1306 1307 1308 1309 1310 1311 1312 1313 1314 1315 1316 1317 1318 1319 1320 1321 1322 1323 1324 1325 1326 1327 1328 1329 1330 1331 1332 1333 1334 1335 1336 1337 1338 1339 1340 1341 1342 1343 1344 1345 1346 1347 1348 1349 1350 1351 1352 1353 1354 1355 1356 1357 1358 1359 1360 1361 1362 1363 1364 1365 1366 1367 1368 1369 1370 1371 1372 1373 1374 1375 1376 1377 1378 1379 1380 1381 1382 1383 1384 1385 1386 1387 1388 1389 1390 1391 1392 1393 1394 1395 1396 1397 1398 1399 1400 1401 1402 1403 1404 1405 1406 1407 1408 1409 1410 1411 1412 1413 1414 1415 1416 1417 1418 1419 1420 1421 1422 1423 1424 1425 1426 1427 1428 1429 1430 1431 1432 1433 1434 1435 1436 1437 1438 1439 1440 1441 1442 1443 1444 1445 1446 1447 1448 1449 1450 1451 1452 1453 1454 1455 1456 1457 1458 1459 1460 1461 1462 1463 1464 1465 1466 1467 1468 1469 1470 1471 1472 1473 1474 1475 1476 1477 1478 1479 1480 1481 1482 1483 1484 1485 1486 1487 1488 1489 1490 1491 1492 1493 1494 1495 1496 1497 1498 1499 1500 1501 1502 1503 1504 1505 1506 1507 1508 1509 1510 1511 1512 1513 1514 1515 1516 1517 1518 1519 1520 1521 1522 1523 1524 1525 1526 1527 1528 1529 1530 1531 1532 1533 1534 1535 1536 1537 1538 1539 1540 1541 1542 1543 1544 1545 1546 1547 1548 1549 1550 1551 1552 1553 1554 1555 1556 1557 1558 1559 1560 1561 1562 1563 1564 1565 1566 1567 1568 1569 1570 1571 1572 1573 1574 1575 1576 1577 1578 1579 1580 1581 1582 1583 1584 1585 1586 1587 1588 1589 1590 1591 1592 1593 1594 1595 1596 1597 1598 1599 1600 1601 1602 1603 1604 1605 1606 1607 1608 1609 1610 1611 1612 1613 1614 1615 1616 1617 1618 1619 1620 1621 1622 1623 1624 1625 1626 1627 1628 1629 1630 1631 1632 1633 1634 1635 1636 1637 1638 1639 1640 1641 1642 1643 1644 1645 1646 1647 1648 1649 1650 1651 1652 1653 1654 1655 1656 1657 1658 1659 1660 1661 1662 1663 1664 1665 1666 1667 1668 1669 1670 1671 1672 1673 1674 1675 1676 1677 1678 1679 1680 1681 1682 1683 1684 1685 1686 1687 1688 1689 1690 1691 1692 1693 1694 1695 1696 1697 1698 1699 1700 1701 1702 1703 1704 1705 1706 1707 1708 1709 1710 1711 1712 1713 1714 1715 1716 1717 1718 1719 1720 1721 1722 1723 1724 1725 1726 1727 1728 1729 1730 1731 1732 1733 1734 1735 1736 1737 1738 1739 1740 1741 1742 1743 1744 1745 1746 1747 1748 1749 1750 1751 1752 1753 1754 1755 1756 1757 1758 1759 1760 1761 1762 1763 1764 1765 1766 1767 1768 1769 1770 1771 1772 1773 1774 1775 1776 1777 1778 1779 1780 1781 1782 1783 1784 1785 1786 1787 1788 1789 1790 1791 1792 1793 1794 1795 1796 1797 1798 1799 1800 1801 1802 1803 1804 1805 1806 1807 1808 1809 1810 1811 1812 1813 1814 1815 1816 1817 1818 1819 1820 1821 1822 1823 1824 1825 1826 1827 1828 1829 1830 1831 1832 1833 1834 1835 1836 1837 1838 1839 1840 1841 1842 1843 1844 1845 1846 1847 1848 1849 1850 1851 1852 1853 1854 1855 1856 1857 1858 1859 1860 1861 1862 1863 1864 1865 1866 1867 1868 1869 1870 1871 1872 1873 1874 1875 1876 1877 1878 1879 1880 1881 1882 1883 1884 1885 1886 1887 1888 1889 1890 1891 1892 1893 1894 1895 1896 1897 1898 1899 1900 1901 1902 1903 1904 1905 1906 1907 1908 1909 1910 1911 1912 1913 1914 1915 1916 1917 1918 1919 1920 1921 1922 1923 1924 1925 1926 1927 1928 1929 1930 1931 1932 1933 1934 1935 1936 1937 1938 1939 1940 1941 1942 1943 1944 1945 1946 1947 1948 1949 1950 1951 1952 1953 1954 1955 1956 1957 1958 1959 1960 1961 1962 1963 1964 1965 1966 1967 1968 1969 1970 1971 1972 1973 1974 1975 1976 1977 1978 1979 1980 1981 1982 1983 1984 1985 1986 1987 1988 1989 1990 1991 1992 1993 1994 1995 1996 1997 1998 1999 2000 2001 2002 2003 2004 2005 2006 2007 2008 2009 2010 2011 2012 2013 2014 2015 2016 2017 2018 2019 2020 2021 2022 2023 2024 2025 2026 2027 2028 2029 2030 2031 2032 2033 2034 2035 2036 2037 2038 2039 2040 2041 2042 2043 2044 2045 2046 2047 2048 2049 2050 2051 2052 2053 2054 2055 2056 2057 2058 2059 2060 2061 2062 2063 2064 2065 2066 2067 2068 2069 2070 2071 2072 2073 2074 2075 2076 2077 2078 2079 2080 2081 2082 2083 2084 2085 2086 2087 2088 2089 2090 2091 2092 2093 2094 2095 2096 2097 2098 2099 2100 2101 2102 2103 2104 2105 2106 2107 2108 2109 2110 2111 2112 2113 2114 2115 2116 2117 2118 2119 2120 2121 2122 2123 2124 2125 2126 2127 2128 2129 2130 2131 2132 2133 2134 2135 2136 2137 2138 2139 2140 2141 2142 2143 2144 2145 2146 2147 2148 2149 2150 2151 2152 2153 2154 2155 2156 2157 2158 2159 2160 2161 2162 2163 2164 2165 2166 2167 2168 2169 2170 2171 2172 2173 2174 2175 2176 2177 2178 2179 2180 2181 2182 2183 2184 2185 2186 2187 2188 2189 2190 2191 2192 2193 2194 2195 2196 2197 2198 2199 2200 2201 2202 2203 2204 2205 2206 2207 2208 2209 2210 2211 2212 2213 2214 2215 2216 2217 2218 2219 2220 2221 2222 2223 2224 2225 2226 2227 2228 2229 2230 2231 2232 2233 2234 2235 2236 2237 2238 2239 2240 2241 2242 2243 2244 2245 2246 2247 2248 2249 2250 2251 2252 2253 2254 2255 2256 2257 2258 2259 2260 2261 2262 2263 2264 2265 2266 2267 2268 2269 2270 2271 2272 2273 2274 2275 2276 2277 2278 2279 2280 2281 2282 2283 2284 2285 2286 2287 2288 2289 2290 2291 2292 2293 2294 2295 2296 2297 2298 2299 2300 2301 2302 2303 2304 2305 2306 2307 2308 2309 2310 2311 2312 2313 2314 2315 2316 2317 2318 2319 2320 2321 2322 2323 2324 2325 2326 2327 2328 2329 2330 2331 2332 2333 2334 2335 2336 2337 2338 2339 2340 2341 2342 2343 2344 2345 2346 2347 2348 2349 2350 2351 2352 2353 2354 2355 2356 2357 2358 2359 2360 2361 2362 2363 2364 2365 2366 2367 2368 2369 2370 2371 2372 2373 2374 2375 2376 2377 2378 2379 2380 2381 2382 2383 2384 2385 2386 2387 2388 2389 2390 2391 2392 2393 2394 2395 2396 2397 2398 2399 2400 2401 2402 2403 2404 2405 2406 2407 2408 2409 2410 2411 2412 2413 2414 2415 2416 2417 2418 2419 2420 2421 2422 2423 2424 2425 2426 2427 2428 2429 2430 2431 2432 2433 2434 2435 2436 2437 2438 2439 2440 2441 2442 2443 2444 2445 2446 2447 2448 2449 2450 2451 2452 2453 2454 2455 2456 2457 2458 2459 2460 2461 2462 2463 2464 2465 2466 2467 2468 2469 2470 2471 2472 2473 2474 2475 2476 2477 2478 2479 2480 2481 2482 2483 2484 2485 2486 2487 2488 2489 2490 2491 2492 2493 2494 2495 2496 2497 2498 2499 2500 2501 2502 2503 2504 2505 2506 2507 2508 2509 2510 2511 2512 2513 2514 2515 2516 2517 2518 2519 2520 2521 2522 2523 2524 2525 2526 2527 2528 2529 2530 2531 2532 2533 2534 2535 2536 2537 2538 2539 2540 2541 2542 2543 2544 2545 2546 2547 2548 2549 2550 2551 2552 2553 2554 2555 2556 2557 2558 2559 2560 2561 2562 2563 2564 2565 2566 2567 2568 2569 2570 2571 2572 2573 2574 2575 2576 2577 2578 2579 2580 2581 2582 2583 2584 2585 2586 2587 2588 2589 2590 2591 2592 2593 2594 2595 2596 2597 2598 2599 2600 2601 2602 2603 2604 2605 2606 2607 2608 2609 2610 2611 2612 2613 2614 2615 2616 2617 2618 2619 2620 2621 2622 2623 2624 2625 2626 2627 2628 2629 2630 2631 2632 2633 2634 2635 2636 2637 2638 2639 2640 2641 2642 2643 2644 2645 2646 2647 2648 2649 2650 2651 2652 2653 2654 2655 2656 2657 2658 2659 2660 2661 2662 2663 2664 2665 2666 2667 2668 2669 2670 2671 2672 2673 2674 2675 2676 2677 2678 2679 2680 2681 2682 2683 2684 2685 2686 2687 2688 2689 2690 2691 2692 2693 2694 2695 2696 2697 2698 2699 2700 2701 2702 2703 2704 2705 2706 2707 2708 2709 2710 2711 2712 2713 2714 2715 2716 2717 2718 2719 2720 2721 2722 2723 2724 2725 2726 2727 2728 2729 2730 2731 2732 2733 2734 2735 2736 2737 2738 2739 2740 2741 2742 2743 2744 2745 2746 2747 2748 2749 2750 2751 2752 2753 2754 2755 2756 2757 2758 2759 2760 2761 2762 2763 2764 2765 2766 2767 2768 2769 2770 2771 2772 2773 2774 2775 2776 2777 2778 2779 2780 2781 2782 2783 2784 2785 2786 2787 2788 2789 2790 2791 2792 2793 2794 2795 2796 2797 2798 2799 2800 2801 2802 2803 2804 2805 2806 2807 2808 2809 2810 2811 2812 2813 2814 2815 2816 2817 2818 2819 2820 2821 2822 2823 2824 2825 2826 2827 2828 2829 2830 2831 2832 2833 2834 2835 2836 2837 2838 2839 2840 2841 2842 2843 2844 2845 2846 2847 2848 2849 2850 2851 2852 2853 2854 2855 2856 2857 2858 2859 2860 2861 2862 2863 2864 2865 2866 2867 2868 2869 2870 2871 2872 2873 2874 2875 2876 2877 2878 2879 2880 2881 2882 2883 2884 2885 2886 2887 2888 2889 2890 2891 2892 2893 2894 2895 2896 2897 2898 2899 2900 2901 2902 2903 2904 2905 2906 2907 2908 2909 2910 2911 2912 2913 2914 2915 2916 2917 2918 2919 2920 2921 2922 2923 2924 2925 2926 2927 2928 2929 2930 2931 2932 2933 2934 2935 2936 2937 2938 2939 2940 2941 2942 2943 2944 2945 2946 2947 2948 2949 2950 2951 2952 2953 2954 2955 2956 2957 2958 2959 2960 2961 2962 2963 2964 2965 2966 2967 2968 2969 2970 2971 2972 2973 2974 2975 2976 2977 2978 2979 2980 2981 2982 2983 2984 2985 2986 2987 2988 2989 2990 2991 2992 2993 2994 2995 2996 2997 2998 2999 3000 3001 3002 3003 3004 3005 3006 3007 3008 3009 3010 3011 3012 3013 3014 3015 3016 3017 3018 3019 3020 3021 3022 3023 3024 3025 3026 3027 3028 3029 3030 3031 3032 3033 3034 3035 3036 3037 3038 3039 3040 3041 3042 3043 3044 3045 3046 3047 3048 3049 3050 3051 3052 3053 3054 3055 3056 3057 3058 3059 3060 3061 3062 3063 3064 3065 3066 3067 3068 3069 3070 3071 3072 3073 3074 3075 3076 3077 3078 3079 3080 3081 3082 3083 3084 3085 3086 3087 3088 3089 3090 3091 3092 3093 3094 3095 3096 3097 3098 3099 3100 3101 3102 3103 3104 3105 3106 3107 3108 3109 3110 3111 3112 3113 3114 3115 3116 3117 3118 3119 3120 3121 3122 3123 3124 3125 3126 3127 3128 3129 3130 3131 3132 3133 3134 3135 3136 3137 3138 3139 3140 3141 
</DataArray>
<DataArray type="UInt32" Name="offsets" format="ascii">
3 6 9 12 15 18 21 24 27 30 33 36 39 42 45 48 51 54 57 60 63 66 69 72 75 78 81 84 87 90 93 96 99 102 105 108 111 114 117 120 123 126 129 132 135 138 141 144 147 150 153 156 159 162 165 168 171 174 177 180 183 186 189 192 195 198 201 204 207 210 213 216 219 222 225 228 231 234 237 240 243 246 249 252 255 258 261 264 267 270 273 276 279 282 285 288 291 294 297 300 303 306 309 312 315 318 321 324 327 330 333 336 339 342 345 348 351 354 357 360 363 366 369 372 375 378 381 384 387 390 393 396 399 402 405 408 411 414 417 420 423 426 429 432 435 438 441 444 447 450 453 456 459 462 465 468 471 474 477 480 483 486 489 492 495 498 501 504 507 510 513 516 519 522 525 528 531 534 537 540 543 546 549 552 555 558 561 564 567 570 573 576 579 582 585 588 591 594 597 600 603 606 609 612 615 618 621 624 627 630 633 636 639 642 645 648 651 654 657 660 663 666 669 672 675 678 681 684 687 690 693 696 699 702 705 708 711 714 717 720 723 726 729 732 735 738 741 744 747 750 753 756 759 762 765 768 771 774 777 780 783 786 789 792 795 798 801 804 807 810 813 816 819 822 825 828 831 834 837 840 843 846 849 852 855 858 861 864 867 870 873 876 879 882 885 888 891 894 897 900 903 906 909 912 915 918 921 924 927 930 933 936 939 942 945 948 951 954 957 960 963 966 969 972 975 978 981 984 987 990 993 996 999 1002 1005 1008 1011 1014 1017 1020 1023 1026 1029 1032 1035 1038 1041 1044 1047 1050 1053 1056 1059 1062 1065 1068 1071 1074 1077 1080 1083 1086 1089 1092 1095 1098 1101 1104 1107 1110 1113 1116 1119 1122 1125 1128 1131 1134 1137 1140 1143 1146 1149 1152 1155 1158 1161 1164 1167 1170 1173 1176 1179 1182 1185 1188 1191 1194 1197 1200 1203 1206 1209 1212 1215 1218 1221 1224 1227 1230 1233 1236 1239 1242 1245 1248 1251 1254 1257 1260 1263 1266 1269 1272 1275 1278 1281 1284 1287 1290 1293 1296 1299 1302 1305 1308 1311 1314 1317 1320 1323 1326 1329 1332 1335 1338 1341 1344 1347 1350 1353 1356 1359 1362 1365 1368 1371 1374 1377 1380 1383 1386 1389 1392 1395 1398 1401 1404 1407 1410 1413 1416 1419 1422 1425 1428 1431 1434 1437 1440 1443 1446 1449 1452 1455 1458 1461 1464 1467 1470 1473 1476 1479 1482 1485 1488 1491 1494 1497 1500 1503 1506 1509 1512 1515 1518 1521 1524 1527 1530 1533 1536 1539 1542 1545 1548 1551 1554 1557 1560 1563 1566 1569 1572 1575 1578 1581 1584 1587 1590 1593 1596 1599 1602 1605 1608 1611 1614 1616 1619 1622 1624 1627 1630 1632 1635 1638 1641 1644 1647 1650 1653 1656 1659 1662 1665 1668 1671 1673 1676 1679 1682 1685 1688 1690 1693 1696 1699 1702 1705 1708 1711 1714 1717 1720 1723 1726 1729 1732 1735 1738 1741 1744 1747 1750 1753 1756 1759 1762 1765 1768 1771 1774 1777 1780 1783 1786 1789 1792 1795 1798 1801 1804 1807 1810 1813 1816 1819 1822 1825 1828 1831 1834 1837 1840 1843 1846 1849 1852 1855 1858 1861 1864 1867 1870 1873 1876 1879 1882 1885 1888 1891 1894 1897 1900 1903 1906 1909 1912 1915 1918 1921 1924 1927 1930 1933 1936 1939 1942 1945 1948 1951 1954 1957 1960 1963 1966 1969 1972 1975 1978 1981 1984 1987 1990 1993 1996 1999 2002 2005 2008 2011 2014 2017 2020 2023 2026 2029 2032 2035 2038 2041 2044 2047 2050 2053 2056 2059 2062 2065 2068 2071 2074 2077 2080 2083 2086 2089 2092 2095 2098 2101 2104 2107 2110 2113 2116 2119 2122 2125 2128 2131 2134 2137 2140 2143 2146 2149 2152 2155 2158 2161 2164 2167 2170 2173 2176 2179 2182 2185 2188 2191 2194 2196 2199 2202 2205 2207 2210 2213 2215 2218 2221 2224 2227 2230 2233 2236 2239 2242 2245 2248 2250 2253 2256 2259 2262 2264 2267 2270 2273 2276 2279 2282 2285 2288 2291 2294 2297 2300 2303 2306 2309 2312 2315 2318 2321 2324 2327 2330 2333 2336 2339 2342 2345 2348 2351 2354 2357 2360 2363 2366 2369 2372 2375 2378 2381 2384 2387 2390 2393 2396 2399 2402 2405 2408 2411 2414 2417 2420 2423 2426 2429 2432 2435 2438 2440 2443 2446 2449 2452 2455 2458 2461 2464 2467 2470 2473 2476 2479 2482 2484 2487 2490 2492 2495 2497 2500 2503 2506 2509 2512 2515 2518 2521 2524 2527 2530 2533 2536 2538 2541 2544 2547 2550 2553 2556 2559 2562 2565 2568 2571 2574 2577 2580 2583 2586 2589 2592 2595 2598 2601 2604 2607 2610 2613 2616 2619 2622 2625 2628 2631 2634 2637 2640 2643 2646 2649 2652 2655 2658 2661 2664 2667 2670 2673 2676 2679 2682 2685 2688 2691 2694 2697 2700 2703 2706 2709 2712 2715 2718 2721 2724 2727 2730 2733 2736 2739 2742 2745 2748 2751 2754 2757 2760 2763 2766 2769 2772 2775 2778 2781 2784 2787 2790 2793 2796 2799 2802 2805 2808 2811 2814 2817 2820 2823 2826 2829 2832 2835 2838 2841 2844 2847 2850 2853 2856 2859 2862 2865 2868 2871 2874 2877 2880 2883 2886 2889 2892 2895 2898 2901 2904 2907 2910 2913 2916 2919 2922 2925 2928 2931 2934 2937 2940 2943 2946 2948 2951 2954 2956 2959 2961 2964 2967 2970 2973 2976 2979 2982 2985 2988 2991 2994 2997 3000 3003 3006 3009 3012 3015 3018 3021 3024 3027 3030 3033 3036 3039 3042 3045 3048 3051 3054 3057 3060 3063 3066 3069 3072 3075 3078 3081 3084 3087 3090 3093 3096 3099 3102 3104 3107 3110 3113 3116 3119 3121 3124 3127 3130 3133 3136 3139 3142 
</DataArray>
<DataArray type="UInt32" Name="types" format="ascii">
5 5 5 5 5 5 5 5 5 5 5 5 5 5 5 5 5 5 5 5 5 5 5 5 5 5 5 5 5 5 5 5 5 5 5 5 5 5 5 5 5 5 5 5 5 5 5 5 5 5 5 5 5 5 5 5 5 5 5 5 5 5 5 5 5 5 5 5 5 5 5 5 5 5 5 5 5 5 5 5 5 5 5 5 5 5 5 5 5 5 5 5 5 5 5 5 5 5 5 5 5 5 5 5 5 5 5 5 5 5 5 5 5 5 5 5 5 5 5 5 5 5 5 5 5 5 5 5 5 5 5 5 5 5 5 5 5 5 5 5 5 5 5 5 5 5 5 5 5 5 5 5 5 5 5 5 5 5 5 5 5 5 5 5 5 5 5 5 5 5 5 5 5 5 5 5 5 5 5 5 5 5 5 5 5 5 5 5 5 5 5 5 5 5 5 5 5 5 5 5 5 5 5 5 5 5 5 5 5 5 5 5 5 5 5 5 5 5 5 5 5 5 5 5 5 5 5 5 5 5 5 5 5 5 5 5 5 5 5 5 5 5 5 5 5 5 5 5 5 5 5 5 5 5 5 5 5 5 5 5 5 5 5 5 5 5 5 5 5 5 5 5 5 5 5 5 5 5 5 5 5 5 5 5 5 5 5 5 5 5 5 5 5 5 5 5 5 5 5 5 5 5 5 5 5 5 5 5 5 5 5 5 5 5 5 5 5 5 5 5 5 5 5 5 5 5 5 5 5 5 5 5 5 5 5 5 5 5 5 5 5 5 5 5 5 5 5 5 5 5 5 5 5 5 5 5 5 5 5 5 5 5 5 5 5 5 5 5 5 5 5 5 5 5 5 5 5 5 5 5 5 5 5 5 5 5 5 5 5 5 5 5 5 5 5 5 5 5 5 5 5 5 5 5 5 5 5 5 5 5 5 5 5 5 5 5 5 5 5 5 5 5 5 5 5 5 5 5 5 5 5 5 5 5 5 5 5 5 5 5 5 5 5 5 5 5 5 5 5 5 5 5 5 5 5 5 5 5 5 5 5 5 5 5 5 5 5 5 5 5 5 5 5 5 5 5 5 5 5 5 5 5 5 5 5 5 5 5 5 5 5 5 5 5 5 5 5 5 5 5 5 5 5 5 5 5 5 5 5 5 5 5 5 5 5 5 5 5 5 5 5 5 5 5 5 5 5 5 5 5 5 5 5 5 5 5 5 5 3 5 5 3 5 5 3 5 5 5 5 5 5 5 5 5 5 5 5 5 3 5 5 5 5 5 3 5 5 5 5 5 5 5 5 5 5 5 5 5 5 5 5 5 5 5 5 5 5 5 5 5 5 5 5 5 5 5 5 5 5 5 5 5 5 5 5 5 5 5 5 5 5 5 5 5 5 5 5 5 5 5 5 5 5 5 5 5 5 5 5 5 5 5 5 5 5 5 5 5 5 5 5 5 5 5 5 5 5 5 5 5 5 5 5 5 5 5 5 5 5 5 5 5 5 5 5 5 5 5 5 5 5 5 5 5 5 5 5 5 5 5 5 5 5 5 5 5 5 5 5 5 5 5 5 5 5 5 5 5 5 5 5 5 5 5 5 5 5 5 5 5 5 5 5 5 5 5 5 5 5 5 5 5 5 5 5 5 5 5 5 5 5 5 5 3 5 5 5 3 5 5 3 5 5 5 5 5 5 5 5 5 5 5 3 5 5 5 5 3 5 5 5 5 5 5 5 5 5 5 5 5 5 5 5 5 5 5 5 5 5 5 5 5 5 5 5 5 5 5 5 5 5 5 5 5 5 5 5 5 5 5 5 5 5 5 5 5 5 5 5 5 5 5 5 5 5 5 3 5 5 5 5 5 5 5 5 5 5 5 5 5 5 3 5 5 3 5 3 5 5 5 5 5 5 5 5 5 5 5 5 5 3 5 5 5 5 5 5 5 5 5 5 5 5 5 5 5 5 5 5 5 5 5 5 5 5 5 5 5 5 5 5 5 5 5 5 5 5 5 5 5 5 5 5 5 5 5 5 5 5 5 5 5 5 5 5 5 5 5 5 5 5 5 5 5 5 5 5 5 5 5 5 5 5 5 5 5 5 5 5 5 5 5 5 5 5 5 5 5 5 5 5 5 5 5 5 5 5 5 5 5 5 5 5 5 5 5 5 5 5 5 5 5 5 5 5 5 5 5 5 5 5 5 5 5 5 5 5 5 5 5 5 5 5 5 5 5 5 3 5 5 3 5 3 5 5 5 5 5 5 5 5 5 5 5 5 5 5 5 5 5 5 5 5 5 5 5 5 5 5 5 5 5 5 5 5 5 5 5 5 5 5 5 5 5 5 5 5 5 5 5 3 5 5 5 5 5 3 5 5 5 5 5 5 5 
</DataArray>
</Cells>
<PointData Scalars="" Vectors="displacement," Tensors="">
<DataArray type="Float64" Name="displacement" NumberOfComponents="3" format="ascii">
-2.5107956964427283e-09 -1.0702956498304679e-09 0 -2.2379259733897447e-06 -1.0102241817592541e-06 0 -9.5558100900355907e-07 -2.9878568586064991e-07 0 -2.5107956964427283e-09 -1.0702956498304679e-09 0 -9.5558100900355928e-07 -2.9878568586064996e-07 0 -1.4650430309449351e-09 1.7388403515862342e-10 0 -2.2379259733897447e-06 -1.0102241817592541e-06 0 -1.9407888763369552e-06 -3.6818270290017443e-07 0 -9.5558100900355907e-07 -2.9878568586064991e-07 0 -1.4650430309449351e-09 1.7388403515862342e-10 0 -9.5558100900355907e-07 -2.9878568586064986e-07 0 -1.9407888763369552e-06 -3.6818270290017443e-07 0 -1.6241446277100724e-09 -8.0816366319419123e-11 0 -1.4650430309449351e-09 1.7388403515862342e-10 0 -1.3507284735276525e-06 6.0720854461473653e-08 0 -1.1736914887899565e-09 2.8854801953691914e-10 0 -1.6241446277100724e-09 -8.0816366319419123e-11 0 -1.3507284735276525e-06 6.0720854461473653e-08 0 -2.7890406386395778e-06 -1.1850223702224429e-07 0 -1.3507284735276525e-06 6.0720854461473653e-08 0 -1.9407888763369552e-06 -3.6818270290017443e-07 0 -1.4650430309449351e-09 1.7388403515862342e-10 0 -1.9407888763369552e-06 -3.6818270290017443e-07 0 -1.3507284735276525e-06 6.0720854461473653e-08 0 -2.7890406386395778e-06 -1.1850223702224429e-07 0 -1.8125593838222585e-06 3.0316901357295617e-07 0 -1.3507284735276525e-06 6.0720854461473653e-08 0 -2.7890406386395778e-06 -1.1850223702224429e-07 0 -3.1896263189764019e-06 1.5696597803423226e-07 0 -1.8125593838222585e-06 3.0316901357295617e-07 0 -2.7890406386395778e-06 -1.1850223702224429e-07 0 -4.2511917855370022e-06 -2.4106547168279353e-07 0 -3.1896263189764019e-06 1.5696597803423226e-07 0 -4.1665004782428512e-06 1.4775412574382684e-07 0 -3.1896263189764019e-06 1.5696597803423226e-07 0 -4.2511917855370022e-06 -2.4106547168279343e-07 0 -5.6161144376677949e-06 -7.9836794962461612e-07 0 -4.2511917855370022e-06 -2.4106547168279343e-07 0 -4.0187394089237148e-06 -7.5608637056552997e-07 0 -2.7890406386395778e-06 -1.1850223702224429e-07 0 -4.0187394089237148e-06 -7.5608637056552997e-07 0 -4.2511917855370022e-06 -2.4106547168279343e-07 0 -4.3529122534861026e-06 -1.3649456704127557e-06 0 -6.5969073532348308e-06 -1.7108379325714967e-06 0 -4.0187394089237148e-06 -7.5608637056552997e-07 0 -2.2379259733897447e-06 -1.0102241817592541e-06 0 -4.3529122534861026e-06 -1.3649456704127557e-06 0 -1.9407888763369552e-06 -3.6818270290017443e-07 0 -4.3529122534861026e-06 -1.3649456704127557e-06 0 -4.0187394089237148e-06 -7.5608637056552997e-07 0 -1.9407888763369552e-06 -3.6818270290017443e-07 0 -2.7890406386395778e-06 -1.1850223702224429e-07 0 -1.9407888763369552e-06 -3.6818270290017443e-07 0 -4.0187394089237148e-06 -7.5608637056552997e-07 0 -8.5844478945371061e-10 2.5633642395586228e-10 0 -1.0856333847218229e-09 1.6273604753319455e-10 0 -8.571213257790201e-07 4.5175879925282573e-07 0 -1.0856333847218229e-09 1.6273604753319455e-10 0 -8.9604060726118504e-07 3.1973233185592044e-07 0 -8.571213257790201e-07 4.5175879925282573e-07 0 -1.8787306257784156e-06 5.6456206169731752e-07 0 -8.571213257790201e-07 4.5175879925282573e-07 0 -8.9604060726118504e-07 3.1973233185592044e-07 0 -1.1736914887899565e-09 2.8854801953691914e-10 0 -1.8125593838222585e-06 3.0316901357295617e-07 0 -8.9604060726118504e-07 3.1973233185592044e-07 0 -1.1736914887899565e-09 2.8854801953691914e-10 0 -1.3507284735276525e-06 6.0720854461473653e-08 0 -1.8125593838222585e-06 3.0316901357295617e-07 0 -1.8787306257784156e-06 5.6456206169731752e-07 0 -8.9604060726118504e-07 3.1973233185592044e-07 0 -1.8125593838222585e-06 3.0316901357295617e-07 0 -1.0856333847218229e-09 1.6273604753319455e-10 0 -1.1736914887899565e-09 2.8854801953691914e-10 0 -8.9604060726118504e-07 3.1973233185592044e-07 0 -1.8125593838222585e-06 3.0316901357295617e-07 0 -3.1896263189764023e-06 1.569659780342322e-07 0 -2.8274578762861507e-06 4.0746466532896447e-07 0 -4.1665004782428512e-06 1.4775412574382684e-07 0 -2.8274578762861507e-06 4.0746466532896447e-07 0 -3.1896263189764019e-06 1.5696597803423226e-07 0 -1.8787306257784156e-06 5.6456206169731752e-07 0 -1.8125593838222585e-06 3.0316901357295617e-07 0 -2.8274578762861507e-06 4.0746466532896447e-07 0 -1.8787306257784156e-06 5.6456206169731752e-07 0 -3.1055960205795339e-06 5.634137300230769e-07 0 -1.7269686638739791e-06 7.3510934586162412e-07 0 -1.8787306257784156e-06 5.6456206169731752e-07 0 -2.8274578762861507e-06 4.0746466532896447e-07 0 -3.1055960205795339e-06 5.634137300230769e-07 0 -1.8787306257784156e-06 5.6456206169731752e-07 0 -1.7269686638739791e-06 7.3510934586162412e-07 0 -8.571213257790201e-07 4.5175879925282573e-07 0 -7.6433037493330463e-07 5.4503220302030105e-07 0 -8.571213257790201e-07 4.5175879925282573e-07 0 -1.7269686638739791e-06 7.3510934586162412e-07 0 -3.1055960205795339e-06 5.634137300230769e-07 0 -2.690327454295782e-06 6.9811729428791697e-07 0 -1.7269686638739791e-06 7.3510934586162412e-07 0 -3.5294651888048661e-06 5.14405068109557e-07 0 -2.6903274542957815e-06 6.9811729428791697e-07 0 -3.1055960205795339e-06 5.634137300230769e-07 0 -3.5294651888048661e-06 5.14405068109557e-07 0 -3.1055960205795339e-06 5.634137300230769e-07 0 -4.4794896950254157e-06 2.2465028754505665e-07 0 -4.1665004782428512e-06 1.4775412574382684e-07 0 -5.6094286047486653e-06 -2.1210245584780664e-07 0 -4.4794896950254157e-06 2.2465028754505665e-07 0 -4.1665004782428512e-06 1.4775412574382684e-07 0 -3.1055960205795335e-06 5.634137300230769e-07 0 -2.8274578762861507e-06 4.0746466532896447e-07 0 -4.1665004782428512e-06 1.4775412574382684e-07 0 -4.4794896950254157e-06 2.2465028754505665e-07 0 -3.1055960205795339e-06 5.634137300230769e-07 0 -4.1665004782428512e-06 1.4775412574382684e-07 0 -5.5070680058462529e-06 -3.9605845377764588e-07 0 -5.6094286047486662e-06 -2.1210245584780654e-07 0 -5.647124887653501e-06 -2.074233513755851e-07 0 -5.6094286047486662e-06 -2.1210245584780662e-07 0 -7.3496271686987109e-06 -8.2998688927704105e-07 0 -5.647124887653501e-06 -2.074233513755851e-07 0 -7.3496271686987109e-06 -8.2998688927704105e-07 0 -7.3118866442008938e-06 -9.4960010715725288e-07 0 -5.647124887653501e-06 -2.074233513755851e-07 0 -7.3118866442008938e-06 -9.4960010715725288e-07 0 -6.4652541396436802e-06 -7.7847769433234483e-07 0 -5.647124887653501e-06 -2.074233513755851e-07 0 -4.4794896950254157e-06 2.2465028754505665e-07 0 -5.6094286047486662e-06 -2.1210245584780654e-07 0 -3.5294651888048661e-06 5.14405068109557e-07 0 -4.4794896950254157e-06 2.2465028754505665e-07 0 -4.7626917360234618e-06 3.7863692658612806e-08 0 -5.647124887653501e-06 -2.074233513755851e-07 0 -4.7626917360234618e-06 3.7863692658612806e-08 0 -4.4794896950254157e-06 2.2465028754505665e-07 0 -5.647124887653501e-06 -2.074233513755851e-07 0 -6.4652541396436802e-06 -7.7847769433234483e-07 0 -4.7626917360234618e-06 3.7863692658612806e-08 0 -4.4221458239917209e-06 -1.20914331734398e-07 0 -3.4750652303372998e-06 4.3353831726180882e-07 0 -4.7626917360234618e-06 3.7863692658612806e-08 0 -3.5294651888048661e-06 5.14405068109557e-07 0 -4.7626917360234618e-06 3.7863692658612806e-08 0 -3.4750652303372998e-06 4.3353831726180882e-07 0 -6.5969073532348308e-06 -1.7108379325714967e-06 0 -7.6380643049090695e-06 -1.4554344062437136e-06 0 -5.6161144376677949e-06 -7.9836794962461612e-07 0 -7.319512787777156e-06 -9.538985395594123e-07 0 -5.6161144376677941e-06 -7.9836794962461601e-07 0 -7.6380643049090695e-06 -1.4554344062437138e-06 0 -6.5969073532348308e-06 -1.7108379325714967e-06 0 -9.0459340689501122e-06 -2.2465012440580644e-06 0 -7.6380643049090695e-06 -1.4554344062437138e-06 0 -6.5969073532348308e-06 -1.7108379325714967e-06 0 -5.6161144376677949e-06 -7.9836794962461612e-07 0 -4.0187394089237148e-06 -7.5608637056552997e-07 0 -5.6161144376677949e-06 -7.9836794962461612e-07 0 -5.5070680058462529e-06 -3.9605845377764588e-07 0 -4.2511917855370022e-06 -2.4106547168279343e-07 0 -4.1665004782428512e-06 1.4775412574382684e-07 0 -4.2511917855370022e-06 -2.4106547168279343e-07 0 -5.5070680058462529e-06 -3.9605845377764588e-07 0 -7.319512787777156e-06 -9.538985395594123e-07 0 -5.6094286047486662e-06 -2.1210245584780654e-07 0 -5.5070680058462529e-06 -3.9605845377764588e-07 0 -7.319512787777156e-06 -9.538985395594123e-07 0 -5.5070680058462529e-06 -3.9605845377764588e-07 0 -5.6161144376677949e-06 -7.9836794962461612e-07 0 -7.319512787777156e-06 -9.538985395594123e-07 0 -7.3496271686987109e-06 -8.2998688927704105e-07 0 -5.6094286047486662e-06 -2.1210245584780654e-07 0 -7.319512787777156e-06 -9.538985395594123e-07 0 -8.9695775480520806e-06 -1.5160853614180511e-06 0 -7.3496271686987109e-06 -8.2998688927704105e-07 0 -9.2994770019523466e-06 -1.7476976211539308e-06 0 -7.3496271686987109e-06 -8.2998688927704105e-07 0 -8.9695775480520806e-06 -1.5160853614180513e-06 0 -7.319512787777156e-06 -9.538985395594123e-07 0 -9.4212388348806531e-06 -1.886676505097641e-06 0 -8.9695775480520806e-06 -1.5160853614180513e-06 0 -1.1301712868724445e-05 -2.5585544290312755e-06 0 -8.9695775480520806e-06 -1.5160853614180513e-06 0 -9.4212388348806531e-06 -1.886676505097641e-06 0 -7.319512787777156e-06 -9.538985395594123e-07 0 -7.6380643049090695e-06 -1.4554344062437138e-06 0 -9.4212388348806531e-06 -1.886676505097641e-06 0 -9.0459340689501122e-06 -2.246501244058064e-06 0 -9.4212388348806531e-06 -1.886676505097641e-06 0 -7.6380643049090695e-06 -1.4554344062437138e-06 0 -9.0459340689501122e-06 -2.246501244058064e-06 0 -1.1698847871178061e-05 -3.0649313375379546e-06 0 -9.4212388348806531e-06 -1.886676505097641e-06 0 -1.1698847871178061e-05 -3.0649313375379542e-06 0 -1.4477733153283716e-05 -4.2555879984167506e-06 0 -1.1301712868724445e-05 -2.5585544290312755e-06 0 -1.1698847871178061e-05 -3.0649313375379542e-06 0 -1.1301712868724445e-05 -2.5585544290312755e-06 0 -9.4212388348806531e-06 -1.886676505097641e-06 0 -1.4477733153283716e-05 -4.2555879984167506e-06 0 -1.4296190314034638e-05 -4.1314662455136988e-06 0 -1.1301712868724445e-05 -2.5585544290312755e-06 0 -1.4477733153283716e-05 -4.2555879984167506e-06 0 -1.7563265263014226e-05 -5.9347627217868319e-06 0 -1.4296190314034638e-05 -4.1314662455136988e-06 0 -1.384230508952424e-05 -4.4664429701331146e-06 0 -1.4296190314034638e-05 -4.1314662455136988e-06 0 -1.6688162124854056e-05 -5.6778788660308461e-06 0 -1.384230508952424e-05 -4.4664429701331146e-06 0 -1.6688162124854056e-05 -5.6778788660308461e-06 0 -1.7404455474023845e-05 -6.8974648545698874e-06 0 -1.7563265263014226e-05 -5.9347627217868319e-06 0 -1.6688162124854056e-05 -5.6778788660308461e-06 0 -1.4296190314034638e-05 -4.1314662455136988e-06 0 -1.7563265263014226e-05 -5.9347627217868319e-06 0 -2.0900775832704809e-05 -8.2088719416497489e-06 0 -1.6688162124854056e-05 -5.6778788660308461e-06 0 -1.384230508952424e-05 -4.4664429701331146e-06 0 -1.4274547145724726e-05 -6.0815857806065713e-06 0 -1.1427579075015768e-05 -4.0649435572459811e-06 0 -1.384230508952424e-05 -4.4664429701331146e-06 0 -1.1427579075015768e-05 -4.0649435572459811e-06 0 -1.0867883028426065e-05 -2.9007923556182647e-06 0 -1.384230508952424e-05 -4.4664429701331146e-06 0 -1.1917200601274235e-05 -3.050566193163087e-06 0 -1.4296190314034638e-05 -4.1314662455136988e-06 0 -1.384230508952424e-05 -4.4664429701331146e-06 0 -1.0867883028426065e-05 -2.9007923556182647e-06 0 -1.1917200601274235e-05 -3.050566193163087e-06 0 -9.2994770019523466e-06 -1.7476976211539308e-06 0 -1.1917200601274237e-05 -3.0505661931630874e-06 0 -1.0867883028426065e-05 -2.9007923556182647e-06 0 -1.1301712868724445e-05 -2.5585544290312755e-06 0 -1.4296190314034638e-05 -4.1314662455136988e-06 0 -1.1917200601274235e-05 -3.050566193163087e-06 0 -1.1917200601274235e-05 -3.050566193163087e-06 0 -9.2994770019523466e-06 -1.7476976211539308e-06 0 -1.1301712868724445e-05 -2.5585544290312755e-06 0 -1.1301712868724445e-05 -2.5585544290312755e-06 0 -9.2994770019523466e-06 -1.7476976211539308e-06 0 -8.9695775480520806e-06 -1.5160853614180513e-06 0 -9.2994770019523466e-06 -1.7476976211539308e-06 0 -7.3118866442008938e-06 -9.4960010715725288e-07 0 -7.3496271686987109e-06 -8.2998688927704105e-07 0 -9.2994770019523466e-06 -1.7476976211539308e-06 0 -8.4358516550844522e-06 -1.7142061599317088e-06 0 -7.3118866442008938e-06 -9.4960010715725288e-07 0 -6.4652541396436802e-06 -7.7847769433234483e-07 0 -7.3118866442008938e-06 -9.4960010715725288e-07 0 -8.4358516550844522e-06 -1.7142061599317088e-06 0 -9.3877067685178953e-06 -2.6957356956289011e-06 0 -7.481045552911776e-06 -1.8049541805432551e-06 0 -8.4358516550844522e-06 -1.7142061599317088e-06 0 -6.4652541396436802e-06 -7.7847769433234483e-07 0 -8.4358516550844522e-06 -1.7142061599317088e-06 0 -7.481045552911776e-06 -1.8049541805432551e-06 0 -9.2994770019523466e-06 -1.7476976211539308e-06 0 -1.0867883028426065e-05 -2.9007923556182647e-06 0 -8.4358516550844522e-06 -1.7142061599317088e-06 0 -5.713065645698118e-06 -7.8624853725940858e-07 0 -4.4221458239917209e-06 -1.20914331734398e-07 0 -4.7626917360234618e-06 3.7863692658612806e-08 0 -6.4652541396436802e-06 -7.7847769433234483e-07 0 -5.713065645698118e-06 -7.8624853725940858e-07 0 -4.7626917360234618e-06 3.7863692658612806e-08 0 -6.4652541396436802e-06 -7.7847769433234483e-07 0 -7.481045552911776e-06 -1.8049541805432551e-06 0 -5.713065645698118e-06 -7.8624853725940858e-07 0 -6.5325506768222388e-06 -2.1215859909120486e-06 0 -4.7449511761214393e-06 -7.0414935842720696e-07 0 -5.713065645698118e-06 -7.8624853725940858e-07 0 -6.5325506768222388e-06 -2.1215859909120486e-06 0 -5.713065645698118e-06 -7.8624853725940869e-07 0 -7.481045552911776e-06 -1.8049541805432551e-06 0 -6.5325506768222388e-06 -2.1215859909120486e-06 0 -7.481045552911776e-06 -1.8049541805432551e-06 0 -8.9792607452541403e-06 -3.2862389891729428e-06 0 -6.5325506768222388e-06 -2.1215859909120486e-06 0 -8.9792607452541403e-06 -3.2862389891729428e-06 0 -8.2064278678391906e-06 -4.1244181351306041e-06 0 -6.5325506768222388e-06 -2.1215859909120486e-06 0 -8.2064278678391906e-06 -4.1244181351306041e-06 0 -6.090872452249358e-06 -3.1687167994559526e-06 0 -9.3877067685178953e-06 -2.6957356956289011e-06 0 -8.4358516550844522e-06 -1.7142061599317088e-06 0 -1.0867883028426065e-05 -2.9007923556182647e-06 0 -9.3877067685178953e-06 -2.6957356956289011e-06 0 -1.0867883028426063e-05 -2.9007923556182647e-06 0 -1.1427579075015768e-05 -4.0649435572459811e-06 0 -9.3877067685178953e-06 -2.6957356956289011e-06 0 -8.9792607452541403e-06 -3.2862389891729428e-06 0 -7.481045552911776e-06 -1.8049541805432551e-06 0 -1.1098371030113835e-05 -5.248056654330737e-06 0 -8.9792607452541403e-06 -3.2862389891729428e-06 0 -1.1427579075015768e-05 -4.0649435572459811e-06 0 -9.3877067685178953e-06 -2.6957356956289011e-06 0 -1.1427579075015768e-05 -4.0649435572459811e-06 0 -8.9792607452541403e-06 -3.2862389891729428e-06 0 -1.1098371030113835e-05 -5.248056654330737e-06 0 -1.1427579075015768e-05 -4.0649435572459811e-06 0 -1.4274547145724726e-05 -6.0815857806065713e-06 0 -1.1098371030113835e-05 -5.248056654330737e-06 0 -1.4039608091099055e-05 -8.1861271054799372e-06 0 -9.9944585970787057e-06 -6.3597256837442755e-06 0 -1.1098371030113835e-05 -5.248056654330737e-06 0 -1.4274547145724726e-05 -6.0815857806065713e-06 0 -1.4039608091099055e-05 -8.1861271054799372e-06 0 -7.355311023760564e-06 -5.2729171705054603e-06 0 -6.0908724522493572e-06 -3.1687167994559526e-06 0 -8.2064278678391906e-06 -4.1244181351306041e-06 0 -1.1098371030113835e-05 -5.248056654330737e-06 0 -8.2064278678391906e-06 -4.1244181351306041e-06 0 -8.9792607452541403e-06 -3.2862389891729428e-06 0 -1.1098371030113835e-05 -5.248056654330737e-06 0 -9.9944585970787057e-06 -6.3597256837442755e-06 0 -8.2064278678391906e-06 -4.1244181351306041e-06 0 -7.355311023760564e-06 -5.2729171705054603e-06 0 -8.2064278678391906e-06 -4.1244181351306041e-06 0 -9.9944585970787057e-06 -6.3597256837442755e-06 0 -7.355311023760564e-06 -5.2729171705054603e-06 0 -9.9944585970787057e-06 -6.3597256837442755e-06 0 -9.0326389067691746e-06 -7.9697741843838752e-06 0 -1.1860410553743756e-05 -9.535884739021348e-06 0 -9.0326389067691746e-06 -7.9697741843838752e-06 0 -9.9944585970787057e-06 -6.3597256837442755e-06 0 -1.1860410553743756e-05 -9.535884739021348e-06 0 -1.4370049132473062e-05 -1.3808202818655949e-05 0 -1.1286881390109042e-05 -1.2024044220257507e-05 0 -1.1860410553743756e-05 -9.535884739021348e-06 0 -1.1286881390109042e-05 -1.2024044220257507e-05 0 -9.0326389067691746e-06 -7.9697741843838752e-06 0 -8.2443752880478772e-06 -9.9071057540984649e-06 0 -9.0326389067691746e-06 -7.9697741843838752e-06 0 -1.1286881390109042e-05 -1.2024044220257507e-05 0 -1.1860410553743756e-05 -9.535884739021348e-06 0 -1.4039608091099055e-05 -8.1861271054799372e-06 0 -1.5399151004100923e-05 -1.134187032916515e-05 0 -1.1860410553743756e-05 -9.535884739021348e-06 0 -9.9944585970787057e-06 -6.3597256837442755e-06 0 -1.4039608091099055e-05 -8.1861271054799372e-06 0 -1.1860410553743756e-05 -9.535884739021348e-06 0 -1.5399151004100923e-05 -1.134187032916515e-05 0 -1.4370049132473062e-05 -1.3808202818655949e-05 0 -1.4039608091099055e-05 -8.1861271054799372e-06 0 -1.8823842017508729e-05 -1.1696358818667774e-05 0 -1.5399151004100923e-05 -1.134187032916515e-05 0 -1.7991579656606383e-05 -1.4064708744630731e-05 0 -1.5399151004100923e-05 -1.134187032916515e-05 0 -1.8823842017508729e-05 -1.1696358818667774e-05 0 -1.7920231520580218e-05 -8.8599339193430911e-06 0 -1.8823842017508729e-05 -1.1696358818667774e-05 0 -1.4039608091099055e-05 -8.1861271054799372e-06 0 -1.7920231520580218e-05 -8.8599339193430911e-06 0 -2.2272256134969855e-05 -1.1939419906558311e-05 0 -1.8823842017508729e-05 -1.1696358818667774e-05 0 -2.3807961925778158e-05 -1.6439638298313652e-05 0 -1.8823842017508729e-05 -1.1696358818667774e-05 0 -2.2272256134969855e-05 -1.1939419906558311e-05 0 -2.7890795836149455e-05 -1.5427524708928565e-05 0 -2.3807961925778158e-05 -1.6439638298313652e-05 0 -2.2272256134969855e-05 -1.1939419906558311e-05 0 -2.4386151280301593e-05 -1.1366981564810102e-05 0 -2.7890795836149455e-05 -1.5427524708928565e-05 0 -2.2272256134969855e-05 -1.1939419906558311e-05 0 -2.4386151280301593e-05 -1.1366981564810102e-05 0 -2.2272256134969855e-05 -1.1939419906558311e-05 0 -2.0596829266677642e-05 -9.3521329947096627e-06 0 -1.7920231520580218e-05 -8.8599339193430911e-06 0 -2.0596829266677642e-05 -9.3521329947096627e-06 0 -2.2272256134969855e-05 -1.1939419906558311e-05 0 -2.0900775832704809e-05 -8.2088719416497489e-06 0 -2.0596829266677642e-05 -9.3521329947096627e-06 0 -1.7404455474023845e-05 -6.8974648545698874e-06 0 -1.7920231520580218e-05 -8.8599339193430911e-06 0 -1.7404455474023845e-05 -6.8974648545698874e-06 0 -2.0596829266677642e-05 -9.3521329947096627e-06 0 -2.0900775832704809e-05 -8.2088719416497489e-06 0 -2.4386151280301593e-05 -1.1366981564810102e-05 0 -2.0596829266677642e-05 -9.3521329947096627e-06 0 -2.0900775832704809e-05 -8.2088719416497489e-06 0 -1.7404455474023841e-05 -6.8974648545698874e-06 0 -1.6688162124854056e-05 -5.6778788660308461e-06 0 -1.384230508952424e-05 -4.4664429701331146e-06 0 -1.7404455474023845e-05 -6.8974648545698874e-06 0 -1.4274547145724726e-05 -6.0815857806065713e-06 0 -1.7920231520580218e-05 -8.8599339193430911e-06 0 -1.4039608091099055e-05 -8.1861271054799355e-06 0 -1.4274547145724726e-05 -6.0815857806065713e-06 0 -1.7920231520580218e-05 -8.8599339193430911e-06 0 -1.4274547145724726e-05 -6.0815857806065713e-06 0 -1.7404455474023845e-05 -6.8974648545698874e-06 0 -4.485388853569542e-06 -9.1304404527558544e-07 0 -3.5899750625003749e-06 -5.1461748949043889e-07 0 -4.8194999311896482e-06 -2.080170273696323e-06 0 -4.0321644327820171e-06 -1.3488300786063809e-06 0 -4.8194999311896482e-06 -2.080170273696323e-06 0 -3.5899750625003749e-06 -5.1461748949043889e-07 0 -4.0321644327820171e-06 -1.3488300786063809e-06 0 -4.9086246436491911e-06 -2.736233984836228e-06 0 -4.8194999311896482e-06 -2.080170273696323e-06 0 -4.485388853569542e-06 -9.1304404527558544e-07 0 -2.8571929748428783e-06 7.2772926799708378e-07 0 -3.5899750625003749e-06 -5.1461748949043889e-07 0 -1.7182800264162812e-06 2.1824049948641059e-06 0 -2.8571929748428783e-06 7.2772926799708378e-07 0 -3.4113842310428393e-06 1.023222349205103e-06 0 -4.485388853569542e-06 -9.1304404527558544e-07 0 -3.4113842310428393e-06 1.023222349205103e-06 0 -2.8571929748428783e-06 7.2772926799708378e-07 0 -4.485388853569542e-06 -9.1304404527558544e-07 0 -4.7751402814357173e-06 -6.6947223552408743e-07 0 -3.4113842310428393e-06 1.023222349205103e-06 0 -4.485388853569542e-06 -9.1304404527558544e-07 0 -6.1337289232885573e-06 -2.2740326126031979e-06 0 -4.7751402814357173e-06 -6.6947223552408732e-07 0 -5.1082832711101429e-06 -6.3445954166899097e-07 0 -3.4113842310428393e-06 1.023222349205103e-06 0 -4.7751402814357173e-06 -6.6947223552408732e-07 0 -5.1082832711101429e-06 -6.3445954166899097e-07 0 -4.7751402814357173e-06 -6.6947223552408711e-07 0 -6.1337289232885573e-06 -2.2740326126031983e-06 0 -7.9741359176142964e-06 -4.6081758423936556e-06 0 -6.1337289232885573e-06 -2.2740326126031983e-06 0 -6.1080014875086549e-06 -3.1825913004197239e-06 0 -4.485388853569542e-06 -9.1304404527558544e-07 0 -6.1080014875086549e-06 -3.1825913004197235e-06 0 -6.1337289232885573e-06 -2.2740326126031983e-06 0 -4.485388853569542e-06 -9.1304404527558544e-07 0 -4.8194999311896482e-06 -2.080170273696323e-06 0 -6.1080014875086549e-06 -3.1825913004197239e-06 0 -5.6702592978051427e-06 -3.8241739233543326e-06 0 -6.1080014875086541e-06 -3.1825913004197235e-06 0 -4.8194999311896482e-06 -2.080170273696323e-06 0 -7.9741359176142964e-06 -4.6081758423936556e-06 0 -6.1080014875086549e-06 -3.1825913004197239e-06 0 -7.3344728840372687e-06 -5.3908913466423297e-06 0 -6.2447310239297814e-06 -8.2122386075276082e-06 0 -7.3344728840372696e-06 -5.3908913466423297e-06 0 -6.0457833953853693e-06 -5.8221490917742e-06 0 -5.6702592978051427e-06 -3.8241739233543326e-06 0 -6.0457833953853693e-06 -5.8221490917742e-06 0 -7.3344728840372687e-06 -5.3908913466423297e-06 0 -5.6702592978051427e-06 -3.8241739233543326e-06 0 -5.6076726054170809e-06 -4.1982259473228433e-06 0 -6.0457833953853693e-06 -5.8221490917742e-06 0 -5.6702592978051427e-06 -3.8241739233543326e-06 0 -7.3344728840372687e-06 -5.3908913466423297e-06 0 -6.1080014875086549e-06 -3.1825913004197239e-06 0 -6.2447310239297814e-06 -8.2122386075276082e-06 0 -6.6734496509674283e-06 -6.6662279772525276e-06 0 -8.2443752880478772e-06 -9.9071057540984649e-06 0 -8.2443752880478772e-06 -9.9071057540984649e-06 0 -6.6734496509674283e-06 -6.6662279772525276e-06 0 -9.0326389067691746e-06 -7.9697741843838752e-06 0 -6.2447310239297814e-06 -8.2122386075276082e-06 0 -6.0457833953853693e-06 -5.8221490917742e-06 0 -6.6734496509674283e-06 -6.6662279772525276e-06 0 -5.6076726054170809e-06 -4.1982259473228433e-06 0 -6.6734496509674283e-06 -6.6662279772525276e-06 0 -6.0457833953853693e-06 -5.8221490917742e-06 0 -7.355311023760564e-06 -5.2729171705054603e-06 0 -9.0326389067691746e-06 -7.9697741843838752e-06 0 -6.6734496509674283e-06 -6.6662279772525276e-06 0 -7.355311023760564e-06 -5.2729171705054603e-06 0 -6.6734496509674283e-06 -6.6662279772525284e-06 0 -5.6076726054170809e-06 -4.1982259473228433e-06 0 -7.355311023760564e-06 -5.2729171705054603e-06 0 -5.6076726054170809e-06 -4.1982259473228433e-06 0 -6.090872452249358e-06 -3.1687167994559526e-06 0 -4.7638566658618925e-06 -2.1810268300776501e-06 0 -6.090872452249358e-06 -3.1687167994559526e-06 0 -5.6076726054170809e-06 -4.1982259473228433e-06 0 -5.6702592978051427e-06 -3.8241739233543326e-06 0 -4.8194999311896482e-06 -2.080170273696323e-06 0 -4.9086246436491911e-06 -2.736233984836228e-06 0 -5.6702592978051427e-06 -3.8241739233543326e-06 0 -4.9086246436491911e-06 -2.736233984836228e-06 0 -5.6076726054170809e-06 -4.1982259473228433e-06 0 -4.7638566658618925e-06 -2.1810268300776501e-06 0 -5.6076726054170809e-06 -4.1982259473228433e-06 0 -4.9086246436491911e-06 -2.736233984836228e-06 0 -4.9086246436491911e-06 -2.736233984836228e-06 0 -3.4575568928339557e-06 -5.8438010331315549e-07 0 -4.7638566658618925e-06 -2.1810268300776501e-06 0 -4.0321644327820171e-06 -1.3488300786063809e-06 0 -3.4575568928339557e-06 -5.8438010331315549e-07 0 -4.9086246436491911e-06 -2.736233984836228e-06 0 -4.7638566658618925e-06 -2.1810268300776501e-06 0 -3.4575568928339557e-06 -5.8438010331315528e-07 0 -4.0432758049346795e-06 -1.0052372654447737e-06 0 -3.4575568928339557e-06 -5.8438010331315549e-07 0 -3.1915051294095262e-06 -1.6779064916241467e-07 0 -4.0432758049346795e-06 -1.0052372654447737e-06 0 -6.5325506768222388e-06 -2.1215859909120486e-06 0 -6.090872452249358e-06 -3.1687167994559526e-06 0 -4.9573550674877147e-06 -1.5663463036829234e-06 0 -4.7638566658618925e-06 -2.1810268300776501e-06 0 -4.9573550674877147e-06 -1.5663463036829234e-06 0 -6.090872452249358e-06 -3.1687167994559526e-06 0 -4.7638566658618925e-06 -2.1810268300776501e-06 0 -4.0432758049346795e-06 -1.0052372654447737e-06 0 -4.9573550674877147e-06 -1.5663463036829234e-06 0 -3.8176465835062434e-06 -4.3034294455513868e-07 0 -4.9573550674877147e-06 -1.5663463036829234e-06 0 -4.0432758049346795e-06 -1.0052372654447737e-06 0 -6.5325506768222388e-06 -2.1215859909120486e-06 0 -4.9573550674877147e-06 -1.5663463036829231e-06 0 -4.7449511761214393e-06 -7.0414935842720696e-07 0 -3.8176465835062434e-06 -4.3034294455513868e-07 0 -4.7449511761214393e-06 -7.0414935842720707e-07 0 -4.9573550674877147e-06 -1.5663463036829234e-06 0 -3.8176465835062434e-06 -4.3034294455513868e-07 0 -3.3807416242781304e-06 2.4983166617206068e-07 0 -4.7449511761214393e-06 -7.0414935842720696e-07 0 -4.4221458239917209e-06 -1.20914331734398e-07 0 -4.7449511761214393e-06 -7.0414935842720696e-07 0 -3.3807416242781304e-06 2.4983166617206068e-07 0 -4.4221458239917209e-06 -1.20914331734398e-07 0 -5.713065645698118e-06 -7.8624853725940858e-07 0 -4.7449511761214393e-06 -7.0414935842720696e-07 0 -2.3704211001445717e-06 4.5933425135718827e-07 0 -3.1915051294095257e-06 -1.677906491624147e-07 0 -3.4575568928339557e-06 -5.8438010331315549e-07 0 -3.8176465835062434e-06 -4.3034294455513868e-07 0 -4.0432758049346795e-06 -1.0052372654447737e-06 0 -3.1915051294095262e-06 -1.6779064916241467e-07 0 -3.8176465835062434e-06 -4.3034294455513868e-07 0 -3.1915051294095262e-06 -1.6779064916241467e-07 0 -2.785904898288328e-06 3.1914314898474449e-07 0 -3.8176465835062434e-06 -4.3034294455513868e-07 0 -2.785904898288328e-06 3.1914314898474449e-07 0 -3.3807416242781304e-06 2.4983166617206068e-07 0 -2.3704211001445717e-06 4.5933425135718827e-07 0 -2.785904898288328e-06 3.1914314898474449e-07 0 -3.1915051294095262e-06 -1.6779064916241467e-07 0 -2.3704211001445717e-06 4.5933425135718827e-07 0 -1.9372058215481295e-06 7.891530583045494e-07 0 -2.785904898288328e-06 3.1914314898474449e-07 0 -2.3704211001445717e-06 4.5933425135718827e-07 0 -1.789129070640161e-06 8.7123039354421597e-07 0 -1.5589955721394331e-06 9.1239243845351895e-07 0 -1.7891290706401612e-06 8.7123039354421597e-07 0 -1.0821844925329284e-06 1.2103775143280481e-06 0 -1.5589955721394331e-06 9.1239243845351895e-07 0 -2.3704211001445717e-06 4.5933425135718827e-07 0 -2.5754774688113497e-06 2.3645976308961519e-07 0 -1.7891290706401612e-06 8.7123039354421597e-07 0 -2.3704211001445717e-06 4.5933425135718827e-07 0 -3.4575568928339557e-06 -5.8438010331315549e-07 0 -2.5754774688113497e-06 2.3645976308961519e-07 0 -3.4575568928339557e-06 -5.8438010331315549e-07 0 -3.1676729574212661e-06 -3.1100749710694014e-07 0 -2.5754774688113497e-06 2.3645976308961519e-07 0 -2.3356728336153084e-06 6.4156685164626343e-07 0 -2.5754774688113497e-06 2.3645976308961519e-07 0 -3.1676729574212661e-06 -3.1100749710694014e-07 0 -2.3356728336153084e-06 6.4156685164626343e-07 0 -1.7891290706401612e-06 8.7123039354421597e-07 0 -2.5754774688113497e-06 2.3645976308961519e-07 0 -2.3356728336153084e-06 6.4156685164626343e-07 0 -3.1676729574212661e-06 -3.1100749710694014e-07 0 -3.5899750625003749e-06 -5.1461748949043889e-07 0 -4.0321644327820171e-06 -1.3488300786063809e-06 0 -3.5899750625003749e-06 -5.1461748949043889e-07 0 -3.1676729574212661e-06 -3.1100749710694014e-07 0 -4.0321644327820171e-06 -1.3488300786063809e-06 0 -3.1676729574212666e-06 -3.1100749710694014e-07 0 -3.4575568928339557e-06 -5.8438010331315549e-07 0 -1.7182800264162812e-06 2.1824049948641059e-06 0 -1.7359415734512461e-06 1.4952818204853855e-06 0 -2.8571929748428783e-06 7.2772926799708378e-07 0 -2.3356728336153084e-06 6.4156685164626343e-07 0 -2.8571929748428783e-06 7.2772926799708378e-07 0 -1.7359415734512461e-06 1.4952818204853855e-06 0 -2.3356728336153084e-06 6.4156685164626343e-07 0 -3.5899750625003749e-06 -5.1461748949043889e-07 0 -2.8571929748428783e-06 7.2772926799708378e-07 0 -2.3356728336153084e-06 6.4156685164626343e-07 0 -1.3595717455751425e-06 1.3775319545675845e-06 0 -1.7891290706401612e-06 8.7123039354421597e-07 0 -1.7359415734512461e-06 1.4952818204853855e-06 0 -7.3882094311104303e-07 2.3186615487558191e-06 0 -1.3595717455751425e-06 1.3775319545675845e-06 0 -2.3356728336153084e-06 6.4156685164626343e-07 0 -1.7359415734512461e-06 1.4952818204853855e-06 0 -1.3595717455751425e-06 1.3775319545675845e-06 0 -6.2960017285017477e-07 1.6845622197278914e-06 0 -1.0821844925329284e-06 1.2103775143280481e-06 0 -1.3595717455751425e-06 1.3775319545675845e-06 0 -1.7891290706401612e-06 8.7123039354421597e-07 0 -1.3595717455751425e-06 1.3775319545675845e-06 0 -1.0821844925329284e-06 1.2103775143280481e-06 0 -6.2960017285017477e-07 1.6845622197278914e-06 0 -5.6249123293722573e-07 1.3382964936823675e-06 0 -1.0821844925329284e-06 1.2103775143280481e-06 0 -9.7591368663745194e-07 1.0944391218415304e-06 0 -5.6249123293722562e-07 1.3382964936823675e-06 0 -5.5824760093469407e-07 1.0623589232237189e-06 0 -9.7591368663745194e-07 1.0944391218415304e-06 0 -5.5824760093469407e-07 1.0623589232237189e-06 0 -1.0271410418419033e-06 1.0132097791592035e-06 0 -9.7591368663745194e-07 1.0944391218415304e-06 0 -1.5589955721394331e-06 9.1239243845351895e-07 0 -1.0821844925329284e-06 1.2103775143280481e-06 0 -9.7591368663745194e-07 1.0944391218415304e-06 0 -1.0821844925329284e-06 1.2103775143280481e-06 0 -5.6249123293722573e-07 1.3382964936823675e-06 0 -2.3704211001445717e-06 4.5933425135718827e-07 0 -1.5589955721394331e-06 9.1239243845351884e-07 0 -1.9372058215481295e-06 7.891530583045494e-07 0 -1.2376337083366832e-06 9.6467155504337476e-07 0 -1.9372058215481295e-06 7.891530583045494e-07 0 -1.0271410418419033e-06 1.0132097791592035e-06 0 -1.9372058215481295e-06 7.891530583045494e-07 0 -1.5589955721394333e-06 9.1239243845351895e-07 0 -1.0271410418419033e-06 1.0132097791592035e-06 0 -9.7591368663745194e-07 1.0944391218415304e-06 0 -1.0271410418419033e-06 1.0132097791592035e-06 0 -1.5589955721394331e-06 9.1239243845351895e-07 0 -5.6403339247609554e-07 9.3274225538548125e-07 0 -7.3844306225504631e-07 9.0578736244106242e-07 0 -1.0271410418419033e-06 1.0132097791592035e-06 0 -1.2376337083366832e-06 9.6467155504337476e-07 0 -1.0271410418419033e-06 1.0132097791592035e-06 0 -7.3844306225504631e-07 9.0578736244106242e-07 0 -1.2376337083366832e-06 9.6467155504337476e-07 0 -7.3844306225504631e-07 9.0578736244106242e-07 0 -8.2402960928681744e-07 8.5727324314694355e-07 0 -5.6403339247609554e-07 9.3274225538548125e-07 0 -4.3075450515996265e-07 7.1654016789583364e-07 0 -7.3844306225504631e-07 9.0578736244106242e-07 0 -2.523088368613545e-07 6.2004494370563718e-07 0 -4.3075450515996265e-07 7.1654016789583364e-07 0 -5.6403339247609554e-07 9.3274225538548125e-07 0 -2.523088368613545e-07 6.2004494370563718e-07 0 -5.6403339247609543e-07 9.3274225538548125e-07 0 -2.9468536924142645e-07 8.762775116173331e-07 0 -5.6403339247609554e-07 9.3274225538548125e-07 0 -5.5824760093469407e-07 1.0623589232237189e-06 0 -2.9468536924142645e-07 8.762775116173331e-07 0 -5.6403339247609554e-07 9.3274225538548125e-07 0 -1.0271410418419033e-06 1.0132097791592035e-06 0 -5.5824760093469407e-07 1.0623589232237189e-06 0 -4.4221458239917209e-06 -1.20914331734398e-07 0 -3.3807416242781304e-06 2.4983166617206062e-07 0 -3.4750652303372998e-06 4.3353831726180882e-07 0 -2.4760029050670761e-06 7.2058324261461517e-07 0 -3.4750652303372998e-06 4.3353831726180882e-07 0 -3.3807416242781304e-06 2.4983166617206068e-07 0 -2.4760029050670761e-06 7.2058324261461517e-07 0 -2.5718707903605764e-06 7.4822508983856235e-07 0 -3.4750652303372998e-06 4.3353831726180882e-07 0 -2.4760029050670761e-06 7.2058324261461517e-07 0 -2.5363324358598449e-06 5.8804852755605276e-07 0 -1.8093686412781987e-06 8.6423683235640786e-07 0 -2.4760029050670761e-06 7.2058324261461517e-07 0 -3.3807416242781304e-06 2.4983166617206068e-07 0 -2.5363324358598449e-06 5.8804852755605276e-07 0 -3.3807416242781304e-06 2.4983166617206068e-07 0 -2.785904898288328e-06 3.1914314898474449e-07 0 -2.5363324358598449e-06 5.8804852755605276e-07 0 -1.9372058215481295e-06 7.891530583045494e-07 0 -2.5363324358598449e-06 5.8804852755605276e-07 0 -2.785904898288328e-06 3.1914314898474449e-07 0 -1.9372058215481295e-06 7.891530583045494e-07 0 -1.8093686412781987e-06 8.6423683235640786e-07 0 -2.5363324358598449e-06 5.8804852755605276e-07 0 -1.2376337083366832e-06 9.6467155504337476e-07 0 -1.8093686412781985e-06 8.6423683235640786e-07 0 -1.9372058215481295e-06 7.891530583045494e-07 0 -1.2376337083366832e-06 9.6467155504337476e-07 0 -1.5550376959492753e-06 9.2769792197190541e-07 0 -1.8093686412781987e-06 8.6423683235640786e-07 0 -1.2376337083366832e-06 9.6467155504337476e-07 0 -8.2402960928681744e-07 8.5727324314694355e-07 0 -1.5550376959492753e-06 9.2769792197190541e-07 0 -2.4760029050670761e-06 7.2058324261461517e-07 0 -1.8093686412781987e-06 8.6423683235640786e-07 0 -1.5550376959492753e-06 9.2769792197190541e-07 0 -2.4760029050670761e-06 7.2058324261461517e-07 0 -1.5550376959492753e-06 9.2769792197190541e-07 0 -2.5718707903605764e-06 7.4822508983856235e-07 0 -1.9951093301105513e-06 8.1183612407493475e-07 0 -2.5718707903605764e-06 7.4822508983856235e-07 0 -1.5550376959492753e-06 9.2769792197190541e-07 0 -1.9951093301105513e-06 8.1183612407493475e-07 0 -2.690327454295782e-06 6.9811729428791697e-07 0 -2.5718707903605764e-06 7.4822508983856235e-07 0 -3.5294651888048661e-06 5.14405068109557e-07 0 -3.4750652303372998e-06 4.3353831726180882e-07 0 -2.5718707903605764e-06 7.4822508983856235e-07 0 -3.5294651888048661e-06 5.14405068109557e-07 0 -2.5718707903605764e-06 7.4822508983856235e-07 0 -2.690327454295782e-06 6.9811729428791697e-07 0 -7.6433037493330463e-07 5.4503220302030105e-07 0 -1.7269686638739791e-06 7.3510934586162412e-07 0 -1.226012170174542e-06 8.0915151317678657e-07 0 -1.9951093301105513e-06 8.1183612407493475e-07 0 -1.7269686638739791e-06 7.3510934586162412e-07 0 -2.690327454295782e-06 6.9811729428791697e-07 0 -1.9951093301105513e-06 8.1183612407493475e-07 0 -1.226012170174542e-06 8.0915151317678657e-07 0 -1.7269686638739791e-06 7.3510934586162412e-07 0 -1.9951093301105513e-06 8.1183612407493475e-07 0 -1.5550376959492753e-06 9.2769792197190541e-07 0 -1.226012170174542e-06 8.0915151317678657e-07 0 -7.6433037493330463e-07 5.4503220302030105e-07 0 -1.226012170174542e-06 8.0915151317678657e-07 0 -5.358605994131861e-07 5.1064902241458524e-07 0 -8.6623830531122277e-07 7.7928689250295608e-07 0 -5.358605994131861e-07 5.1064902241458524e-07 0 -1.226012170174542e-06 8.0915151317678657e-07 0 -8.6623830531122277e-07 7.7928689250295608e-07 0 -1.226012170174542e-06 8.0915151317678657e-07 0 -1.5550376959492753e-06 9.2769792197190541e-07 0 -8.6623830531122277e-07 7.7928689250295608e-07 0 -1.5550376959492753e-06 9.2769792197190541e-07 0 -8.2402960928681744e-07 8.5727324314694355e-07 0 -8.6623830531122277e-07 7.7928689250295608e-07 0 -8.2402960928681744e-07 8.5727324314694355e-07 0 -4.1282033044299605e-07 5.1461558791596535e-07 0 -8.6623830531122277e-07 7.7928689250295608e-07 0 -4.1282033044299605e-07 5.1461558791596535e-07 0 -5.358605994131861e-07 5.1064902241458524e-07 0 -5.3169760154809529e-10 2.4717259844339455e-10 0 -5.358605994131861e-07 5.1064902241458524e-07 0 -4.1282033044299605e-07 5.1461558791596535e-07 0 -5.3169760154809529e-10 2.4717259844339455e-10 0 -6.6563521881415128e-10 2.4046125541998666e-10 0 -5.358605994131861e-07 5.1064902241458524e-07 0 -6.6563521881415128e-10 2.4046125541998666e-10 0 -7.6433037493330463e-07 5.4503220302030105e-07 0 -5.358605994131861e-07 5.1064902241458524e-07 0 -6.6563521881415128e-10 2.4046125541998666e-10 0 -8.5844478945371061e-10 2.5633642395586228e-10 0 -7.6433037493330463e-07 5.4503220302030105e-07 0 -8.5844478945371061e-10 2.5633642395586228e-10 0 -8.571213257790201e-07 4.5175879925282573e-07 0 -7.6433037493330463e-07 5.4503220302030105e-07 0 -4.1395090472407285e-07 6.0899407234491531e-07 0 -4.3075450515996265e-07 7.1654016789583364e-07 0 -2.2372452364351173e-07 3.9898874301125304e-07 0 -2.523088368613545e-07 6.2004494370563718e-07 0 -2.2372452364351173e-07 3.9898874301125304e-07 0 -4.3075450515996265e-07 7.1654016789583364e-07 0 -4.3075450515996265e-07 7.1654016789583364e-07 0 -4.1395090472407285e-07 6.0899407234491531e-07 0 -7.3844306225504631e-07 9.0578736244106242e-07 0 -4.1395090472407285e-07 6.0899407234491531e-07 0 -8.2402960928681744e-07 8.5727324314694355e-07 0 -7.3844306225504631e-07 9.0578736244106242e-07 0 -4.1395090472407285e-07 6.0899407234491531e-07 0 -4.1282033044299605e-07 5.1461558791596546e-07 0 -8.2402960928681744e-07 8.5727324314694355e-07 0 -4.1395090472407285e-07 6.0899407234491531e-07 0 -2.1700547008744322e-07 3.306885768083638e-07 0 -4.1282033044299605e-07 5.1461558791596535e-07 0 -3.6623211392230288e-10 1.7807231086608409e-10 0 -5.3169760154809529e-10 2.4717259844339455e-10 0 -4.1282033044299605e-07 5.1461558791596535e-07 0 -3.6623211392230288e-10 1.7807231086608409e-10 0 -4.1282033044299605e-07 5.1461558791596535e-07 0 -2.1700547008744328e-07 3.3068857680836386e-07 0 -2.7534637995143771e-10 1.5343804311465194e-10 0 -3.6623211392230288e-10 1.7807231086608409e-10 0 -2.1700547008744328e-07 3.3068857680836386e-07 0 -2.7534637995143771e-10 1.5343804311465194e-10 0 -2.170054700874433e-07 3.3068857680836386e-07 0 -1.6239568114965264e-07 2.6197422623444817e-07 0 -2.3782414225151547e-10 1.2926948159668489e-10 0 -1.6239568114965264e-07 2.6197422623444817e-07 0 -2.2372452364351173e-07 3.9898874301125304e-07 0 -4.1395090472407285e-07 6.0899407234491531e-07 0 -2.2372452364351173e-07 3.9898874301125304e-07 0 -1.6239568114965264e-07 2.6197422623444817e-07 0 -4.1395090472407285e-07 6.0899407234491531e-07 0 -1.6239568114965264e-07 2.6197422623444817e-07 0 -2.1700547008744328e-07 3.3068857680836386e-07 0 -2.3782414225151547e-10 1.2926948159668489e-10 0 -2.7534637995143771e-10 1.5343804311465194e-10 0 -1.6239568114965264e-07 2.6197422623444817e-07 0 -2.3782414225151547e-10 1.2926948159668489e-10 0 -2.2372452364351173e-07 3.9898874301125304e-07 0 -1.4529952159864228e-07 1.4110696321602881e-07 0 -2.1290913982451786e-10 -2.7746253446891612e-11 0 -2.3782414225152338e-10 1.2926948159669259e-10 0 -1.4529952159864228e-07 1.4110696321602881e-07 0 -2.1290913982451786e-10 -2.7746253446891612e-11 0 -1.4529952159864228e-07 1.4110696321602881e-07 0 -1.2978750693816282e-07 -1.2347660254432819e-08 0 -1.8917412477160577e-07 9.6260990474645984e-08 0 -1.2978750693816282e-07 -1.2347660254432819e-08 0 -1.4529952159864228e-07 1.4110696321602881e-07 0 -2.2372452364351173e-07 3.9898874301125304e-07 0 -1.9965800021930572e-07 3.0357598865225812e-07 0 -1.4529952159864228e-07 1.4110696321602881e-07 0 -2.523088368613545e-07 6.2004494370563718e-07 0 -1.9965800021930572e-07 3.0357598865225812e-07 0 -2.2372452364351173e-07 3.9898874301125304e-07 0 -1.8917412477160577e-07 9.6260990474645984e-08 0 -1.4529952159864228e-07 1.4110696321602881e-07 0 -1.9965800021930572e-07 3.0357598865225812e-07 0 -1.8917412477160577e-07 9.6260990474645984e-08 0 -1.9965800021930572e-07 3.0357598865225812e-07 0 -1.7631753788874262e-07 2.7991778159242065e-07 0 -1.9965800021930572e-07 3.0357598865225812e-07 0 -2.523088368613545e-07 6.2004494370563718e-07 0 -1.7631753788874262e-07 2.7991778159242065e-07 0 -1.8917412477160577e-07 9.6260990474645984e-08 0 -1.7631753788874262e-07 2.7991778159242065e-07 0 -2.6722486951142517e-07 -5.1782611842544394e-08 0 -4.3887857240207969e-07 -3.4444378290052222e-07 0 -2.23505639449454e-07 -1.7414819664796218e-07 0 -2.6722486951142517e-07 -5.1782611842544394e-08 0 -1.8917412477160577e-07 9.6260990474645984e-08 0 -2.6722486951142517e-07 -5.1782611842544394e-08 0 -2.23505639449454e-07 -1.7414819664796218e-07 0 -1.8917412477160577e-07 9.6260990474645984e-08 0 -2.23505639449454e-07 -1.7414819664796218e-07 0 -1.2978750693816282e-07 -1.2347660254432819e-08 0 -2.1839596717097047e-10 1.7771242778887915e-11 0 -2.129091398244941e-10 -2.7746253446889353e-11 0 -1.2978750693816282e-07 -1.2347660254432819e-08 0 -4.1101391346837514e-10 -1.9662763499778518e-10 0 -2.1839596717097047e-10 1.7771242778887915e-11 0 -2.23505639449454e-07 -1.7414819664796218e-07 0 -2.1839596717097047e-10 1.7771242778887915e-11 0 -1.2978750693816282e-07 -1.234766025443284e-08 0 -2.23505639449454e-07 -1.7414819664796218e-07 0 -5.9383907482146496e-10 -2.5355586902417576e-10 0 -4.1101391346837514e-10 -1.9662763499778518e-10 0 -3.615256037359023e-07 -3.8839114738674246e-07 0 -4.3887857240207969e-07 -3.4444378290052222e-07 0 -3.615256037359023e-07 -3.8839114738674246e-07 0 -2.23505639449454e-07 -1.7414819664796218e-07 0 -4.1101391346837514e-10 -1.9662763499778518e-10 0 -2.23505639449454e-07 -1.7414819664796218e-07 0 -3.615256037359023e-07 -3.8839114738674246e-07 0 -8.7685725071128833e-10 -3.7464775833904909e-10 0 -5.9383907482146496e-10 -2.5355586902417576e-10 0 -6.7469196602727081e-07 -6.2179672199801762e-07 0 -5.9383907482146496e-10 -2.5355586902417576e-10 0 -3.615256037359023e-07 -3.8839114738674246e-07 0 -6.7469196602727081e-07 -6.2179672199801762e-07 0 -8.7685725071128833e-10 -3.7464775833904909e-10 0 -6.7469196602727081e-07 -6.2179672199801762e-07 0 -8.9233652936062223e-07 -6.605936037195987e-07 0 -6.7469196602727081e-07 -6.2179672199801762e-07 0 -8.8224583176746862e-07 -6.3499515011617686e-07 0 -1.5408667829265019e-06 -9.0661731435569661e-07 0 -1.5245447245686314e-06 -7.4611744330204242e-07 0 -1.5408667829265019e-06 -9.0661731435569661e-07 0 -8.8224583176746862e-07 -6.3499515011617686e-07 0 -6.7469196602727081e-07 -6.2179672199801762e-07 0 -3.615256037359023e-07 -3.8839114738674246e-07 0 -8.8224583176746862e-07 -6.3499515011617686e-07 0 -1.5245447245686314e-06 -7.4611744330204242e-07 0 -2.3293698916620357e-06 -7.1052564024381394e-07 0 -1.5408667829265019e-06 -9.0661731435569661e-07 0 -4.3887857240207969e-07 -3.4444378290052222e-07 0 -8.8224583176746862e-07 -6.3499515011617686e-07 0 -3.615256037359023e-07 -3.8839114738674246e-07 0 -4.3887857240207969e-07 -3.4444378290052222e-07 0 -4.8633835616817354e-07 -1.6691529290238322e-07 0 -8.8224583176746862e-07 -6.3499515011617686e-07 0 -4.3887857240207969e-07 -3.4444378290052222e-07 0 -2.6722486951142517e-07 -5.1782611842544374e-08 0 -4.8633835616817354e-07 -1.6691529290238325e-07 0 -7.1638047534077643e-07 -4.6335343693737816e-08 0 -8.8224583176746862e-07 -6.3499515011617686e-07 0 -4.8633835616817354e-07 -1.6691529290238325e-07 0 -2.0031533052820113e-07 3.218441199412671e-07 0 -7.1638047534077643e-07 -4.6335343693737816e-08 0 -4.8633835616817354e-07 -1.6691529290238325e-07 0 -2.0031533052820113e-07 3.218441199412671e-07 0 -2.0552178874495455e-07 7.081885127604324e-07 0 -7.1638047534077643e-07 -4.6335343693737816e-08 0 -7.1638047534077643e-07 -4.6335343693737816e-08 0 -1.4283166371256631e-06 -4.4125770571359636e-07 0 -8.8224583176746862e-07 -6.3499515011617686e-07 0 -1.5245447245686314e-06 -7.4611744330204242e-07 0 -1.4283166371256631e-06 -4.4125770571359636e-07 0 -2.3293698916620357e-06 -7.1052564024381394e-07 0 -1.5245447245686314e-06 -7.4611744330204242e-07 0 -8.8224583176746862e-07 -6.3499515011617686e-07 0 -1.4283166371256631e-06 -4.4125770571359636e-07 0 -7.1638047534077643e-07 -4.6335343693737816e-08 0 -1.5651063456772012e-06 -6.7063972581135035e-09 0 -1.4283166371256631e-06 -4.4125770571359636e-07 0 -2.8979187982418766e-06 -4.2174540487696564e-07 0 -2.3293698916620357e-06 -7.1052564024381394e-07 0 -1.4283166371256631e-06 -4.4125770571359636e-07 0 -2.8979187982418766e-06 -4.2174540487696564e-07 0 -1.4283166371256631e-06 -4.4125770571359636e-07 0 -1.5651063456772012e-06 -6.7063972581135035e-09 0 -2.8979187982418766e-06 -4.2174540487696564e-07 0 -1.5651063456772012e-06 -6.7063972581135035e-09 0 -2.0709424239045899e-06 4.2855055936322125e-07 0 -7.4837634744559414e-07 7.5630167541390276e-07 0 -2.0709424239045899e-06 4.2855055936322125e-07 0 -1.5651063456772012e-06 -6.7063972581135035e-09 0 -7.4837634744559414e-07 7.5630167541390276e-07 0 -1.3503723570041753e-06 1.501164943162e-06 0 -2.0709424239045899e-06 4.2855055936322125e-07 0 -2.8992805071113857e-06 1.1108858879454717e-06 0 -4.2375571485946416e-06 2.2692603811849799e-07 0 -2.0709424239045899e-06 4.2855055936322125e-07 0 -2.8992805071113857e-06 1.1108858879454717e-06 0 -2.0709424239045899e-06 4.2855055936322125e-07 0 -1.3503723570041753e-06 1.5011649431619996e-06 0 -7.4837634744559414e-07 7.5630167541390276e-07 0 -7.1638047534077654e-07 -4.6335343693737809e-08 0 -2.0552178874495455e-07 7.081885127604324e-07 0 -7.4837634744559414e-07 7.5630167541390276e-07 0 -1.5651063456772012e-06 -6.7063972581134299e-09 0 -7.1638047534077643e-07 -4.6335343693737816e-08 0 -7.4837634744559414e-07 7.5630167541390276e-07 0 -2.0552178874495455e-07 7.081885127604324e-07 0 -9.5078324156254666e-08 1.4853817653236469e-06 0 -7.4837634744559414e-07 7.5630167541390276e-07 0 -9.5078324156254666e-08 1.4853817653236469e-06 0 -1.0966626994573664e-07 2.1272359726977118e-06 0 1.4194207749214981e-08 1.2789809206998535e-06 0 -9.5078324156254666e-08 1.4853817653236469e-06 0 -2.0552178874495455e-07 7.081885127604324e-07 0 1.2481420066842894e-07 1.9196110786223168e-06 0 -9.5078324156254666e-08 1.4853817653236469e-06 0 1.4194207749214981e-08 1.2789809206998535e-06 0 1.4194207749214981e-08 1.2789809206998535e-06 0 -2.0552178874495455e-07 7.081885127604324e-07 0 -8.6744549667826351e-08 7.6403652202043492e-07 0 -1.7283538839956339e-07 1.0828632380389109e-06 0 1.4194207749214976e-08 1.2789809206998535e-06 0 -8.6744549667826351e-08 7.6403652202043492e-07 0 1.2481420066842894e-07 1.9196110786223168e-06 0 1.4194207749214981e-08 1.2789809206998535e-06 0 -1.0433746751751916e-07 1.6162199216743657e-06 0 -1.7283538839956339e-07 1.0828632380389109e-06 0 -1.0433746751751919e-07 1.6162199216743659e-06 0 1.4194207749214981e-08 1.2789809206998535e-06 0 -1.7283538839956339e-07 1.0828632380389109e-06 0 -5.6249123293722573e-07 1.3382964936823675e-06 0 -1.0433746751751916e-07 1.6162199216743657e-06 0 -1.7283538839956339e-07 1.0828632380389109e-06 0 -2.9468536924142645e-07 8.762775116173331e-07 0 -5.5824760093469407e-07 1.0623589232237189e-06 0 -1.7283538839956339e-07 1.0828632380389109e-06 0 -5.5824760093469407e-07 1.0623589232237189e-06 0 -5.6249123293722573e-07 1.3382964936823675e-06 0 -1.7283538839956339e-07 1.0828632380389109e-06 0 -8.6744549667826351e-08 7.6403652202043492e-07 0 -1.5662257622153613e-07 5.9145349823931587e-07 0 -1.7283538839956339e-07 1.0828632380389109e-06 0 -1.5662257622153613e-07 5.9145349823931587e-07 0 -2.9468536924142645e-07 8.762775116173331e-07 0 -2.523088368613545e-07 6.2004494370563718e-07 0 -2.9468536924142645e-07 8.762775116173331e-07 0 -1.5662257622153613e-07 5.9145349823931587e-07 0 -1.7631753788874262e-07 2.7991778159242065e-07 0 -2.523088368613545e-07 6.2004494370563718e-07 0 -1.5662257622153613e-07 5.9145349823931587e-07 0 -2.0031533052820113e-07 3.218441199412671e-07 0 -1.7631753788874262e-07 2.7991778159242065e-07 0 -1.5662257622153613e-07 5.9145349823931587e-07 0 -2.0031533052820113e-07 3.218441199412671e-07 0 -2.6722486951142517e-07 -5.1782611842544394e-08 0 -1.7631753788874262e-07 2.7991778159242065e-07 0 -2.0031533052820113e-07 3.218441199412671e-07 0 -4.8633835616817354e-07 -1.6691529290238325e-07 0 -2.6722486951142517e-07 -5.1782611842544394e-08 0 -8.6744549667826351e-08 7.6403652202043492e-07 0 -2.0552178874495455e-07 7.081885127604324e-07 0 -2.0031533052820113e-07 3.218441199412671e-07 0 -2.0031533052820113e-07 3.218441199412671e-07 0 -1.566225762215361e-07 5.9145349823931598e-07 0 -8.6744549667826351e-08 7.6403652202043492e-07 0 -9.6253336953552227e-06 1.9154879659474101e-06 0 -6.2078682795419072e-06 1.5066886048451911e-06 0 -5.7141153819658664e-06 5.9218633542849904e-07 0 -3.8173093969594635e-06 -2.3875927697490075e-07 0 -5.7141153819658664e-06 5.9218633542849904e-07 0 -2.7289245067485611e-06 2.3704439234417483e-07 0 -3.1152984693573051e-06 1.1852054758844813e-06 0 -2.7289245067485611e-06 2.3704439234417483e-07 0 -6.2078682795419072e-06 1.5066886048451911e-06 0 -6.2078682795419072e-06 1.5066886048451911e-06 0 -2.7289245067485611e-06 2.3704439234417483e-07 0 -5.7141153819658664e-06 5.9218633542849904e-07 0 -3.1152984693573051e-06 1.1852054758844813e-06 0 -1.3319516242656589e-06 2.9533923907069934e-07 0 -2.7289245067485611e-06 2.3704439234417483e-07 0 -3.3501102922773891e-09 1.4252476875707875e-09 0 -1.3319516242656589e-06 2.9533923907069934e-07 0 -3.1152984693573051e-06 1.1852054758844813e-06 0 -3.3501102922773891e-09 1.4252476875707875e-09 0 -2.1026192717322984e-09 -3.5623572072699541e-10 0 -1.3319516242656589e-06 2.9533923907069934e-07 0 -2.1026192717322984e-09 -3.5623572072699541e-10 0 -2.7289245067485611e-06 2.3704439234417483e-07 0 -1.3319516242656589e-06 2.9533923907069934e-07 0 -2.1026192717322984e-09 -3.5623572072699541e-10 0 -1.8299973737794585e-06 -3.2766537932313993e-07 0 -2.7289245067485611e-06 2.3704439234417483e-07 0 -3.8173093969594635e-06 -2.3875927697490075e-07 0 -2.7289245067485611e-06 2.3704439234417483e-07 0 -1.8299973737794583e-06 -3.2766537932314004e-07 0 -2.1026192717322984e-09 -3.5623572072699541e-10 0 -2.1976686790808806e-09 4.0182011711943e-11 0 -1.8299973737794583e-06 -3.2766537932314004e-07 0 -2.1976686790808467e-09 4.0182011711949172e-11 0 -1.4834694420708852e-09 -5.4731260140781244e-10 0 -1.8299973737794583e-06 -3.2766537932314004e-07 0 -3.8173093969594635e-06 -2.3875927697490075e-07 0 -1.8299973737794583e-06 -3.2766537932314004e-07 0 -2.3028250805582054e-06 -6.9697762845134226e-07 0 -3.8173093969594635e-06 -2.3875927697490075e-07 0 -2.3028250805582054e-06 -6.9697762845134226e-07 0 -4.1536870467501243e-06 -6.2733840535626109e-07 0 -3.8173093969594635e-06 -2.3875927697490075e-07 0 -5.8317479399791192e-06 -1.6987823063947877e-07 0 -5.7141153819658664e-06 5.9218633542849904e-07 0 -7.9824118240062957e-06 5.6614477138971981e-07 0 -5.7141153819658664e-06 5.9218633542849904e-07 0 -5.8317479399791192e-06 -1.6987823063947877e-07 0 -5.2763013707607528e-06 -6.0242638588631669e-07 0 -5.8317479399791184e-06 -1.6987823063947882e-07 0 -4.1536870467501243e-06 -6.2733840535626109e-07 0 -3.8173093969594635e-06 -2.3875927697490075e-07 0 -4.1536870467501243e-06 -6.2733840535626109e-07 0 -5.8317479399791192e-06 -1.6987823063947877e-07 0 -5.2763013707607528e-06 -6.0242638588631669e-07 0 -4.1536870467501243e-06 -6.2733840535626109e-07 0 -3.4361037653550068e-06 -8.7078350043791768e-07 0 -2.0857605302432456e-06 -9.17631632854744e-07 0 -3.4361037653550068e-06 -8.7078350043791768e-07 0 -2.3028250805582054e-06 -6.9697762845134226e-07 0 -2.3028250805582054e-06 -6.9697762845134226e-07 0 -3.4361037653550068e-06 -8.7078350043791779e-07 0 -4.1536870467501243e-06 -6.2733840535626109e-07 0 -1.4834694420708852e-09 -5.4731260140781244e-10 0 -1.0547420903861958e-06 -5.6817129169308551e-07 0 -2.3028250805582054e-06 -6.9697762845134226e-07 0 -1.4834694420708852e-09 -5.4731260140781244e-10 0 -2.3028250805582054e-06 -6.9697762845134226e-07 0 -1.8299973737794583e-06 -3.2766537932314004e-07 0 -1.4834694420708852e-09 -5.4731260140781244e-10 0 -1.2535739038550257e-09 -2.8923937744655627e-10 0 -1.0547420903861958e-06 -5.6817129169308551e-07 0 -2.0857605302432456e-06 -9.17631632854744e-07 0 -2.3028250805582059e-06 -6.9697762845134215e-07 0 -1.0547420903861958e-06 -5.6817129169308551e-07 0 -2.0857605302432456e-06 -9.17631632854744e-07 0 -1.0547420903861958e-06 -5.6817129169308551e-07 0 -8.9233652936062223e-07 -6.605936037195987e-07 0 -1.2535739038550257e-09 -2.8923937744655627e-10 0 -8.9233652936062223e-07 -6.605936037195987e-07 0 -1.0547420903861958e-06 -5.6817129169308551e-07 0 -1.2535739038550257e-09 -2.8923937744655627e-10 0 -8.7685725071128833e-10 -3.7464775833904909e-10 0 -8.9233652936062223e-07 -6.605936037195987e-07 0 -6.7469196602727081e-07 -6.2179672199801762e-07 0 -1.5408667829265019e-06 -9.0661731435569661e-07 0 -8.9233652936062223e-07 -6.605936037195987e-07 0 -2.0857605302432456e-06 -9.17631632854744e-07 0 -8.9233652936062223e-07 -6.605936037195987e-07 0 -1.5408667829265019e-06 -9.0661731435569661e-07 0 -2.0857605302432456e-06 -9.17631632854744e-07 0 -3.2883241878378669e-06 -8.8322337385524053e-07 0 -3.4361037653550068e-06 -8.7078350043791768e-07 0 -2.0857605302432456e-06 -9.17631632854744e-07 0 -1.5408667829265017e-06 -9.0661731435569661e-07 0 -3.2883241878378669e-06 -8.8322337385524053e-07 0 -3.2883241878378669e-06 -8.8322337385524053e-07 0 -1.5408667829265019e-06 -9.0661731435569661e-07 0 -2.3293698916620357e-06 -7.1052564024381394e-07 0 -2.8979187982418766e-06 -4.2174540487696564e-07 0 -3.2883241878378669e-06 -8.8322337385524053e-07 0 -2.3293698916620357e-06 -7.1052564024381394e-07 0 -2.8979187982418766e-06 -4.2174540487696564e-07 0 -4.9917689919291495e-06 -5.1194472447908739e-07 0 -3.2883241878378669e-06 -8.8322337385524053e-07 0 -2.8979187982418766e-06 -4.2174540487696564e-07 0 -2.0709424239045899e-06 4.2855055936322125e-07 0 -4.2375571485946416e-06 2.2692603811849799e-07 0 -6.1621143148632018e-06 2.0632040358199778e-07 0 -4.2375571485946416e-06 2.2692603811849799e-07 0 -6.8709672848252213e-06 1.1820442891671911e-06 0 -6.1621143148632018e-06 2.0632040358199778e-07 0 -4.9917689919291495e-06 -5.1194472447908739e-07 0 -4.2375571485946416e-06 2.2692603811849799e-07 0 -2.8979187982418766e-06 -4.2174540487696564e-07 0 -4.2375571485946416e-06 2.2692603811849799e-07 0 -4.9917689919291495e-06 -5.1194472447908739e-07 0 -6.1621143148632018e-06 2.0632040358199778e-07 0 -7.8612816214432436e-06 8.087985885305033e-08 0 -4.9917689919291495e-06 -5.1194472447908739e-07 0 -6.1621143148632018e-06 2.0632040358199778e-07 0 -6.8709672848252213e-06 1.1820442891671911e-06 0 -8.9816052160061367e-06 9.0998817303013802e-07 0 -6.1621143148632018e-06 2.0632040358199778e-07 0 -8.9816052160061367e-06 9.0998817303013802e-07 0 -7.8612816214432436e-06 8.0879858853050277e-08 0 -5.2763013707607528e-06 -6.0242638588631669e-07 0 -4.9917689919291495e-06 -5.1194472447908739e-07 0 -7.8612816214432436e-06 8.0879858853050277e-08 0 -5.2763013707607528e-06 -6.0242638588631669e-07 0 -7.8612816214432436e-06 8.0879858853050277e-08 0 -7.4715072195719764e-06 2.8957809222878859e-08 0 -5.2763013707607528e-06 -6.0242638588631669e-07 0 -3.2883241878378669e-06 -8.8322337385524053e-07 0 -4.9917689919291495e-06 -5.1194472447908739e-07 0 -5.2763013707607528e-06 -6.0242638588631669e-07 0 -3.4361037653550063e-06 -8.7078350043791768e-07 0 -3.2883241878378669e-06 -8.8322337385524053e-07 0 -5.2763013707607528e-06 -6.0242638588631669e-07 0 -7.4715072195719764e-06 2.8957809222878859e-08 0 -5.8317479399791192e-06 -1.6987823063947877e-07 0 -7.9824118240062957e-06 5.6614477138971981e-07 0 -5.8317479399791192e-06 -1.6987823063947877e-07 0 -7.4715072195719764e-06 2.8957809222878859e-08 0 -1.0338620248222484e-05 8.6908381900474659e-07 0 -7.982411824006294e-06 5.661447713897196e-07 0 -7.4715072195719764e-06 2.8957809222878859e-08 0 -1.0338620248222484e-05 8.6908381900474659e-07 0 -7.4715072195719764e-06 2.8957809222878859e-08 0 -7.8612816214432436e-06 8.0879858853050277e-08 0 -1.0338620248222484e-05 8.6908381900474659e-07 0 -7.8612816214432436e-06 8.0879858853050264e-08 0 -1.2421011216198892e-05 1.6493507175700838e-06 0 -7.8612816214432436e-06 8.0879858853050277e-08 0 -8.981605216006135e-06 9.0998817303013812e-07 0 -1.2421011216198892e-05 1.6493507175700838e-06 0 -1.0338620248222484e-05 8.6908381900474659e-07 0 -1.2421011216198892e-05 1.6493507175700836e-06 0 -1.4087877995380483e-05 2.2546215625941704e-06 0 -1.0338620248222484e-05 8.6908381900474659e-07 0 -1.4087877995380483e-05 2.2546215625941704e-06 0 -1.1195818383861941e-05 1.53845380754108e-06 0 -1.7365276984990646e-05 3.648576619184932e-06 0 -1.4087877995380483e-05 2.2546215625941704e-06 0 -1.2421011216198892e-05 1.6493507175700838e-06 0 -1.7808052762664514e-05 4.0837336739650289e-06 0 -1.346631815472446e-05 2.7292526716815979e-06 0 -1.4087877995380483e-05 2.2546215625941704e-06 0 -1.346631815472446e-05 2.7292526716815979e-06 0 -1.1195818383861941e-05 1.53845380754108e-06 0 -1.4087877995380483e-05 2.2546215625941704e-06 0 -1.346631815472446e-05 2.7292526716815979e-06 0 -9.6253336953552227e-06 1.9154879659474101e-06 0 -1.1195818383861941e-05 1.53845380754108e-06 0 -1.0338620248222484e-05 8.6908381900474659e-07 0 -1.1195818383861941e-05 1.53845380754108e-06 0 -7.9824118240062957e-06 5.6614477138971981e-07 0 -9.6253336953552227e-06 1.9154879659474101e-06 0 -7.9824118240062957e-06 5.6614477138971981e-07 0 -1.1195818383861941e-05 1.53845380754108e-06 0 -9.6253336953552227e-06 1.9154879659474101e-06 0 -5.7141153819658673e-06 5.9218633542849904e-07 0 -7.9824118240062957e-06 5.6614477138971981e-07 0 -2.8148575389892954e-05 9.740086840166978e-06 0 -2.178135657085667e-05 6.3653001880850117e-06 0 -2.6083037328590357e-05 9.4122550228004734e-06 0 -3.4379436580830153e-05 1.451958916644694e-05 0 -2.8148575389892954e-05 9.740086840166978e-06 0 -2.6083037328590357e-05 9.4122550228004734e-06 0 -2.0716157972874121e-05 7.6110467166198715e-06 0 -2.6083037328590357e-05 9.4122550228004734e-06 0 -2.178135657085667e-05 6.3653001880850117e-06 0 -2.0716157972874121e-05 7.6110467166198715e-06 0 -2.6915957532719546e-05 1.2138106287535611e-05 0 -2.6083037328590357e-05 9.4122550228004734e-06 0 -2.8148575389892954e-05 9.740086840166978e-06 0 -2.264549627998623e-05 6.3082166036842131e-06 0 -2.178135657085667e-05 6.3653001880850117e-06 0 -2.264549627998623e-05 6.3082166036842131e-06 0 -1.7808052762664514e-05 4.0837336739650289e-06 0 -1.7365276984990646e-05 3.648576619184932e-06 0 -1.7808052762664514e-05 4.0837336739650289e-06 0 -1.4087877995380483e-05 2.2546215625941704e-06 0 -1.7365276984990646e-05 3.648576619184932e-06 0 -2.264549627998623e-05 6.3082166036842131e-06 0 -1.7365276984990646e-05 3.648576619184932e-06 0 -2.178135657085667e-05 6.3653001880850117e-06 0 -1.7365276984990646e-05 3.648576619184932e-06 0 -1.5558174207166588e-05 3.9491488388613236e-06 0 -2.178135657085667e-05 6.3653001880850117e-06 0 -1.184072033247902e-05 2.1238831102686662e-06 0 -1.5558174207166588e-05 3.9491488388613244e-06 0 -1.2421011216198892e-05 1.6493507175700838e-06 0 -1.7365276984990646e-05 3.648576619184932e-06 0 -1.2421011216198892e-05 1.6493507175700838e-06 0 -1.5558174207166588e-05 3.9491488388613244e-06 0 -1.184072033247902e-05 2.1238831102686662e-06 0 -1.2421011216198892e-05 1.6493507175700838e-06 0 -8.9816052160061367e-06 9.0998817303013802e-07 0 -2.0716157972874121e-05 7.6110467166198715e-06 0 -1.5558174207166588e-05 3.9491488388613244e-06 0 -1.6310072974871593e-05 6.8029125577241609e-06 0 -2.0716157972874121e-05 7.6110467166198715e-06 0 -2.178135657085667e-05 6.3653001880850117e-06 0 -1.5558174207166588e-05 3.9491488388613244e-06 0 -2.0716157972874121e-05 7.6110467166198715e-06 0 -1.6310072974871593e-05 6.8029125577241609e-06 0 -2.0649817744929851e-05 1.0841213573486823e-05 0 -1.6310072974871593e-05 6.8029125577241609e-06 0 -1.1400240590023906e-05 4.4579025233142434e-06 0 -1.3147072473966061e-05 8.9464568422473224e-06 0 -1.1400240590023906e-05 4.4579025233142434e-06 0 -8.4593707387380793e-06 5.417368610475755e-06 0 -1.3147072473966061e-05 8.9464568422473224e-06 0 -1.1400240590023906e-05 4.4579025233142434e-06 0 -7.6614036488531525e-06 2.8485361459743649e-06 0 -8.4593707387380793e-06 5.417368610475755e-06 0 -1.1400240590023906e-05 4.4579025233142434e-06 0 -1.6310072974871593e-05 6.8029125577241609e-06 0 -1.5558174207166588e-05 3.9491488388613244e-06 0 -1.1400240590023906e-05 4.4579025233142434e-06 0 -1.5558174207166588e-05 3.9491488388613244e-06 0 -1.0143278420366332e-05 2.4645608303074781e-06 0 -1.184072033247902e-05 2.1238831102686662e-06 0 -1.0143278420366332e-05 2.4645608303074781e-06 0 -1.5558174207166588e-05 3.9491488388613244e-06 0 -1.184072033247902e-05 2.1238831102686662e-06 0 -8.9816052160061367e-06 9.0998817303013802e-07 0 -1.0143278420366332e-05 2.4645608303074781e-06 0 -6.8709672848252213e-06 1.1820442891671911e-06 0 -1.0143278420366332e-05 2.4645608303074781e-06 0 -8.9816052160061367e-06 9.0998817303013802e-07 0 -6.8709672848252213e-06 1.1820442891671911e-06 0 -7.6614036488531525e-06 2.8485361459743649e-06 0 -1.0143278420366332e-05 2.4645608303074781e-06 0 -1.1400240590023906e-05 4.4579025233142434e-06 0 -1.0143278420366331e-05 2.4645608303074781e-06 0 -7.6614036488531525e-06 2.8485361459743649e-06 0 -6.8709672848252213e-06 1.1820442891671911e-06 0 -4.7864495617118238e-06 1.6730650222508686e-06 0 -7.6614036488531525e-06 2.8485361459743649e-06 0 -5.110619367677254e-06 3.7586705298790989e-06 0 -7.6614036488531525e-06 2.8485361459743649e-06 0 -4.7864495617118246e-06 1.6730650222508688e-06 0 -6.8709672848252213e-06 1.1820442891671911e-06 0 -4.2375571485946416e-06 2.2692603811849799e-07 0 -4.7864495617118246e-06 1.6730650222508688e-06 0 -2.8992805071113857e-06 1.1108858879454717e-06 0 -2.7595470163925679e-06 2.4135686667173434e-06 0 -4.7864495617118246e-06 1.6730650222508688e-06 0 -2.8992805071113857e-06 1.1108858879454717e-06 0 -4.7864495617118246e-06 1.6730650222508688e-06 0 -4.2375571485946416e-06 2.2692603811849799e-07 0 -5.110619367677254e-06 3.7586705298790989e-06 0 -4.7864495617118246e-06 1.6730650222508686e-06 0 -2.7595470163925679e-06 2.4135686667173434e-06 0 -5.110619367677254e-06 3.7586705298790989e-06 0 -2.7595470163925679e-06 2.4135686667173434e-06 0 -2.1268111927693415e-06 4.799202793180147e-06 0 -5.110619367677254e-06 3.7586705298790989e-06 0 -8.4593707387380793e-06 5.417368610475755e-06 0 -7.6614036488531525e-06 2.8485361459743649e-06 0 -5.110619367677254e-06 3.7586705298790989e-06 0 -5.7701183073366647e-06 7.0445434696400732e-06 0 -8.4593707387380793e-06 5.417368610475755e-06 0 -5.110619367677254e-06 3.7586705298790989e-06 0 -2.1268111927693415e-06 4.799202793180147e-06 0 -5.7701183073366647e-06 7.0445434696400741e-06 0 -1.139030987351844e-06 7.6971609157373925e-06 0 -4.2095621639423161e-06 1.0171499796888188e-05 0 -5.7701183073366647e-06 7.0445434696400741e-06 0 -1.139030987351844e-06 7.6971609157373925e-06 0 -5.7701183073366647e-06 7.0445434696400741e-06 0 -2.1268111927693415e-06 4.799202793180147e-06 0 -1.3147072473966061e-05 8.9464568422473224e-06 0 -5.7701183073366647e-06 7.0445434696400741e-06 0 -9.0483311500297308e-06 1.1286956277057589e-05 0 -1.3147072473966061e-05 8.9464568422473224e-06 0 -8.4593707387380793e-06 5.417368610475755e-06 0 -5.7701183073366647e-06 7.0445434696400741e-06 0 -5.7701183073366647e-06 7.0445434696400741e-06 0 -4.2095621639423161e-06 1.0171499796888188e-05 0 -9.0483311500297308e-06 1.1286956277057589e-05 0 -7.0843327515285773e-06 1.5778667790351615e-05 0 -4.2095621639423152e-06 1.0171499796888188e-05 0 -3.1594486489378469e-07 1.1857262907201769e-05 0 -7.0843327515285773e-06 1.5778667790351615e-05 0 -3.1594486489378469e-07 1.1857262907201769e-05 0 -2.8435760485271617e-06 2.1829780577111422e-05 0 -7.0843327515285773e-06 1.5778667790351615e-05 0 -2.8435760485271617e-06 2.1829780577111422e-05 0 -8.7272179110563763e-06 2.3878414121913401e-05 0 -7.0843327515285773e-06 1.5778667790351615e-05 0 -8.727217911056378e-06 2.3878414121913401e-05 0 -1.5264730431998575e-05 2.5381041860197779e-05 0 -7.0843327515285773e-06 1.5778667790351615e-05 0 -1.5960724537019444e-05 1.6785813173051559e-05 0 -9.0483311500297308e-06 1.1286956277057589e-05 0 -7.0843327515285773e-06 1.5778667790351615e-05 0 -9.0483311500297308e-06 1.1286956277057587e-05 0 -4.2095621639423161e-06 1.0171499796888188e-05 0 -7.0843327515285773e-06 1.5778667790351615e-05 0 -1.5264730431998575e-05 2.5381041860197779e-05 0 -1.5960724537019444e-05 1.6785813173051559e-05 0 -2.4466000836551764e-05 2.645366190179213e-05 0 -1.5960724537019444e-05 1.6785813173051559e-05 0 -1.5264730431998575e-05 2.5381041860197779e-05 0 -2.4466000836551764e-05 2.645366190179213e-05 0 -2.1079232500989977e-05 1.556700367182631e-05 0 -1.5960724537019444e-05 1.6785813173051559e-05 0 -1.3147072473966061e-05 8.9464568422473224e-06 0 -1.5960724537019441e-05 1.6785813173051559e-05 0 -2.107923250098998e-05 1.556700367182631e-05 0 -1.3147072473966061e-05 8.9464568422473224e-06 0 -2.107923250098998e-05 1.556700367182631e-05 0 -2.0649817744929851e-05 1.0841213573486823e-05 0 -1.3147072473966061e-05 8.9464568422473224e-06 0 -9.0483311500297308e-06 1.1286956277057591e-05 0 -1.5960724537019444e-05 1.6785813173051559e-05 0 -1.3147072473966061e-05 8.9464568422473224e-06 0 -2.0649817744929851e-05 1.0841213573486823e-05 0 -1.6310072974871593e-05 6.8029125577241609e-06 0 -2.0716157972874121e-05 7.6110467166198715e-06 0 -2.0649817744929851e-05 1.0841213573486823e-05 0 -2.6915957532719546e-05 1.2138106287535611e-05 0 -2.7020571064704692e-05 1.6448918326836218e-05 0 -2.6915957532719546e-05 1.2138106287535611e-05 0 -2.0649817744929851e-05 1.0841213573486823e-05 0 -2.7020571064704692e-05 1.6448918326836218e-05 0 -2.0649817744929851e-05 1.0841213573486823e-05 0 -2.107923250098998e-05 1.556700367182631e-05 0 -2.7020571064704692e-05 1.6448918326836218e-05 0 -2.107923250098998e-05 1.556700367182631e-05 0 -2.9060298654155483e-05 2.2455799176049293e-05 0 -2.4466000836551764e-05 2.645366190179213e-05 0 -2.9060298654155483e-05 2.2455799176049293e-05 0 -2.107923250098998e-05 1.556700367182631e-05 0 -3.774915083727379e-05 3.2889538014038095e-05 0 -3.586047161557717e-05 2.3299987289233828e-05 0 -2.9060298654155483e-05 2.2455799176049293e-05 0 -2.4466000836551764e-05 2.645366190179213e-05 0 -3.774915083727379e-05 3.2889538014038095e-05 0 -2.9060298654155483e-05 2.2455799176049293e-05 0 -2.7020571064704692e-05 1.6448918326836218e-05 0 -2.9060298654155483e-05 2.2455799176049293e-05 0 -3.586047161557717e-05 2.3299987289233828e-05 0 -2.7020571064704692e-05 1.6448918326836218e-05 0 -3.586047161557717e-05 2.3299987289233828e-05 0 -3.309351848840245e-05 1.7150895775608986e-05 0 -4.7725294507306564e-05 3.0653401263255946e-05 0 -3.586047161557717e-05 2.3299987289233828e-05 0 -3.774915083727379e-05 3.2889538014038095e-05 0 -4.7725294507306564e-05 3.0653401263255946e-05 0 -4.1066808331728439e-05 2.148008117754686e-05 0 -3.586047161557717e-05 2.3299987289233828e-05 0 -4.1066808331728439e-05 2.148008117754686e-05 0 -3.309351848840245e-05 1.7150895775608986e-05 0 -3.586047161557717e-05 2.3299987289233828e-05 0 -4.1066808331728439e-05 2.148008117754686e-05 0 -3.4379436580830153e-05 1.451958916644694e-05 0 -3.309351848840245e-05 1.7150895775608986e-05 0 -3.4379436580830153e-05 1.451958916644694e-05 0 -2.6915957532719546e-05 1.2138106287535611e-05 0 -3.309351848840245e-05 1.7150895775608986e-05 0 -2.7020571064704692e-05 1.6448918326836218e-05 0 -3.309351848840245e-05 1.7150895775608986e-05 0 -2.6915957532719546e-05 1.2138106287535611e-05 0 -3.4379436580830153e-05 1.451958916644694e-05 0 -2.6083037328590357e-05 9.4122550228004734e-06 0 -2.6915957532719546e-05 1.2138106287535611e-05 0 -9.2597375521996732e-09 3.0713389142192799e-06 0 2.6088889196444087e-07 4.0201969058561878e-06 0 3.4435078320038948e-07 3.1037961098866559e-06 0 6.9075630500347391e-07 4.6063153001724647e-06 0 3.4435078320038948e-07 3.1037961098866559e-06 0 2.6088889196444087e-07 4.0201969058561878e-06 0 6.9075630500347391e-07 4.6063153001724647e-06 0 2.6088889196444087e-07 4.0201969058561878e-06 0 6.2990706355983308e-07 5.5416614059978797e-06 0 -9.2597375521996732e-09 3.0713389142192799e-06 0 -5.4057079455655655e-07 3.4211999223853499e-06 0 2.6088889196444087e-07 4.0201969058561878e-06 0 -1.7182800264162812e-06 2.1824049948641059e-06 0 -5.4057079455655655e-07 3.4211999223853499e-06 0 -7.3882094311104292e-07 2.3186615487558191e-06 0 -9.2597375521996732e-09 3.0713389142192799e-06 0 -7.3882094311104292e-07 2.3186615487558187e-06 0 -5.4057079455655655e-07 3.4211999223853499e-06 0 -1.7182800264162812e-06 2.1824049948641059e-06 0 -7.3882094311104292e-07 2.3186615487558191e-06 0 -1.7359415734512461e-06 1.4952818204853855e-06 0 -9.2597375521996732e-09 3.0713389142192799e-06 0 -3.781857825553073e-09 2.3022033112985025e-06 0 -7.3882094311104292e-07 2.3186615487558191e-06 0 -6.2960017285017477e-07 1.6845622197278914e-06 0 -7.3882094311104292e-07 2.3186615487558191e-06 0 -3.781857825553073e-09 2.3022033112985025e-06 0 -1.3595717455751425e-06 1.3775319545675845e-06 0 -7.3882094311104292e-07 2.3186615487558191e-06 0 -6.2960017285017477e-07 1.6845622197278914e-06 0 -6.2960017285017477e-07 1.6845622197278914e-06 0 -1.0433746751751916e-07 1.6162199216743657e-06 0 -5.6249123293722573e-07 1.3382964936823675e-06 0 -6.2960017285017477e-07 1.6845622197278914e-06 0 -3.781857825553073e-09 2.3022033112985025e-06 0 -1.0433746751751916e-07 1.6162199216743657e-06 0 1.2481420066842894e-07 1.9196110786223168e-06 0 -1.0433746751751916e-07 1.6162199216743657e-06 0 -3.781857825553073e-09 2.3022033112985025e-06 0 -9.2597375521996732e-09 3.0713389142192799e-06 0 3.4435078320038948e-07 3.1037961098866559e-06 0 -3.781857825553073e-09 2.3022033112985025e-06 0 1.2481420066842894e-07 1.9196110786223168e-06 0 -3.781857825553073e-09 2.3022033112985025e-06 0 3.4435078320038948e-07 3.1037961098866559e-06 0 1.2481420066842894e-07 1.9196110786223168e-06 0 3.4435078320038948e-07 3.1037961098866559e-06 0 -1.0966626994573664e-07 2.1272359726977118e-06 0 1.2481420066842894e-07 1.9196110786223168e-06 0 -1.0966626994573668e-07 2.1272359726977114e-06 0 -9.5078324156254666e-08 1.4853817653236469e-06 0 -7.4837634744559414e-07 7.5630167541390276e-07 0 -1.0966626994573664e-07 2.1272359726977118e-06 0 -1.3503723570041753e-06 1.5011649431619996e-06 0 -8.7659474038644214e-07 3.0781026509906765e-06 0 -1.0966626994573651e-07 2.1272359726977118e-06 0 1.7663229484917107e-07 3.4741637263066099e-06 0 -8.7659474038644214e-07 3.0781026509906765e-06 0 -1.3503723570041753e-06 1.5011649431619996e-06 0 -1.0966626994573664e-07 2.1272359726977118e-06 0 -1.0966626994573664e-07 2.1272359726977118e-06 0 3.4435078320038948e-07 3.1037961098866559e-06 0 1.7663229484917107e-07 3.4741637263066099e-06 0 -2.8992805071113857e-06 1.1108858879454717e-06 0 -1.3503723570041753e-06 1.5011649431619996e-06 0 -2.7595470163925679e-06 2.4135686667173434e-06 0 -8.7659474038644214e-07 3.0781026509906765e-06 0 -2.7595470163925679e-06 2.4135686667173434e-06 0 -1.3503723570041753e-06 1.5011649431619996e-06 0 -8.7659474038644214e-07 3.0781026509906765e-06 0 -2.1268111927693415e-06 4.799202793180147e-06 0 -2.7595470163925679e-06 2.4135686667173434e-06 0 -8.7659474038644214e-07 3.0781026509906765e-06 0 2.5755460164711018e-07 5.2445812802808444e-06 0 -2.1268111927693415e-06 4.799202793180147e-06 0 -1.139030987351844e-06 7.6971609157373925e-06 0 -2.1268111927693415e-06 4.799202793180147e-06 0 2.5755460164711018e-07 5.2445812802808444e-06 0 6.9075630500347391e-07 4.6063153001724647e-06 0 1.7663229484917107e-07 3.4741637263066099e-06 0 3.4435078320038948e-07 3.1037961098866559e-06 0 -8.7659474038644214e-07 3.0781026509906765e-06 0 1.7663229484917104e-07 3.4741637263066095e-06 0 2.5755460164711018e-07 5.2445812802808444e-06 0 6.9075630500347391e-07 4.6063153001724647e-06 0 2.5755460164711018e-07 5.2445812802808444e-06 0 1.7663229484917107e-07 3.4741637263066099e-06 0 6.9075630500347391e-07 4.6063153001724647e-06 0 1.1741673439802292e-06 6.4529438424380584e-06 0 2.5755460164711018e-07 5.2445812802808444e-06 0 6.9075630500347391e-07 4.6063153001724647e-06 0 6.2990706355983308e-07 5.5416614059978797e-06 0 1.174167343980229e-06 6.4529438424380584e-06 0 2.5755460164711018e-07 5.2445812802808444e-06 0 1.174167343980229e-06 6.4529438424380584e-06 0 2.0018582741366132e-06 8.9071866366849492e-06 0 1.3055650546984514e-06 7.4745909400043166e-06 0 2.0018582741366132e-06 8.9071866366849492e-06 0 1.174167343980229e-06 6.4529438424380584e-06 0 1.3055650546984514e-06 7.4745909400043166e-06 0 6.2990706355983308e-07 5.5416614059978797e-06 0 -8.6323289395358188e-08 5.6799284443909691e-06 0 1.3055650546984514e-06 7.4745909400043166e-06 0 1.174167343980229e-06 6.4529438424380576e-06 0 6.2990706355983308e-07 5.5416614059978797e-06 0 -1.139030987351844e-06 7.6971609157373925e-06 0 2.5755460164711018e-07 5.2445812802808444e-06 0 2.0018582741366132e-06 8.9071866366849492e-06 0 -1.139030987351844e-06 7.6971609157373925e-06 0 2.0018582741366132e-06 8.9071866366849492e-06 0 -3.1594486489378469e-07 1.1857262907201769e-05 0 -1.139030987351844e-06 7.6971609157373925e-06 0 -3.1594486489378469e-07 1.1857262907201769e-05 0 -4.2095621639423161e-06 1.0171499796888188e-05 0 5.5930458435860003e-06 1.3766482934465359e-05 0 -3.1594486489378464e-07 1.1857262907201769e-05 0 2.0018582741366132e-06 8.9071866366849492e-06 0 5.5930458435860003e-06 1.3766482934465359e-05 0 -2.8435760485271621e-06 2.1829780577111422e-05 0 -3.1594486489378469e-07 1.1857262907201769e-05 0 5.5930458435860003e-06 1.3766482934465359e-05 0 2.0018582741366132e-06 8.9071866366849492e-06 0 1.7204310946510856e-06 9.6103759364322031e-06 0 1.3055650546984514e-06 7.4745909400043166e-06 0 -4.6854734059787777e-07 6.1934785015728474e-06 0 1.7204310946510856e-06 9.6103759364322031e-06 0 1.3055650546984514e-06 7.4745909400043166e-06 0 -8.6323289395358188e-08 5.6799284443909691e-06 0 -4.6854734059787777e-07 6.1934785015728474e-06 0 1.3055650546984514e-06 7.4745909400043166e-06 0 1.7204310946510856e-06 9.6103759364322031e-06 0 2.0018582741366132e-06 8.9071866366849492e-06 0 -9.5007512772289106e-07 4.8451456667227688e-06 0 1.7204310946510856e-06 9.6103759364322031e-06 0 -4.6854734059787777e-07 6.1934785015728474e-06 0 -9.5007512772289106e-07 4.8451456667227688e-06 0 -4.6854734059787782e-07 6.1934785015728474e-06 0 -2.6971738468922958e-06 2.2631564691537006e-06 0 -2.0405473005087863e-06 3.8066940845228532e-06 0 -2.6971738468922958e-06 2.2631564691537006e-06 0 -4.6854734059787777e-07 6.1934785015728474e-06 0 -2.0405473005087863e-06 3.8066940845228532e-06 0 -4.6854734059787777e-07 6.1934785015728474e-06 0 -8.6323289395358188e-08 5.6799284443909691e-06 0 -4.3251457369932138e-07 4.5943212535054603e-06 0 -8.6323289395358188e-08 5.6799284443909691e-06 0 6.2990706355983308e-07 5.5416614059978797e-06 0 -8.6323289395358188e-08 5.6799284443909691e-06 0 -4.3251457369932138e-07 4.5943212535054603e-06 0 -2.0405473005087863e-06 3.8066940845228532e-06 0 -4.3251457369932138e-07 4.5943212535054603e-06 0 -1.9212872768976721e-06 2.9777648630973489e-06 0 -2.0405473005087863e-06 3.8066940845228532e-06 0 -4.3251457369932138e-07 4.5943212535054603e-06 0 -5.4057079455655655e-07 3.4211999223853499e-06 0 -1.9212872768976721e-06 2.9777648630973489e-06 0 -4.3251457369932138e-07 4.5943212535054603e-06 0 2.6088889196444087e-07 4.0201969058561878e-06 0 -5.4057079455655655e-07 3.4211999223853499e-06 0 -4.3251457369932138e-07 4.5943212535054603e-06 0 6.2990706355983308e-07 5.5416614059978797e-06 0 2.6088889196444087e-07 4.0201969058561878e-06 0 -1.7182800264162812e-06 2.1824049948641059e-06 0 -1.9212872768976721e-06 2.9777648630973489e-06 0 -5.4057079455655655e-07 3.4211999223853499e-06 0 -1.7182800264162812e-06 2.1824049948641059e-06 0 -3.4113842310428393e-06 1.023222349205103e-06 0 -1.9212872768976721e-06 2.9777648630973489e-06 0 -2.0405473005087863e-06 3.8066940845228532e-06 0 -3.7916270111982058e-06 1.2668599929921714e-06 0 -4.5567835947317379e-06 -5.5853936554273784e-07 0 -5.1082832711101429e-06 -6.3445954166899097e-07 0 -3.7916270111982058e-06 1.2668599929921714e-06 0 -3.4113842310428393e-06 1.023222349205103e-06 0 -3.4113842310428393e-06 1.023222349205103e-06 0 -3.7916270111982058e-06 1.2668599929921714e-06 0 -1.9212872768976721e-06 2.9777648630973489e-06 0 -2.0405473005087863e-06 3.8066940845228532e-06 0 -1.9212872768976721e-06 2.9777648630973489e-06 0 -3.7916270111982058e-06 1.2668599929921714e-06 0 -5.1082832711101429e-06 -6.3445954166899097e-07 0 -5.7514856499030649e-06 -1.9192975040198882e-06 0 -3.7916270111982058e-06 1.2668599929921714e-06 0 -4.5567835947317379e-06 -5.5853936554273784e-07 0 -3.7916270111982058e-06 1.2668599929921714e-06 0 -5.7514856499030649e-06 -1.9192975040198882e-06 0 -4.5567835947317379e-06 -5.5853936554273784e-07 0 -5.7514856499030649e-06 -1.9192975040198882e-06 0 -5.5620559291044317e-06 -3.533680598497528e-06 0 -4.2316561435662436e-06 -2.7489348125409454e-06 0 -4.5567835947317371e-06 -5.5853936554273816e-07 0 -5.5620559291044317e-06 -3.533680598497528e-06 0 -6.8362360997692868e-06 -4.4138557482294818e-06 0 -5.5620559291044317e-06 -3.533680598497528e-06 0 -5.7514856499030649e-06 -1.9192975040198882e-06 0 -6.8362360997692868e-06 -4.4138557482294818e-06 0 -6.2426151740441765e-06 -6.62939210227818e-06 0 -5.5620559291044317e-06 -3.533680598497528e-06 0 -4.2316561435662436e-06 -2.7489348125409454e-06 0 -5.5620559291044309e-06 -3.5336805984975275e-06 0 -6.2426151740441774e-06 -6.6293921022781808e-06 0 -6.8362360997692868e-06 -4.4138557482294818e-06 0 -7.9374415819987793e-06 -6.9641367491023556e-06 0 -6.2426151740441774e-06 -6.6293921022781808e-06 0 -1.9552595185750151e-06 -7.5117137679323597e-06 0 -1.9765571332372396e-06 -4.4528468040001287e-06 0 -3.918813953196469e-06 -7.0304661279477768e-06 0 -4.2316561435662436e-06 -2.7489348125409454e-06 0 -3.918813953196469e-06 -7.0304661279477768e-06 0 -1.9765571332372396e-06 -4.4528468040001287e-06 0 -4.2316561435662436e-06 -2.7489348125409454e-06 0 -6.2426151740441774e-06 -6.6293921022781808e-06 0 -3.918813953196469e-06 -7.0304661279477768e-06 0 -4.2316561435662436e-06 -2.7489348125409454e-06 0 -1.9765571332372396e-06 -4.4528468040001287e-06 0 -1.9823521349904785e-06 4.8024516708054565e-07 0 -2.0405473005087863e-06 3.8066940845228532e-06 0 -4.5567835947317379e-06 -5.5853936554273742e-07 0 -2.6971738468922958e-06 2.2631564691537006e-06 0 -4.2316561435662436e-06 -2.7489348125409454e-06 0 -1.9823521349904781e-06 4.8024516708054639e-07 0 -2.6971738468922958e-06 2.2631564691537006e-06 0 -4.2316561435662436e-06 -2.7489348125409454e-06 0 -2.6971738468922958e-06 2.2631564691537006e-06 0 -4.5567835947317379e-06 -5.5853936554273784e-07 0 -9.5007512772289106e-07 4.8451456667227688e-06 0 -2.6971738468922958e-06 2.2631564691537006e-06 0 -1.9823521349904785e-06 4.8024516708054565e-07 0 -9.5007512772289106e-07 4.8451456667227688e-06 0 4.9519124553590117e-07 5.0413208534561523e-06 0 1.7204310946510856e-06 9.6103759364322031e-06 0 -9.5007512772289106e-07 4.8451456667227688e-06 0 -1.9823521349904785e-06 4.8024516708054565e-07 0 4.9519124553590106e-07 5.0413208534561523e-06 0 5.5930458435860003e-06 1.3766482934465359e-05 0 1.7204310946510861e-06 9.6103759364322048e-06 0 4.9519124553590106e-07 5.0413208534561523e-06 0 5.0695055860625026e-06 1.2356630241330109e-06 0 4.9519124553590106e-07 5.0413208534561523e-06 0 7.8058410142471452e-07 -2.0909427859399764e-06 0 7.8058410142471452e-07 -2.0909427859399764e-06 0 4.9519124553590106e-07 5.0413208534561523e-06 0 -1.9823521349904785e-06 4.8024516708054565e-07 0 -2.8435760485271617e-06 2.1829780577111422e-05 0 5.5930458435860003e-06 1.3766482934465359e-05 0 3.4266681812397919e-07 3.5880830420661762e-05 0 5.5930458435860003e-06 1.3766482934465359e-05 0 4.9519124553590106e-07 5.0413208534561523e-06 0 5.0695055860625026e-06 1.2356630241330109e-06 0 6.3126681558807283e-06 1.2246797864965214e-05 0 9.0048582633857497e-06 1.947101863220575e-05 0 5.5930458435860003e-06 1.3766482934465359e-05 0 1.2095757142204866e-05 3.5013556344494147e-05 0 3.4266681812397919e-07 3.5880830420661762e-05 0 1.4902450469181321e-05 5.1021061465632468e-05 0 -1.9925664544773266e-06 4.9723977385451169e-05 0 3.4266681812397919e-07 3.5880830420661762e-05 0 9.0048582633857497e-06 1.947101863220575e-05 0 9.3737278239294344e-06 2.3036268653268679e-05 0 5.0695055860625026e-06 1.2356630241330109e-06 0 7.8058410142471452e-07 -2.0909427859399764e-06 0 3.6000127161956974e-06 -3.5440918392117e-06 0 1.2095757142204866e-05 3.5013556344494147e-05 0 1.4902450469181321e-05 5.1021061465632468e-05 0 3.4266681812397919e-07 3.5880830420661762e-05 0 9.3737278239294344e-06 2.3036268653268679e-05 0 9.6181811470786267e-06 3.0403919429538892e-05 0 3.6000127161956974e-06 -3.5440918392117e-06 0 6.2834634173798439e-07 -6.0337740010404913e-06 0 2.3723046181082175e-06 -6.6817760866545608e-06 0 1.4902450469181321e-05 5.1021061465632468e-05 0 6.1241274573673983e-06 6.1475970073023283e-05 0 -1.9925664544773266e-06 4.9723977385451169e-05 0 7.8058410142471452e-07 -2.0909427859399764e-06 0 -1.9823521349904785e-06 4.8024516708054565e-07 0 -1.9765571332372396e-06 -4.4528468040001287e-06 0 3.6000127161956974e-06 -3.5440918392117e-06 0 7.8058410142471462e-07 -2.090942785939976e-06 0 6.2834634173798439e-07 -6.0337740010404913e-06 0 7.8058410142471452e-07 -2.0909427859399764e-06 0 -1.9765571332372392e-06 -4.4528468040001287e-06 0 6.2834634173798439e-07 -6.0337740010404913e-06 0 -1.9552595185750151e-06 -7.5117137679323597e-06 0 6.2834634173798439e-07 -6.0337740010404913e-06 0 -1.9765571332372396e-06 -4.4528468040001287e-06 0 -1.9552595185750151e-06 -7.5117137679323597e-06 0 -6.4756539849380433e-07 -9.3476478455269128e-06 0 6.2834634173798439e-07 -6.0337740010404913e-06 0 2.3723046181082175e-06 -6.6817760866545608e-06 0 6.283463417379845e-07 -6.0337740010404905e-06 0 -6.4756539849380433e-07 -9.3476478455269128e-06 0 2.3723046181082175e-06 -6.6817760866545608e-06 0 -6.4756539849380433e-07 -9.3476478455269128e-06 0 1.4977957509199472e-06 -9.389369434201749e-06 0 -1.9552595185750151e-06 -7.5117137679323597e-06 0 -3.2548455741820872e-06 -9.8800552716458403e-06 0 -6.4756539849380433e-07 -9.3476478455269128e-06 0 -4.5567549882391944e-06 6.6545089416703555e-05 0 6.1241274573673983e-06 6.1475970073023283e-05 0 7.4322659990676822e-06 7.1945315194582175e-05 0 1.6837765891608772e-05 6.6665291531940759e-05 0 7.4322659990676822e-06 7.1945315194582175e-05 0 6.1241274573673983e-06 6.1475970073023283e-05 0 1.4902450469181321e-05 5.1021061465632468e-05 0 1.6837765891608772e-05 6.6665291531940759e-05 0 6.1241274573673983e-06 6.1475970073023283e-05 0 9.6181811470786267e-06 3.0403919429538892e-05 0 9.6153860366827908e-06 3.6635227953308191e-05 0 1.6837765891608772e-05 6.6665291531940759e-05 0 1.7994576461204178e-05 8.3059729262952156e-05 0 7.4322659990676822e-06 7.1945315194582175e-05 0 1.7994576461204174e-05 8.3059729262952156e-05 0 1.405642894217576e-06 8.136810649642905e-05 0 7.4322659990676822e-06 7.1945315194582175e-05 0 1.7994576461204174e-05 8.3059729262952156e-05 0 5.5792516052142906e-06 9.274417872738324e-05 0 1.405642894217576e-06 8.136810649642905e-05 0 1.7994576461204174e-05 8.3059729262952156e-05 0 1.862179765010499e-05 0.00010014688437599194 0 5.5792516052142906e-06 9.274417872738324e-05 0 1.4977957509199472e-06 -9.389369434201749e-06 0 -7.9328685436140868e-07 -1.2001899536152125e-05 0 6.967527751256991e-07 -1.2182351456478581e-05 0 9.6153860366827908e-06 3.6635227953308191e-05 0 9.3761112099651257e-06 4.3774552990396087e-05 0 1.862179765010499e-05 0.00010014688437599194 0 1.4472226406470293e-06 0.0001047603667799598 0 5.5792516052142906e-06 9.274417872738324e-05 0 -2.7887858148698989e-06 -1.210229024341199e-05 0 -7.9328685436140868e-07 -1.2001899536152125e-05 0 -6.4756539849380433e-07 -9.3476478455269128e-06 0 -2.7887858148698989e-06 -1.210229024341199e-05 0 -6.4756539849380433e-07 -9.3476478455269128e-06 0 -3.2548455741820872e-06 -9.8800552716458403e-06 0 1.4977957509199472e-06 -9.389369434201749e-06 0 -6.4756539849380454e-07 -9.3476478455269145e-06 0 -7.9328685436140868e-07 -1.2001899536152125e-05 0 -2.7887858148698989e-06 -1.210229024341199e-05 0 -3.5991148054931724e-06 -1.4446640545339125e-05 0 -7.9328685436140868e-07 -1.2001899536152125e-05 0 -1.8158336544201584e-06 -1.524100972189645e-05 0 -7.9328685436140868e-07 -1.2001899536152125e-05 0 -3.5991148054931724e-06 -1.4446640545339125e-05 0 -2.7887858148698989e-06 -1.210229024341199e-05 0 -5.5430954276637545e-06 -1.2780703766174763e-05 0 -3.5991148054931724e-06 -1.4446640545339125e-05 0 -5.6281502154601186e-06 -1.6190779573755904e-05 0 -3.5991148054931724e-06 -1.4446640545339125e-05 0 -5.5430954276637545e-06 -1.2780703766174763e-05 0 -2.7887858148698989e-06 -1.210229024341199e-05 0 -3.2548455741820872e-06 -9.8800552716458403e-06 0 -5.5430954276637545e-06 -1.2780703766174763e-05 0 -5.3146716331337067e-06 -9.9575902019532734e-06 0 -7.1012307650861623e-06 -1.0274824036568377e-05 0 -5.5430954276637545e-06 -1.2780703766174763e-05 0 -5.3146716331337067e-06 -9.9575902019532734e-06 0 -5.5430954276637545e-06 -1.2780703766174763e-05 0 -3.2548455741820872e-06 -9.8800552716458403e-06 0 -8.0070791209052415e-06 -1.2744350332698046e-05 0 -7.8617087649036483e-06 -1.6153212629987984e-05 0 -5.5430954276637545e-06 -1.2780703766174763e-05 0 -8.0070791209052415e-06 -1.2744350332698046e-05 0 -9.5479130176284626e-06 -1.4230938160584304e-05 0 -7.8617087649036483e-06 -1.6153212629987984e-05 0 -8.0070791209052415e-06 -1.2744350332698046e-05 0 -7.1012307650861623e-06 -1.0274824036568377e-05 0 -9.1690137754444317e-06 -1.1598071156975452e-05 0 -8.0070791209052415e-06 -1.2744350332698046e-05 0 -5.5430954276637545e-06 -1.2780703766174763e-05 0 -7.1012307650861623e-06 -1.0274824036568377e-05 0 -5.3146716331337067e-06 -9.9575902019532734e-06 0 -6.2426151740441774e-06 -6.6293921022781808e-06 0 -7.1012307650861623e-06 -1.0274824036568377e-05 0 -8.0747516370740171e-06 -9.111477563469457e-06 0 -9.1690137754444317e-06 -1.1598071156975452e-05 0 -7.1012307650861623e-06 -1.0274824036568377e-05 0 -8.0747516370740171e-06 -9.111477563469457e-06 0 -7.1012307650861623e-06 -1.0274824036568377e-05 0 -6.2426151740441774e-06 -6.6293921022781808e-06 0 -8.0747516370740171e-06 -9.111477563469457e-06 0 -6.2426151740441774e-06 -6.6293921022781808e-06 0 -7.9374415819987793e-06 -6.9641367491023556e-06 0 -5.3146716331337067e-06 -9.9575902019532734e-06 0 -3.918813953196469e-06 -7.0304661279477768e-06 0 -6.2426151740441774e-06 -6.6293921022781808e-06 0 -1.9552595185750151e-06 -7.5117137679323597e-06 0 -3.918813953196469e-06 -7.0304661279477768e-06 0 -3.2548455741820872e-06 -9.8800552716458403e-06 0 -5.3146716331337067e-06 -9.9575902019532734e-06 0 -3.2548455741820872e-06 -9.8800552716458403e-06 0 -3.918813953196469e-06 -7.0304661279477768e-06 0 -5.9757037571275718e-05 5.5548662802094314e-05 0 -4.7431447398424142e-05 4.6950055762810984e-05 0 -4.8497488828090738e-05 6.018182989108217e-05 0 -6.4538324866536868e-05 7.0595593406466242e-05 0 -5.9757037571275718e-05 5.5548662802094314e-05 0 -4.8497488828090738e-05 6.018182989108217e-05 0 -3.7948162210421293e-05 4.6630537844911877e-05 0 -4.8497488828090738e-05 6.018182989108217e-05 0 -4.7431447398424142e-05 4.6950055762810984e-05 0 -5.9757037571275718e-05 5.5548662802094314e-05 0 -5.3824893317914119e-05 4.201981818571508e-05 0 -4.7431447398424142e-05 4.6950055762810984e-05 0 -5.3824893317914119e-05 4.201981818571508e-05 0 -4.7725294507306564e-05 3.0653401263255946e-05 0 -3.774915083727379e-05 3.2889538014038095e-05 0 -3.7948162210421293e-05 4.6630537844911877e-05 0 -4.7431447398424142e-05 4.6950055762810984e-05 0 -3.774915083727379e-05 3.2889538014038095e-05 0 -5.3824893317914119e-05 4.201981818571508e-05 0 -3.774915083727379e-05 3.2889538014038095e-05 0 -4.7431447398424142e-05 4.6950055762810984e-05 0 -3.7948162210421293e-05 4.6630537844911877e-05 0 -3.774915083727379e-05 3.2889538014038095e-05 0 -2.9872944788916126e-05 3.8083135294269428e-05 0 -2.4466000836551764e-05 2.645366190179213e-05 0 -2.9872944788916126e-05 3.8083135294269428e-05 0 -3.774915083727379e-05 3.2889538014038095e-05 0 -2.169882667312671e-05 3.9586740886821379e-05 0 -3.0066988807739024e-05 4.7491286180607149e-05 0 -2.9872944788916126e-05 3.8083135294269428e-05 0 -3.7948162210421293e-05 4.6630537844911877e-05 0 -2.9872944788916126e-05 3.8083135294269428e-05 0 -3.0066988807739024e-05 4.7491286180607149e-05 0 -3.7948162210421293e-05 4.6630537844911877e-05 0 -3.0066988807739024e-05 4.7491286180607149e-05 0 -3.593843302078658e-05 5.8553225020016136e-05 0 -3.7948162210421293e-05 4.6630537844911877e-05 0 -3.593843302078658e-05 5.8553225020016136e-05 0 -4.8497488828090738e-05 6.018182989108217e-05 0 -2.4780136466297982e-05 5.6093320939185228e-05 0 -3.593843302078658e-05 5.8553225020016136e-05 0 -3.0066988807739024e-05 4.7491286180607149e-05 0 -2.4780136466297982e-05 5.6093320939185228e-05 0 -1.3580034270336998e-05 5.2118505184950335e-05 0 -1.8228421435401258e-05 6.7611674494125104e-05 0 -2.4780136466297982e-05 5.6093320939185228e-05 0 -2.169882667312671e-05 3.9586740886821379e-05 0 -1.3580034270336998e-05 5.2118505184950335e-05 0 -1.0010607880644476e-05 3.4930381773273442e-05 0 -1.3580034270336999e-05 5.2118505184950335e-05 0 -2.169882667312671e-05 3.9586740886821379e-05 0 -2.4780136466297982e-05 5.6093320939185228e-05 0 -3.0066988807739024e-05 4.7491286180607149e-05 0 -2.169882667312671e-05 3.9586740886821379e-05 0 -2.4466000836551764e-05 2.645366190179213e-05 0 -2.169882667312671e-05 3.9586740886821379e-05 0 -2.9872944788916126e-05 3.8083135294269428e-05 0 -2.4466000836551764e-05 2.645366190179213e-05 0 -1.5264730431998579e-05 2.5381041860197779e-05 0 -2.169882667312671e-05 3.9586740886821379e-05 0 -1.0010607880644476e-05 3.4930381773273442e-05 0 -2.169882667312671e-05 3.9586740886821379e-05 0 -1.5264730431998575e-05 2.5381041860197779e-05 0 -1.0010607880644476e-05 3.4930381773273442e-05 0 -1.5264730431998575e-05 2.5381041860197783e-05 0 -8.7272179110563763e-06 2.3878414121913401e-05 0 -1.0010607880644476e-05 3.4930381773273442e-05 0 -8.727217911056378e-06 2.3878414121913405e-05 0 -2.8435760485271617e-06 2.1829780577111422e-05 0 -1.0010607880644476e-05 3.4930381773273442e-05 0 -2.8435760485271617e-06 2.1829780577111422e-05 0 3.4266681812397919e-07 3.5880830420661762e-05 0 -1.0010607880644476e-05 3.4930381773273442e-05 0 3.4266681812397919e-07 3.5880830420661762e-05 0 -1.9925664544773266e-06 4.9723977385451169e-05 0 -1.0010607880644476e-05 3.4930381773273442e-05 0 -1.9925664544773266e-06 4.9723977385451169e-05 0 -1.3580034270336998e-05 5.2118505184950335e-05 0 -4.5567549882391944e-06 6.6545089416703555e-05 0 -1.3580034270336998e-05 5.2118505184950335e-05 0 -1.9925664544773266e-06 4.9723977385451169e-05 0 -4.5567549882391944e-06 6.6545089416703555e-05 0 -1.9925664544773266e-06 4.9723977385451169e-05 0 6.1241274573673983e-06 6.1475970073023283e-05 0 -4.5567549882391944e-06 6.6545089416703555e-05 0 -1.8228421435401258e-05 6.7611674494125104e-05 0 -1.3580034270336998e-05 5.2118505184950335e-05 0 -4.5567549882391944e-06 6.6545089416703555e-05 0 -1.118207770182751e-05 7.7681473978852508e-05 0 -1.8228421435401258e-05 6.7611674494125104e-05 0 -4.5567549882391944e-06 6.6545089416703555e-05 0 1.405642894217576e-06 8.136810649642905e-05 0 -1.118207770182751e-05 7.7681473978852508e-05 0 -4.5567549882391944e-06 6.6545089416703555e-05 0 7.4322659990676822e-06 7.1945315194582175e-05 0 1.405642894217576e-06 8.136810649642905e-05 0 1.405642894217576e-06 8.136810649642905e-05 0 5.5792516052142906e-06 9.274417872738324e-05 0 -1.0463968602489827e-05 9.3245277094006519e-05 0 5.5792516052142906e-06 9.274417872738324e-05 0 1.4472226406470293e-06 0.0001047603667799598 0 -1.0463968602489827e-05 9.3245277094006519e-05 0 -1.0463968602489827e-05 9.3245277094006519e-05 0 -1.118207770182751e-05 7.7681473978852508e-05 0 1.405642894217576e-06 8.136810649642905e-05 0 -1.0463968602489827e-05 9.3245277094006519e-05 0 -2.3464833902949302e-05 8.0200618612562527e-05 0 -1.118207770182751e-05 7.7681473978852508e-05 0 -1.0463968602489827e-05 9.3245277094006519e-05 0 -2.6801033022571087e-05 9.4899024074550893e-05 0 -2.3464833902949302e-05 8.0200618612562527e-05 0 -1.0463968602489827e-05 9.3245277094006519e-05 0 -2.4402640211276246e-05 0.00010922797481357547 0 -2.6801033022571087e-05 9.4899024074550893e-05 0 -3.7681831719651498e-05 9.3866199379622498e-05 0 -2.3464833902949305e-05 8.0200618612562513e-05 0 -2.6801033022571087e-05 9.4899024074550893e-05 0 -3.7681831719651498e-05 9.3866199379622498e-05 0 -3.2096952104900412e-05 7.2792811542499465e-05 0 -2.3464833902949302e-05 8.0200618612562527e-05 0 -2.3464833902949302e-05 8.0200618612562527e-05 0 -3.2096952104900412e-05 7.2792811542499465e-05 0 -1.8228421435401258e-05 6.7611674494125104e-05 0 -2.3464833902949302e-05 8.0200618612562527e-05 0 -1.8228421435401258e-05 6.7611674494125104e-05 0 -1.118207770182751e-05 7.7681473978852508e-05 0 -2.4780136466297982e-05 5.6093320939185228e-05 0 -1.8228421435401258e-05 6.7611674494125104e-05 0 -3.2096952104900412e-05 7.2792811542499465e-05 0 -2.4780136466297982e-05 5.6093320939185228e-05 0 -3.2096952104900412e-05 7.2792811542499465e-05 0 -3.593843302078658e-05 5.8553225020016136e-05 0 -4.2758697758523621e-05 7.049953854475037e-05 0 -3.593843302078658e-05 5.8553225020016136e-05 0 -3.2096952104900412e-05 7.2792811542499465e-05 0 -4.2758697758523621e-05 7.049953854475037e-05 0 -4.8497488828090738e-05 6.018182989108217e-05 0 -3.593843302078658e-05 5.8553225020016136e-05 0 -4.2758697758523621e-05 7.049953854475037e-05 0 -4.407507287950911e-05 8.2064346244980149e-05 0 -5.4450991803781635e-05 7.9406388824266273e-05 0 -4.2758697758523621e-05 7.049953854475037e-05 0 -3.2096952104900412e-05 7.2792811542499465e-05 0 -4.407507287950911e-05 8.2064346244980149e-05 0 -3.7681831719651498e-05 9.3866199379622498e-05 0 -4.4075072879509116e-05 8.2064346244980149e-05 0 -3.2096952104900412e-05 7.2792811542499465e-05 0 -3.7681831719651498e-05 9.3866199379622498e-05 0 -2.6801033022571087e-05 9.4899024074550893e-05 0 -3.7349273810338997e-05 0.0001093864011799269 0 -3.7681831719651498e-05 9.3866199379622498e-05 0 -4.7367984958070158e-05 0.00010552822862358911 0 -5.3922779934778446e-05 9.4543320012854275e-05 0 -3.7681831719651498e-05 9.3866199379622498e-05 0 -5.3922779934778446e-05 9.4543320012854275e-05 0 -4.407507287950911e-05 8.2064346244980149e-05 0 -5.3922779934778446e-05 9.4543320012854275e-05 0 -5.4450991803781635e-05 7.9406388824266273e-05 0 -4.407507287950911e-05 8.2064346244980149e-05 0 -7.1231976132820037e-05 0.00010396414540296901 0 -6.8438891357791936e-05 8.6952989748039633e-05 0 -5.3922779934778446e-05 9.4543320012854275e-05 0 -7.1231976132820037e-05 0.00010396414540296901 0 -5.3922779934778446e-05 9.4543320012854275e-05 0 -5.8757468874869479e-05 0.00011067886412802749 0 -6.8438891357791936e-05 8.6952989748039633e-05 0 -5.4450991803781635e-05 7.9406388824266273e-05 0 -5.3922779934778446e-05 9.4543320012854275e-05 0 -6.8438891357791936e-05 8.6952989748039633e-05 0 -6.4538324866536868e-05 7.0595593406466242e-05 0 -5.4450991803781635e-05 7.9406388824266273e-05 0 -4.2758697758523621e-05 7.049953854475037e-05 0 -5.4450991803781635e-05 7.9406388824266273e-05 0 -4.8497488828090738e-05 6.018182989108217e-05 0 -6.4538324866536868e-05 7.0595593406466242e-05 0 -4.8497488828090738e-05 6.018182989108217e-05 0 -5.4450991803781635e-05 7.9406388824266273e-05 0 -7.414655878541863e-05 0.00013864545181712791 0 -5.323079670858132e-05 0.00013900341782247886 0 -5.9588453553069382e-05 0.00015530594095058766 0 -7.414655878541863e-05 0.00013864545181712791 0 -6.1361770343912125e-05 0.00012619110273828343 0 -5.323079670858132e-05 0.00013900341782247886 0 -4.9395408657433777e-05 0.00011959802220184602 0 -5.323079670858132e-05 0.00013900341782247886 0 -6.1361770343912125e-05 0.00012619110273828343 0 -7.414655878541863e-05 0.00013864545181712791 0 -7.3144466304895958e-05 0.00012129863600470751 0 -6.1361770343912125e-05 0.00012619110273828343 0 -7.3144466304895958e-05 0.00012129863600470751 0 -5.8757468874869479e-05 0.00011067886412802749 0 -6.1361770343912125e-05 0.00012619110273828343 0 -7.3144466304895958e-05 0.00012129863600470751 0 -7.1231976132820037e-05 0.00010396414540296901 0 -5.8757468874869479e-05 0.00011067886412802749 0 -5.3922779934778446e-05 9.4543320012854275e-05 0 -4.7367984958070158e-05 0.00010552822862358911 0 -5.8757468874869479e-05 0.00011067886412802749 0 -4.9395408657433777e-05 0.00011959802220184602 0 -6.1361770343912125e-05 0.00012619110273828343 0 -5.8757468874869479e-05 0.00011067886412802749 0 -4.9395408657433777e-05 0.00011959802220184602 0 -4.7367984958070158e-05 0.00010552822862358911 0 -3.7349273810338997e-05 0.0001093864011799269 0 -4.9395408657433777e-05 0.00011959802220184602 0 -5.8757468874869479e-05 0.00011067886412802749 0 -4.7367984958070158e-05 0.00010552822862358911 0 -3.7681831719651498e-05 9.3866199379622498e-05 0 -3.7349273810338997e-05 0.0001093864011799269 0 -4.7367984958070158e-05 0.00010552822862358911 0 -4.9395408657433777e-05 0.00011959802220184602 0 -3.7349273810338997e-05 0.0001093864011799269 0 -3.8138358469897869e-05 0.00012468924467084303 0 -5.323079670858132e-05 0.00013900341782247886 0 -3.8138358469897869e-05 0.00012468924467084303 0 -3.788421639875979e-05 0.00014053463751193424 0 -4.9395408657433777e-05 0.00011959802220184602 0 -3.8138358469897869e-05 0.00012468924467084303 0 -5.323079670858132e-05 0.00013900341782247886 0 -4.4077894259316362e-05 0.00015712996400013313 0 -5.323079670858132e-05 0.00013900341782247886 0 -3.788421639875979e-05 0.00014053463751193424 0 -2.7114151191839134e-05 0.00013023181002813777 0 -2.6844662056354705e-05 0.00014947811682243959 0 -3.788421639875979e-05 0.00014053463751193424 0 -2.7114151191839134e-05 0.00013023181002813777 0 -1.5251259196147325e-05 0.00013754579370017892 0 -2.6844662056354705e-05 0.00014947811682243959 0 -2.7114151191839134e-05 0.00013023181002813777 0 -1.6969322750087276e-05 0.00012048980355687014 0 -1.5251259196147325e-05 0.00013754579370017892 0 -2.7114151191839134e-05 0.00013023181002813777 0 -3.788421639875979e-05 0.00014053463751193424 0 -3.8138358469897869e-05 0.00012468924467084303 0 -2.4402640211276246e-05 0.00010922797481357547 0 -3.8138358469897869e-05 0.00012468924467084303 0 -3.7349273810338997e-05 0.0001093864011799269 0 -2.7114151191839134e-05 0.00013023181002813777 0 -3.8138358469897869e-05 0.00012468924467084303 0 -2.4402640211276246e-05 0.00010922797481357547 0 -2.4402640211276246e-05 0.00010922797481357547 0 -3.7349273810338997e-05 0.0001093864011799269 0 -2.6801033022571087e-05 9.4899024074550893e-05 0 -2.4402640211276246e-05 0.00010922797481357547 0 -1.119787456268609e-05 0.00010974636148658561 0 -1.6969322750087272e-05 0.00012048980355687014 0 -2.7114151191839134e-05 0.00013023181002813777 0 -2.440264021127625e-05 0.00010922797481357547 0 -1.6969322750087272e-05 0.00012048980355687014 0 -5.0156527166137856e-06 0.00012080042922416512 0 -1.6969322750087272e-05 0.00012048980355687014 0 -1.1197874562686091e-05 0.00010974636148658561 0 -1.0463968602489827e-05 9.3245277094006519e-05 0 1.4472226406470293e-06 0.0001047603667799598 0 -1.1197874562686091e-05 0.00010974636148658561 0 -1.0463968602489827e-05 9.3245277094006519e-05 0 -1.1197874562686091e-05 0.00010974636148658561 0 -2.4402640211276246e-05 0.00010922797481357547 0 -5.0156527166137856e-06 0.00012080042922416512 0 -1.1197874562686091e-05 0.00010974636148658561 0 1.4472226406470293e-06 0.0001047603667799598 0 -5.0156527166137856e-06 0.00012080042922416512 0 1.4472226406470293e-06 0.0001047603667799598 0 8.0512816951489453e-06 0.0001141410401844225 0 -5.0156527166137856e-06 0.00012080042922416512 0 -1.224686165638389e-06 0.00014009277612147243 0 -1.5251259196147325e-05 0.00013754579370017892 0 -5.0156527166137856e-06 0.00012080042922416512 0 6.8376271307853651e-06 0.00012623829903537083 0 -1.224686165638389e-06 0.00014009277612147243 0 -5.0156527166137856e-06 0.00012080042922416512 0 -1.5251259196147325e-05 0.00013754579370017892 0 -1.6969322750087272e-05 0.00012048980355687014 0 -1.2110075087519706e-05 0.00015764265787196911 0 -1.5251259196147325e-05 0.00013754579370017892 0 -1.224686165638389e-06 0.00014009277612147243 0 -1.2110075087519706e-05 0.00015764265787196911 0 -1.224686165638388e-06 0.00014009277612147243 0 2.8144847320945526e-06 0.00015624017892854096 0 -1.2110075087519706e-05 0.00015764265787196911 0 -7.6403241586681971e-07 0.00017175114345872644 0 -1.4594705840548901e-05 0.0001747668108892254 0 -1.2110075087519706e-05 0.00015764265787196911 0 2.8144847320945539e-06 0.00015624017892854096 0 -7.6403241586681823e-07 0.00017175114345872644 0 -7.6403241586681823e-07 0.00017175114345872644 0 -6.2111185309219664e-06 0.00018155386171843206 0 -1.4594705840548901e-05 0.0001747668108892254 0 -7.6403241586681823e-07 0.00017175114345872644 0 5.7497825317115024e-06 0.00018060754819873817 0 -6.2111185309219664e-06 0.00018155386171843206 0 9.3465311581518895e-07 0.00018926030945539188 0 -6.2111185309219664e-06 0.00018155386171843206 0 5.7497825317115024e-06 0.00018060754819873817 0 9.3465311581518895e-07 0.00018926030945539188 0 -1.3194973421928437e-05 0.00018903023913182664 0 -6.2111185309219664e-06 0.00018155386171843206 0 -1.3194973421928437e-05 0.00018903023913182664 0 -1.4594705840548901e-05 0.0001747668108892254 0 -6.2111185309219664e-06 0.00018155386171843206 0 -2.7723982450203919e-05 0.00018854872382299142 0 -4.1608210793635258e-05 0.00017370992483881835 0 -2.7946944393159218e-05 0.00016863127039454579 0 -2.7723982450203919e-05 0.00018854872382299142 0 -2.7946944393159218e-05 0.00016863127039454579 0 -1.4594705840548901e-05 0.0001747668108892254 0 -1.3194973421928437e-05 0.00018903023913182664 0 -2.7723982450203919e-05 0.00018854872382299142 0 -1.4594705840548901e-05 0.0001747668108892254 0 -4.4077894259316362e-05 0.00015712996400013313 0 -2.6844662056354705e-05 0.00014947811682243959 0 -2.7946944393159218e-05 0.00016863127039454579 0 -1.2110075087519706e-05 0.00015764265787196911 0 -1.4594705840548901e-05 0.0001747668108892254 0 -2.7946944393159218e-05 0.00016863127039454579 0 -1.2110075087519706e-05 0.00015764265787196911 0 -2.7946944393159218e-05 0.00016863127039454579 0 -2.6844662056354705e-05 0.00014947811682243959 0 -1.2110075087519706e-05 0.00015764265787196911 0 -2.6844662056354705e-05 0.00014947811682243959 0 -1.5251259196147325e-05 0.00013754579370017892 0 -4.4077894259316362e-05 0.00015712996400013313 0 -3.788421639875979e-05 0.00014053463751193424 0 -2.6844662056354705e-05 0.00014947811682243959 0 -4.4077894259316362e-05 0.00015712996400013313 0 -5.9588453553069382e-05 0.00015530594095058766 0 -5.323079670858132e-05 0.00013900341782247886 0 -4.4077894259316362e-05 0.00015712996400013313 0 -4.1608210793635258e-05 0.00017370992483881835 0 -5.6618888370778354e-05 0.00017022370356406305 0 -4.4077894259316362e-05 0.00015712996400013313 0 -5.6618888370778354e-05 0.00017022370356406305 0 -5.9588453553069382e-05 0.00015530594095058766 0 -4.4077894259316362e-05 0.00015712996400013313 0 -2.7946944393159215e-05 0.00016863127039454576 0 -4.1608210793635258e-05 0.00017370992483881835 0 -2.7723982450203919e-05 0.00018854872382299142 0 -4.2859443218197215e-05 0.00018825000266434351 0 -4.1608210793635258e-05 0.00017370992483881835 0 -4.2859443218197215e-05 0.00018825000266434351 0 -5.8601873262738173e-05 0.00018827001171323464 0 -5.0669563214769655e-05 0.0001800943684918527 0 -4.2859443218197215e-05 0.00018825000266434351 0 -5.0669563214769655e-05 0.0001800943684918527 0 -4.1608210793635258e-05 0.00017370992483881835 0 -5.6618888370778354e-05 0.00017022370356406305 0 -4.1608210793635258e-05 0.00017370992483881835 0 -5.0669563214769655e-05 0.0001800943684918527 0 -5.6618888370778354e-05 0.00017022370356406305 0 -5.0669563214769655e-05 0.0001800943684918527 0 -6.392712251058112e-05 0.00017919696731612833 0 -5.8601873262738173e-05 0.00018827001171323464 0 -6.392712251058112e-05 0.00017919696731612833 0 -5.0669563214769655e-05 0.0001800943684918527 0 -7.4663846153175426e-05 0.00018830629642116196 0 -6.392712251058112e-05 0.00017919696731612833 0 -5.8601873262738173e-05 0.00018827001171323464 0 -7.4663846153175426e-05 0.00018830629642116196 0 -7.4693361011316108e-05 0.00017219429746199815 0 -6.392712251058112e-05 0.00017919696731612833 0 -7.4693361011316108e-05 0.00017219429746199815 0 -5.6618888370778354e-05 0.00017022370356406305 0 -6.392712251058112e-05 0.00017919696731612833 0 -7.4693361011316108e-05 0.00017219429746199815 0 -7.4596365189971229e-05 0.00015566083802938757 0 -5.9588453553069382e-05 0.00015530594095058766 0 -7.4693361011316108e-05 0.00017219429746199815 0 -5.9588453553069382e-05 0.00015530594095058766 0 -5.6618888370778354e-05 0.00017022370356406305 0 -7.4596365189971229e-05 0.00015566083802938757 0 -7.414655878541863e-05 0.00013864545181712791 0 -5.9588453553069382e-05 0.00015530594095058766 0 -7.5827388007426204e-06 -2.2333764749310717e-05 0 -6.2206081632623264e-06 -1.9083704949098058e-05 0 -8.1662553468321045e-06 -1.9593819388478875e-05 0 -4.6516578725187801e-06 -2.0318013446494377e-05 0 -6.2206081632623264e-06 -1.9083704949098058e-05 0 -5.9074952034358309e-06 -2.2785603912097545e-05 0 -4.6516578725187801e-06 -2.0318013446494377e-05 0 -4.2859104063155322e-06 -1.7635713798693678e-05 0 -6.2206081632623264e-06 -1.9083704949098058e-05 0 -7.5827388007426204e-06 -2.2333764749310717e-05 0 -5.9074952034358309e-06 -2.2785603912097545e-05 0 -6.2206081632623264e-06 -1.9083704949098058e-05 0 -7.5827388007426204e-06 -2.2333764749310717e-05 0 -8.1662553468321045e-06 -1.9593819388478875e-05 0 -9.5596090571744939e-06 -2.1549776421306015e-05 0 -8.1662553468321045e-06 -1.9593819388478875e-05 0 -9.569186030678554e-06 -1.8485107610860984e-05 0 -9.5596090571744939e-06 -2.1549776421306015e-05 0 -1.0797517609254202e-05 -1.9965853998755443e-05 0 -9.5596090571744939e-06 -2.1549776421306015e-05 0 -9.569186030678554e-06 -1.8485107610860984e-05 0 -8.1662553468321045e-06 -1.9593819388478875e-05 0 -7.8617087649036483e-06 -1.6153212629987984e-05 0 -9.569186030678554e-06 -1.8485107610860984e-05 0 -9.6988513096506245e-06 -1.6444100070405887e-05 0 -9.569186030678554e-06 -1.8485107610860984e-05 0 -7.8617087649036483e-06 -1.6153212629987984e-05 0 -9.6988513096506245e-06 -1.6444100070405887e-05 0 -7.8617087649036483e-06 -1.6153212629987984e-05 0 -9.5479130176284626e-06 -1.4230938160584304e-05 0 -5.6281502154601186e-06 -1.6190779573755904e-05 0 -5.5430954276637545e-06 -1.2780703766174763e-05 0 -7.8617087649036483e-06 -1.6153212629987984e-05 0 -6.2206081632623264e-06 -1.9083704949098058e-05 0 -5.6281502154601186e-06 -1.6190779573755904e-05 0 -7.8617087649036483e-06 -1.6153212629987984e-05 0 -8.1662553468321045e-06 -1.9593819388478875e-05 0 -6.2206081632623264e-06 -1.9083704949098058e-05 0 -7.8617087649036483e-06 -1.6153212629987984e-05 0 -5.6281502154601186e-06 -1.6190779573755904e-05 0 -6.2206081632623264e-06 -1.9083704949098058e-05 0 -4.2859104063155322e-06 -1.7635713798693678e-05 0 -5.6281502154601186e-06 -1.6190779573755904e-05 0 -4.2859104063155322e-06 -1.7635713798693678e-05 0 -3.5991148054931724e-06 -1.4446640545339125e-05 0 -1.8158336544201584e-06 -1.524100972189645e-05 0 -3.5991148054931724e-06 -1.4446640545339125e-05 0 -4.2859104063155322e-06 -1.7635713798693678e-05 0 6.967527751256991e-07 -1.2182351456478581e-05 0 -7.9328685436140858e-07 -1.2001899536152125e-05 0 -1.8158336544201584e-06 -1.524100972189645e-05 0 3.8899597062993269e-08 -1.5218101388941087e-05 0 -1.8158336544201584e-06 -1.524100972189645e-05 0 -2.4007607315188682e-06 -1.8549085244486215e-05 0 -1.8158336544201584e-06 -1.524100972189645e-05 0 -4.2859104063155322e-06 -1.7635713798693678e-05 0 -2.4007607315188682e-06 -1.8549085244486215e-05 0 1.862179765010499e-05 0.00010014688437599194 0 8.0512816951489453e-06 0.0001141410401844225 0 1.4472226406470293e-06 0.0001047603667799598 0 1.862179765010499e-05 0.00010014688437599194 0 1.8753162271461643e-05 0.00011769505731873673 0 8.0512816951489453e-06 0.0001141410401844225 0 6.967527751256991e-07 -1.2182351456478581e-05 0 -1.8158336544201581e-06 -1.524100972189645e-05 0 3.8899597062993269e-08 -1.5218101388941087e-05 0 9.3761112099651257e-06 4.3774552990396087e-05 0 8.8740103338583385e-06 5.1852066108321187e-05 0 -5.0156527166137856e-06 0.00012080042922416512 0 8.0512816951489453e-06 0.0001141410401844225 0 6.8376271307853651e-06 0.00012623829903537083 0 1.8753162271461643e-05 0.00011769505731873673 0 6.8376271307853642e-06 0.00012623829903537083 0 8.0512816951489453e-06 0.0001141410401844225 0 1.8188089018503421e-05 0.00013601119995838005 0 -1.224686165638389e-06 0.00014009277612147243 0 6.8376271307853651e-06 0.00012623829903537083 0 8.8740103338583385e-06 5.1852066108321187e-05 0 8.1339190529801156e-06 5.7324206114260949e-05 0 3.8899597062993269e-08 -1.5218101388941087e-05 0 -2.4007607315188686e-06 -1.8549085244486215e-05 0 -6.6979964459051549e-07 -1.8711770887348298e-05 0 1.8753162271461643e-05 0.00011769505731873673 0 1.8188089018503421e-05 0.00013601119995838005 0 6.8376271307853651e-06 0.00012623829903537083 0 8.1339190529801156e-06 5.7324206114260949e-05 0 6.43398005227206e-06 6.7772660813299887e-05 0 1.8188089018503421e-05 0.00013601119995838005 0 2.8144847320945526e-06 0.00015624017892854096 0 -1.224686165638389e-06 0.00014009277612147243 0 -4.6516578725187801e-06 -2.0318013446494377e-05 0 -2.4007607315188682e-06 -1.8549085244486215e-05 0 -4.2859104063155322e-06 -1.7635713798693678e-05 0 -6.6979964459051549e-07 -1.8711770887348298e-05 0 -2.4007607315188682e-06 -1.8549085244486215e-05 0 -3.8013581373153489e-06 -2.28630786302446e-05 0 -4.6516578725187801e-06 -2.0318013446494377e-05 0 -5.9074952034358309e-06 -2.2785603912097545e-05 0 -3.8013581373153489e-06 -2.28630786302446e-05 0 -4.6516578725187801e-06 -2.0318013446494377e-05 0 -3.8013581373153489e-06 -2.28630786302446e-05 0 -2.4007607315188682e-06 -1.8549085244486215e-05 0 -5.4402240691235745e-06 -2.6142832557180371e-05 0 -3.6401879755109243e-06 -2.5850285979041437e-05 0 -3.8013581373153489e-06 -2.28630786302446e-05 0 -5.4402240691235745e-06 -2.6142832557180371e-05 0 -3.8013581373153489e-06 -2.28630786302446e-05 0 -5.9074952034358309e-06 -2.2785603912097545e-05 0 -6.6979964459051549e-07 -1.8711770887348298e-05 0 -3.8013581373153489e-06 -2.28630786302446e-05 0 -1.2169940704228351e-06 -2.2284682920619901e-05 0 -1.2169940704228351e-06 -2.2284682920619901e-05 0 -3.8013581373153485e-06 -2.28630786302446e-05 0 -3.6401879755109243e-06 -2.5850285979041437e-05 0 -5.4402240691235745e-06 -2.6142832557180371e-05 0 -4.4188488792622455e-06 -2.8869801203320374e-05 0 -3.6401879755109243e-06 -2.5850285979041437e-05 0 1.8188089018503421e-05 0.00013601119995838005 0 1.7274772336821204e-05 0.00015342842926682054 0 2.8144847320945526e-06 0.00015624017892854096 0 6.43398005227206e-06 6.7772660813299887e-05 0 7.4588634022727216e-06 7.0402885872111135e-05 0 -1.2169940704228351e-06 -2.2284682920619901e-05 0 -3.6401879755109243e-06 -2.5850285979041437e-05 0 -1.9234452232706795e-06 -2.609971568078546e-05 0 1.7274772336821204e-05 0.00015342842926682054 0 1.6056768010279772e-05 0.00017168040203449642 0 2.8144847320945526e-06 0.00015624017892854096 0 1.6056768010279772e-05 0.00017168040203449642 0 -7.6403241586681918e-07 0.00017175114345872641 0 2.8144847320945526e-06 0.00015624017892854096 0 1.6056768010279772e-05 0.00017168040203449642 0 5.7497825317115024e-06 0.00018060754819873817 0 -7.6403241586681823e-07 0.00017175114345872644 0 7.4588634022727216e-06 7.0402885872111135e-05 0 -3.0285346632580295e-06 8.087528232109955e-05 0 1.4986550039103643e-05 0.00018720510693905041 0 5.7497825317115033e-06 0.00018060754819873817 0 1.6056768010279772e-05 0.00017168040203449642 0 1.4986550039103643e-05 0.00018720510693905041 0 9.3465311581518895e-07 0.00018926030945539188 0 5.7497825317115024e-06 0.00018060754819873817 0 -5.4402240691235745e-06 -2.6142832557180371e-05 0 -6.4672200748356068e-06 -2.8319687527946549e-05 0 -4.4188488792622455e-06 -2.8869801203320374e-05 0 -1.9234452232706795e-06 -2.609971568078546e-05 0 -3.6401879755109243e-06 -2.5850285979041437e-05 0 -4.4188488792622455e-06 -2.8869801203320374e-05 0 -2.1915540652940742e-06 -2.9722418896608679e-05 0 -1.9234452232706795e-06 -2.609971568078546e-05 0 -4.4188488792622455e-06 -2.8869801203320374e-05 0 -2.1915540652940742e-06 -2.9722418896608679e-05 0 -4.4188488792622455e-06 -2.8869801203320374e-05 0 -4.5515436949385666e-06 -3.1024545488747054e-05 0 -4.5515436949385666e-06 -3.1024545488747054e-05 0 -4.4188488792622455e-06 -2.8869801203320374e-05 0 -6.4672200748356068e-06 -2.8319687527946549e-05 0 -7.6896076328583143e-06 -2.8599171354483484e-05 0 -6.4672200748356068e-06 -2.8319687527946549e-05 0 -7.9992025764256277e-06 -2.6080064518655258e-05 0 -6.1067826177961217e-06 -2.9942409646675487e-05 0 -4.5515436949385666e-06 -3.1024545488747054e-05 0 -6.4672200748356068e-06 -2.8319687527946549e-05 0 -7.6896076328583143e-06 -2.8599171354483484e-05 0 -6.1067826177961217e-06 -2.9942409646675487e-05 0 -6.4672200748356068e-06 -2.8319687527946549e-05 0 -5.4402240691235745e-06 -2.6142832557180371e-05 0 -7.0532533075256238e-06 -2.5191652434800969e-05 0 -6.4672200748356068e-06 -2.8319687527946549e-05 0 -7.9992025764256277e-06 -2.6080064518655258e-05 0 -6.4672200748356068e-06 -2.8319687527946549e-05 0 -7.0532533075256238e-06 -2.5191652434800969e-05 0 -7.5827388007426204e-06 -2.2333764749310717e-05 0 -8.9640678226549892e-06 -2.3995529998199123e-05 0 -7.0532533075256238e-06 -2.5191652434800969e-05 0 -7.5827388007426204e-06 -2.2333764749310717e-05 0 -7.0532533075256238e-06 -2.5191652434800972e-05 0 -5.9074952034358309e-06 -2.2785603912097545e-05 0 -5.4402240691235745e-06 -2.6142832557180371e-05 0 -5.9074952034358309e-06 -2.2785603912097545e-05 0 -7.0532533075256238e-06 -2.5191652434800969e-05 0 -1.0393601264397034e-05 -2.3432012635566664e-05 0 -8.9640678226549892e-06 -2.3995529998199123e-05 0 -9.5596090571744939e-06 -2.1549776421306015e-05 0 -7.5827388007426204e-06 -2.2333764749310717e-05 0 -9.5596090571744939e-06 -2.1549776421306015e-05 0 -8.9640678226549892e-06 -2.3995529998199123e-05 0 -7.9992025764256277e-06 -2.6080064518655258e-05 0 -8.9640678226549892e-06 -2.3995529998199123e-05 0 -9.3343195148243757e-06 -2.5761937190933304e-05 0 -7.9992025764256277e-06 -2.6080064518655258e-05 0 -7.0532533075256238e-06 -2.5191652434800969e-05 0 -8.9640678226549892e-06 -2.3995529998199123e-05 0 -1.0393601264397034e-05 -2.3432012635566664e-05 0 -9.3343195148243757e-06 -2.5761937190933304e-05 0 -8.9640678226549892e-06 -2.3995529998199123e-05 0 -7.6896076328583143e-06 -2.8599171354483484e-05 0 -7.9992025764256277e-06 -2.6080064518655258e-05 0 -9.3343195148243757e-06 -2.5761937190933304e-05 0 -9.6202664036603259e-06 -2.7032016159659868e-05 0 -7.6896076328583143e-06 -2.8599171354483484e-05 0 -9.3343195148243757e-06 -2.5761937190933304e-05 0 -9.6202664036603259e-06 -2.7032016159659868e-05 0 -9.3343195148243757e-06 -2.5761937190933304e-05 0 -1.0714949376065183e-05 -2.4948788431219559e-05 0 -1.1656860714341776e-05 -2.5479731570741761e-05 0 -9.6202664036603259e-06 -2.7032016159659868e-05 0 -1.0714949376065183e-05 -2.4948788431219559e-05 0 -1.1656860714341776e-05 -2.5479731570741761e-05 0 -1.0714949376065183e-05 -2.4948788431219559e-05 0 -1.2465014334603557e-05 -2.2908642508415885e-05 0 -1.0393601264397034e-05 -2.3432012635566664e-05 0 -1.2465014334603559e-05 -2.2908642508415888e-05 0 -1.0714949376065183e-05 -2.4948788431219559e-05 0 -1.0393601264397034e-05 -2.3432012635566664e-05 0 -1.0714949376065183e-05 -2.4948788431219559e-05 0 -9.3343195148243757e-06 -2.5761937190933304e-05 0 -1.6076748938934663e-05 -2.277748492426182e-05 0 -1.3888611682466404e-05 -2.4053038982895845e-05 0 -1.428365496928214e-05 -2.2458376486070327e-05 0 -1.3888611682466404e-05 -2.4053038982895845e-05 0 -1.1656860714341776e-05 -2.5479731570741761e-05 0 -1.428365496928214e-05 -2.2458376486070327e-05 0 -1.1656860714341776e-05 -2.5479731570741761e-05 0 -1.2465014334603557e-05 -2.2908642508415888e-05 0 -1.428365496928214e-05 -2.2458376486070327e-05 0 -1.5611408155679932e-05 -2.0967568217638737e-05 0 -1.4283654969282139e-05 -2.2458376486070327e-05 0 -1.382433117286562e-05 -2.1209897107443615e-05 0 -1.2465014334603557e-05 -2.2908642508415885e-05 0 -1.382433117286562e-05 -2.1209897107443615e-05 0 -1.428365496928214e-05 -2.2458376486070327e-05 0 -1.382433117286562e-05 -2.1209897107443615e-05 0 -1.1882739854322374e-05 -2.132628558873259e-05 0 -1.3296061157238132e-05 -2.0004137855449512e-05 0 -1.3296061157238132e-05 -2.0004137855449512e-05 0 -1.4777985541546138e-05 -1.9949128384673733e-05 0 -1.382433117286562e-05 -2.1209897107443615e-05 0 -1.5611408155679932e-05 -2.0967568217638737e-05 0 -1.382433117286562e-05 -2.1209897107443615e-05 0 -1.4777985541546138e-05 -1.9949128384673733e-05 0 -1.0393601264397034e-05 -2.3432012635566664e-05 0 -1.1882739854322374e-05 -2.132628558873259e-05 0 -1.2465014334603557e-05 -2.2908642508415885e-05 0 -1.2465014334603557e-05 -2.2908642508415885e-05 0 -1.1882739854322374e-05 -2.132628558873259e-05 0 -1.382433117286562e-05 -2.1209897107443615e-05 0 -1.0393601264397034e-05 -2.3432012635566664e-05 0 -9.5596090571744939e-06 -2.1549776421306015e-05 0 -1.1882739854322374e-05 -2.132628558873259e-05 0 -1.0797517609254202e-05 -1.9965853998755443e-05 0 -1.1882739854322374e-05 -2.132628558873259e-05 0 -9.5596090571744939e-06 -2.1549776421306015e-05 0 -1.0797517609254202e-05 -1.9965853998755443e-05 0 -9.569186030678554e-06 -1.8485107610860984e-05 0 -1.1015973632877724e-05 -1.822294400982269e-05 0 -1.0797517609254202e-05 -1.9965853998755443e-05 0 -1.1015973632877724e-05 -1.822294400982269e-05 0 -1.2035871017555874e-05 -1.9681339244255036e-05 0 -1.2491132548220822e-05 -1.8313812453623725e-05 0 -1.2035871017555874e-05 -1.9681339244255036e-05 0 -1.1015973632877724e-05 -1.822294400982269e-05 0 -1.0797517609254202e-05 -1.9965853998755443e-05 0 -1.2035871017555874e-05 -1.9681339244255036e-05 0 -1.1882739854322374e-05 -2.132628558873259e-05 0 -1.3296061157238132e-05 -2.0004137855449512e-05 0 -1.2035871017555874e-05 -1.9681339244255036e-05 0 -1.2491132548220822e-05 -1.8313812453623725e-05 0 -1.3296061157238132e-05 -2.0004137855449512e-05 0 -1.1882739854322374e-05 -2.132628558873259e-05 0 -1.2035871017555874e-05 -1.9681339244255036e-05 0 -1.3296061157238132e-05 -2.0004137855449512e-05 0 -1.3778708105787728e-05 -1.8020840543441843e-05 0 -1.4777985541546138e-05 -1.9949128384673733e-05 0 -1.5090492567098433e-05 -1.8983878708783133e-05 0 -1.4777985541546138e-05 -1.9949128384673733e-05 0 -1.3778708105787728e-05 -1.8020840543441843e-05 0 -1.3296061157238132e-05 -2.0004137855449512e-05 0 -1.2491132548220822e-05 -1.8313812453623725e-05 0 -1.3778708105787728e-05 -1.8020840543441843e-05 0 -1.2969458077231597e-05 -1.6274255344254049e-05 0 -1.2491132548220822e-05 -1.8313812453623725e-05 0 -1.1301337780077775e-05 -1.6451941865691284e-05 0 -1.2969458077231597e-05 -1.6274255344254049e-05 0 -1.3778708105787728e-05 -1.8020840543441843e-05 0 -1.2491132548220822e-05 -1.8313812453623725e-05 0 -1.2969458077231597e-05 -1.6274255344254049e-05 0 -1.4863659011901625e-05 -1.7214450195157756e-05 0 -1.3778708105787728e-05 -1.8020840543441843e-05 0 -1.2969458077231597e-05 -1.6274255344254049e-05 0 -1.1301337780077775e-05 -1.6451941865691284e-05 0 -1.0918525679136505e-05 -1.4082489744954145e-05 0 -1.0918525679136505e-05 -1.4082489744954145e-05 0 -1.1301337780077775e-05 -1.6451941865691284e-05 0 -9.5479130176284626e-06 -1.4230938160584304e-05 0 -9.6988513096506245e-06 -1.6444100070405887e-05 0 -9.5479130176284626e-06 -1.4230938160584304e-05 0 -1.1301337780077775e-05 -1.6451941865691284e-05 0 -9.6988513096506245e-06 -1.6444100070405887e-05 0 -1.1301337780077775e-05 -1.6451941865691284e-05 0 -1.1015973632877724e-05 -1.822294400982269e-05 0 -9.6988513096506245e-06 -1.6444100070405887e-05 0 -1.1015973632877724e-05 -1.822294400982269e-05 0 -9.569186030678554e-06 -1.8485107610860984e-05 0 -1.2491132548220822e-05 -1.8313812453623725e-05 0 -1.1015973632877724e-05 -1.822294400982269e-05 0 -1.1301337780077775e-05 -1.6451941865691284e-05 0 -1.9709558858579345e-06 -5.3767342461538283e-05 0 -7.6445623817026183e-06 -4.9726237316573807e-05 0 -7.5703671605029426e-06 -5.7461388325984301e-05 0 -8.8464663449857395e-06 -3.1111964774155491e-05 0 -9.3428665926770596e-06 -3.6582265693001796e-05 0 -1.6639156926245183e-06 -4.5254172028542152e-05 0 -7.6445623817026183e-06 -4.9726237316573807e-05 0 -1.9709558858579345e-06 -5.3767342461538283e-05 0 -1.5922955079762718e-05 -1.6989228832463425e-05 0 -1.652389994996451e-05 -1.9217073642445365e-05 0 -1.4863659011901625e-05 -1.7214450195157756e-05 0 -1.5922955079762718e-05 -1.6989228832463425e-05 0 -1.4863659011901625e-05 -1.7214450195157756e-05 0 -1.4317797360543935e-05 -1.510646520054722e-05 0 -1.2969458077231597e-05 -1.6274255344254049e-05 0 -1.3553376749048736e-05 -1.5329550559530547e-05 0 -1.4863659011901625e-05 -1.7214450195157756e-05 0 -1.4863659011901625e-05 -1.7214450195157756e-05 0 -1.3553376749048736e-05 -1.5329550559530547e-05 0 -1.4317797360543935e-05 -1.510646520054722e-05 0 -1.5090492567098433e-05 -1.8983878708783133e-05 0 -1.3778708105787728e-05 -1.8020840543441843e-05 0 -1.4863659011901625e-05 -1.7214450195157756e-05 0 -1.652389994996451e-05 -1.9217073642445365e-05 0 -1.6028538475675324e-05 -1.918660074803442e-05 0 -1.4863659011901625e-05 -1.7214450195157756e-05 0 -1.5090492567098433e-05 -1.8983878708783133e-05 0 -1.4863659011901625e-05 -1.7214450195157756e-05 0 -1.6028538475675324e-05 -1.918660074803442e-05 0 -1.5090492567098433e-05 -1.8983878708783133e-05 0 -1.6028538475675324e-05 -1.918660074803442e-05 0 -1.6276961631363943e-05 -2.0269710793410318e-05 0 -1.5090492567098433e-05 -1.8983878708783133e-05 0 -1.6276961631363943e-05 -2.0269710793410318e-05 0 -1.4777985541546138e-05 -1.9949128384673733e-05 0 -1.695414363948965e-05 -2.0840996571305588e-05 0 -1.6276961631363943e-05 -2.0269710793410318e-05 0 -1.6028538475675324e-05 -1.918660074803442e-05 0 -1.695414363948965e-05 -2.0840996571305588e-05 0 -1.7181728782553609e-05 -2.1973554140260423e-05 0 -1.6276961631363943e-05 -2.0269710793410318e-05 0 -2.6597980545885209e-06 -6.2758862847005309e-05 0 -7.5703671605029426e-06 -5.7461388325984301e-05 0 -1.1872372421306035e-05 -6.4527836282218917e-05 0 -2.6597980545885209e-06 -6.2758862847005309e-05 0 -1.1872372421306036e-05 -6.4527836282218917e-05 0 -9.9868769320274047e-06 -7.2820222715187788e-05 0 -9.9383758300185536e-06 -4.1440629485360562e-05 0 -1.0617997144361759e-05 -4.729406419314815e-05 0 -1.652389994996451e-05 -1.9217073642445365e-05 0 -1.695414363948965e-05 -2.0840996571305588e-05 0 -1.6028538475675324e-05 -1.918660074803442e-05 0 -1.9709558858579345e-06 -5.3767342461538283e-05 0 -7.5703671605029426e-06 -5.7461388325984301e-05 0 -2.6597980545885209e-06 -6.2758862847005309e-05 0 -9.3428665926770596e-06 -3.6582265693001796e-05 0 -9.9383758300185536e-06 -4.1440629485360562e-05 0 -2.6597980545885209e-06 -6.2758862847005309e-05 0 -9.9868769320274047e-06 -7.2820222715187788e-05 0 -3.4416194150224159e-06 -7.1331140317939368e-05 0 -1.0617997144361759e-05 -4.729406419314815e-05 0 -1.0988630913798887e-05 -5.0708835882976357e-05 0 -1.7181728782553609e-05 -2.1973554140260423e-05 0 -1.7421960038411901e-05 -2.2576077493982096e-05 0 -1.6792277881720921e-05 -2.1198738337511626e-05 0 -3.4416194150224159e-06 -7.1331140317939368e-05 0 -9.9868769320274047e-06 -7.2820222715187788e-05 0 -4.3894449062156147e-06 -8.0429199138632639e-05 0 -4.3894449062156147e-06 -8.0429199138632639e-05 0 -9.9868769320274064e-06 -7.2820222715187788e-05 0 -1.1584312648766585e-05 -8.0543473060920505e-05 0 -1.5611408155679932e-05 -2.0967568217638737e-05 0 -1.4777985541546138e-05 -1.9949128384673733e-05 0 -1.6276961631363943e-05 -2.0269710793410318e-05 0 -1.5611408155679932e-05 -2.0967568217638737e-05 0 -1.6276961631363943e-05 -2.0269710793410318e-05 0 -1.6792277881720921e-05 -2.1198738337511626e-05 0 -1.7181728782553609e-05 -2.1973554140260423e-05 0 -1.6792277881720921e-05 -2.1198738337511626e-05 0 -1.6276961631363943e-05 -2.0269710793410318e-05 0 -1.5611408155679932e-05 -2.0967568217638737e-05 0 -1.6792277881720921e-05 -2.1198738337511626e-05 0 -1.6618244812874799e-05 -2.1567862120057071e-05 0 -1.5611408155679932e-05 -2.0967568217638737e-05 0 -1.6618244812874799e-05 -2.1567862120057071e-05 0 -1.428365496928214e-05 -2.2458376486070327e-05 0 -1.7421960038411901e-05 -2.2576077493982096e-05 0 -1.6618244812874799e-05 -2.1567862120057071e-05 0 -1.6792277881720921e-05 -2.1198738337511626e-05 0 -1.7354853460073379e-05 -2.3077301204361758e-05 0 -1.6618244812874799e-05 -2.1567862120057071e-05 0 -1.7421960038411901e-05 -2.2576077493982096e-05 0 -1.7354853460073379e-05 -2.3077301204361758e-05 0 -1.6076748938934663e-05 -2.277748492426182e-05 0 -1.6618244812874799e-05 -2.1567862120057071e-05 0 -1.6076748938934663e-05 -2.277748492426182e-05 0 -1.428365496928214e-05 -2.2458376486070327e-05 0 -1.6618244812874799e-05 -2.1567862120057071e-05 0 -4.3894449062156147e-06 -8.0429199138632639e-05 0 -1.1584312648766585e-05 -8.0543473060920505e-05 0 -8.8577473975087845e-06 -8.4765742425478184e-05 0 -1.0988630913798887e-05 -5.0708835882976357e-05 0 -1.2794300930249745e-05 -5.6101463058339039e-05 0 -4.9923603187489432e-06 -8.7562240381047871e-05 0 -4.3894449062156147e-06 -8.0429199138632639e-05 0 -8.8577473975087845e-06 -8.4765742425478184e-05 0 -4.9923603187489432e-06 -8.7562240381047871e-05 0 -8.8577473975087845e-06 -8.4765742425478184e-05 0 -1.0815449154587784e-05 -8.8488240996882536e-05 0 -1.0815449154587784e-05 -8.8488240996882536e-05 0 -8.8577473975087845e-06 -8.4765742425478184e-05 0 -1.3822641540226234e-05 -8.4991274447617301e-05 0 -1.6642888351319847e-05 -8.8100823407794056e-05 0 -1.0815449154587784e-05 -8.8488240996882536e-05 0 -1.3822641540226234e-05 -8.4991274447617301e-05 0 -1.1584312648766585e-05 -8.0543473060920505e-05 0 -1.7307584161803059e-05 -8.1774899385393736e-05 0 -1.3822641540226234e-05 -8.4991274447617301e-05 0 -1.1584312648766585e-05 -8.0543473060920505e-05 0 -1.3822641540226234e-05 -8.4991274447617301e-05 0 -8.8577473975087845e-06 -8.4765742425478184e-05 0 -1.6642888351319847e-05 -8.8100823407794056e-05 0 -1.3822641540226234e-05 -8.4991274447617301e-05 0 -1.7307584161803059e-05 -8.1774899385393736e-05 0 -2.2773028653091541e-05 -8.7683223640917817e-05 0 -1.7307584161803059e-05 -8.1774899385393736e-05 0 -2.2928003181005567e-05 -7.8767092394317024e-05 0 -2.2773028653091541e-05 -8.7683223640917817e-05 0 -2.2928003181005567e-05 -7.8767092394317024e-05 0 -2.8810622190189598e-05 -8.0944303997861473e-05 0 -2.2773028653091541e-05 -8.7683223640917817e-05 0 -1.6642888351319847e-05 -8.8100823407794056e-05 0 -1.7307584161803059e-05 -8.1774899385393736e-05 0 -1.6251977412430144e-05 -7.3893381588662421e-05 0 -2.2928003181005567e-05 -7.8767092394317024e-05 0 -1.7307584161803059e-05 -8.1774899385393736e-05 0 -1.6251977412430144e-05 -7.3893381588662421e-05 0 -2.3160548108884186e-05 -6.9700865362258752e-05 0 -2.2928003181005567e-05 -7.8767092394317024e-05 0 -2.9882572408578307e-05 -7.3133115581384774e-05 0 -2.2928003181005567e-05 -7.8767092394317024e-05 0 -2.3160548108884186e-05 -6.9700865362258752e-05 0 -1.6251977412430144e-05 -7.3893381588662421e-05 0 -1.8261755037485134e-05 -6.5465922519627825e-05 0 -2.3160548108884186e-05 -6.9700865362258752e-05 0 -1.6251977412430144e-05 -7.3893381588662421e-05 0 -9.9868769320274047e-06 -7.2820222715187788e-05 0 -1.1872372421306035e-05 -6.4527836282218917e-05 0 -1.6251977412430144e-05 -7.3893381588662421e-05 0 -1.1584312648766585e-05 -8.0543473060920505e-05 0 -9.9868769320274047e-06 -7.2820222715187788e-05 0 -1.6251977412430144e-05 -7.3893381588662421e-05 0 -1.7307584161803059e-05 -8.1774899385393736e-05 0 -1.1584312648766585e-05 -8.0543473060920505e-05 0 -4.3630602229330668e-05 -8.020775749622212e-05 0 -3.8762405366645991e-05 -8.3374681664220206e-05 0 -3.5453911626427553e-05 -7.9303497860456755e-05 0 -4.3608827858101434e-05 -8.7484015766466371e-05 0 -3.8762405366645991e-05 -8.3374681664220206e-05 0 -4.3630602229330668e-05 -8.020775749622212e-05 0 -4.3608827858101434e-05 -8.7484015766466371e-05 0 -3.6366158997543556e-05 -8.7458025019148146e-05 0 -3.8762405366645991e-05 -8.3374681664220206e-05 0 -3.6366158997543563e-05 -8.7458025019148159e-05 0 -3.2814663635828753e-05 -8.3786027018662509e-05 0 -3.8762405366645991e-05 -8.3374681664220206e-05 0 -3.5453911626427553e-05 -7.9303497860456755e-05 0 -3.8762405366645991e-05 -8.3374681664220206e-05 0 -3.2814663635828753e-05 -8.3786027018662509e-05 0 -3.5453911626427553e-05 -7.9303497860456755e-05 0 -3.2814663635828753e-05 -8.3786027018662509e-05 0 -2.8810622190189598e-05 -8.0944303997861473e-05 0 -2.9349309607360819e-05 -8.7449957134743515e-05 0 -2.8810622190189598e-05 -8.0944303997861473e-05 0 -3.2814663635828753e-05 -8.3786027018662509e-05 0 -3.6366158997543563e-05 -8.7458025019148159e-05 0 -2.9349309607360819e-05 -8.7449957134743515e-05 0 -3.2814663635828753e-05 -8.3786027018662509e-05 0 -2.9349309607360819e-05 -8.7449957134743515e-05 0 -2.2773028653091541e-05 -8.7683223640917817e-05 0 -2.8810622190189598e-05 -8.0944303997861473e-05 0 -2.9882572408578307e-05 -7.3133115581384774e-05 0 -2.8810622190189598e-05 -8.0944303997861473e-05 0 -2.2928003181005567e-05 -7.8767092394317024e-05 0 -2.9882572408578307e-05 -7.3133115581384774e-05 0 -2.3160548108884186e-05 -6.9700865362258752e-05 0 -2.7861745936229461e-05 -6.4014011634308372e-05 0 -2.9882572408578307e-05 -7.3133115581384774e-05 0 -3.435917122050834e-05 -6.5348439545866879e-05 0 -3.6843982800001625e-05 -7.2612778583777937e-05 0 -2.9882572408578307e-05 -7.3133115581384774e-05 0 -3.5453911626427553e-05 -7.9303497860456755e-05 0 -2.8810622190189598e-05 -8.0944303997861473e-05 0 -2.9882572408578307e-05 -7.3133115581384774e-05 0 -3.6843982800001625e-05 -7.2612778583777937e-05 0 -3.5453911626427553e-05 -7.9303497860456755e-05 0 -4.3630602229330668e-05 -8.020775749622212e-05 0 -3.5453911626427553e-05 -7.9303497860456755e-05 0 -3.6843982800001625e-05 -7.2612778583777937e-05 0 -4.3275202107618369e-05 -6.4708667662825557e-05 0 -4.3571828803903139e-05 -7.262308052620399e-05 0 -3.6843982800001625e-05 -7.2612778583777937e-05 0 -4.3571828803903139e-05 -7.262308052620399e-05 0 -4.3630602229330668e-05 -8.020775749622212e-05 0 -3.6843982800001625e-05 -7.2612778583777937e-05 0 -4.2586016058088488e-05 -5.6612061517920233e-05 0 -4.3275202107618376e-05 -6.4708667662825557e-05 0 -3.7427025261754012e-05 -5.9435761162188803e-05 0 -4.3275202107618369e-05 -6.4708667662825557e-05 0 -3.6843982800001625e-05 -7.2612778583777937e-05 0 -3.435917122050834e-05 -6.5348439545866879e-05 0 -3.1657331002781511e-05 -5.6474883244420299e-05 0 -3.7427025261754012e-05 -5.9435761162188803e-05 0 -3.435917122050834e-05 -6.5348439545866879e-05 0 -4.3275202107618369e-05 -6.4708667662825557e-05 0 -3.435917122050834e-05 -6.5348439545866879e-05 0 -3.7427025261754012e-05 -5.9435761162188803e-05 0 -3.1657331002781511e-05 -5.6474883244420299e-05 0 -3.4359171220508333e-05 -6.5348439545866892e-05 0 -2.7861745936229461e-05 -6.4014011634308372e-05 0 -2.9882572408578307e-05 -7.3133115581384774e-05 0 -2.7861745936229461e-05 -6.4014011634308372e-05 0 -3.435917122050834e-05 -6.5348439545866879e-05 0 -3.1657331002781511e-05 -5.6474883244420299e-05 0 -2.7861745936229461e-05 -6.4014011634308372e-05 0 -2.6263665702676786e-05 -5.6118119634766043e-05 0 -2.2332098419142111e-05 -6.0519407365677657e-05 0 -2.626366570267679e-05 -5.6118119634766043e-05 0 -2.7861745936229461e-05 -6.4014011634308372e-05 0 -3.1657331002781511e-05 -5.6474883244420299e-05 0 -2.6263665702676786e-05 -5.6118119634766043e-05 0 -2.8039801194069964e-05 -5.0817632441507555e-05 0 -2.6334349159675238e-05 -4.3481246550087108e-05 0 -2.8039801194069964e-05 -5.0817632441507555e-05 0 -2.2334918260385512e-05 -5.0943817080397269e-05 0 -2.2334918260385512e-05 -5.0943817080397269e-05 0 -2.8039801194069964e-05 -5.0817632441507555e-05 0 -2.6263665702676786e-05 -5.6118119634766043e-05 0 -3.1657331002781511e-05 -5.6474883244420299e-05 0 -2.8039801194069964e-05 -5.0817632441507555e-05 0 -3.3539392728803103e-05 -4.8438082523659191e-05 0 -3.1657331002781511e-05 -5.6474883244420299e-05 0 -3.733936530811283e-05 -5.3760909868102411e-05 0 -3.7427025261754012e-05 -5.9435761162188803e-05 0 -3.1657331002781511e-05 -5.6474883244420299e-05 0 -3.3539392728803103e-05 -4.8438082523659191e-05 0 -3.733936530811283e-05 -5.3760909868102411e-05 0 -4.1321095317977808e-05 -4.8458404047791673e-05 0 -3.733936530811283e-05 -5.3760909868102418e-05 0 -3.3539392728803103e-05 -4.8438082523659191e-05 0 -4.1321095317977808e-05 -4.8458404047791673e-05 0 -4.2586016058088488e-05 -5.6612061517920233e-05 0 -3.733936530811283e-05 -5.3760909868102411e-05 0 -4.2586016058088488e-05 -5.6612061517920233e-05 0 -3.7427025261754005e-05 -5.9435761162188803e-05 0 -3.733936530811283e-05 -5.3760909868102411e-05 0 -1.231365913073712e-05 -5.4756430016646195e-05 0 -1.7380319245159198e-05 -5.7898397361798725e-05 0 -1.1872372421306035e-05 -6.4527836282218917e-05 0 -1.1872372421306035e-05 -6.4527836282218917e-05 0 -1.7380319245159198e-05 -5.7898397361798725e-05 0 -1.8261755037485134e-05 -6.5465922519627825e-05 0 -1.231365913073712e-05 -5.4756430016646195e-05 0 -1.1872372421306036e-05 -6.4527836282218917e-05 0 -7.5703671605029426e-06 -5.7461388325984301e-05 0 -1.6251977412430144e-05 -7.3893381588662421e-05 0 -1.1872372421306035e-05 -6.4527836282218917e-05 0 -1.8261755037485134e-05 -6.5465922519627825e-05 0 -2.2332098419142111e-05 -6.0519407365677657e-05 0 -2.3160548108884186e-05 -6.9700865362258752e-05 0 -1.8261755037485134e-05 -6.5465922519627825e-05 0 -2.2332098419142111e-05 -6.0519407365677657e-05 0 -2.7861745936229461e-05 -6.4014011634308372e-05 0 -2.3160548108884186e-05 -6.9700865362258752e-05 0 -2.2332098419142111e-05 -6.0519407365677657e-05 0 -1.8261755037485134e-05 -6.5465922519627825e-05 0 -1.7380319245159198e-05 -5.7898397361798725e-05 0 -2.2334918260385512e-05 -5.0943817080397269e-05 0 -1.7380319245159198e-05 -5.7898397361798725e-05 0 -1.6639064839626748e-05 -4.96732878387411e-05 0 -2.2332098419142111e-05 -6.0519407365677657e-05 0 -1.7380319245159198e-05 -5.7898397361798725e-05 0 -2.2334918260385512e-05 -5.0943817080397269e-05 0 -2.2332098419142111e-05 -6.0519407365677657e-05 0 -2.2334918260385512e-05 -5.0943817080397269e-05 0 -2.6263665702676786e-05 -5.6118119634766043e-05 0 -2.2334918260385512e-05 -5.0943817080397269e-05 0 -1.6639064839626748e-05 -4.96732878387411e-05 0 -1.9365963203284827e-05 -4.3196856297931187e-05 0 -1.231365913073712e-05 -5.4756430016646195e-05 0 -1.2065827214000895e-05 -4.7759687161706566e-05 0 -1.6639064839626748e-05 -4.96732878387411e-05 0 -1.231365913073712e-05 -5.4756430016646195e-05 0 -1.6639064839626748e-05 -4.96732878387411e-05 0 -1.7380319245159198e-05 -5.7898397361798725e-05 0 -1.231365913073712e-05 -5.4756430016646195e-05 0 -7.5703671605029426e-06 -5.7461388325984301e-05 0 -7.6445623817026183e-06 -4.9726237316573807e-05 0 -1.231365913073712e-05 -5.4756430016646195e-05 0 -7.6445623817026183e-06 -4.9726237316573807e-05 0 -1.2065827214000895e-05 -4.7759687161706566e-05 0 -8.5215433368851377e-06 -4.2103611954997357e-05 0 -1.2065827214000895e-05 -4.7759687161706566e-05 0 -7.6445623817026183e-06 -4.9726237316573807e-05 0 -1.498693625664981e-05 -4.2668360126274706e-05 0 -1.2065827214000895e-05 -4.7759687161706566e-05 0 -8.5215433368851377e-06 -4.2103611954997357e-05 0 -1.498693625664981e-05 -4.2668360126274706e-05 0 -8.5215433368851377e-06 -4.210361195499735e-05 0 -1.1409054451686523e-05 -3.7332882688948451e-05 0 -8.5215433368851377e-06 -4.2103611954997357e-05 0 -7.0467707724048448e-06 -3.4602665210571541e-05 0 -1.1409054451686523e-05 -3.7332882688948451e-05 0 -1.498693625664981e-05 -4.2668360126274706e-05 0 -1.1409054451686523e-05 -3.7332882688948451e-05 0 -1.5474655533909556e-05 -3.6471799705103737e-05 0 -1.498693625664981e-05 -4.2668360126274706e-05 0 -1.6639064839626748e-05 -4.96732878387411e-05 0 -1.2065827214000895e-05 -4.7759687161706566e-05 0 -1.498693625664981e-05 -4.2668360126274706e-05 0 -1.9365963203284827e-05 -4.3196856297931187e-05 0 -1.6639064839626748e-05 -4.96732878387411e-05 0 -2.6334349159675238e-05 -4.3481246550087108e-05 0 -2.2334918260385512e-05 -5.0943817080397269e-05 0 -1.9365963203284827e-05 -4.3196856297931187e-05 0 -2.6334349159675238e-05 -4.3481246550087108e-05 0 -1.9365963203284827e-05 -4.3196856297931187e-05 0 -2.0517427883375077e-05 -3.6430034398787985e-05 0 -1.498693625664981e-05 -4.2668360126274706e-05 0 -1.5474655533909556e-05 -3.6471799705103737e-05 0 -1.9365963203284827e-05 -4.3196856297931187e-05 0 -2.0517427883375077e-05 -3.6430034398787985e-05 0 -1.9365963203284827e-05 -4.3196856297931187e-05 0 -1.5474655533909556e-05 -3.6471799705103737e-05 0 -2.0517427883375077e-05 -3.6430034398787985e-05 0 -1.5474655533909556e-05 -3.6471799705103737e-05 0 -1.4944152864321846e-05 -2.928892053548409e-05 0 -1.8763208207192958e-05 -2.7304074186972966e-05 0 -2.3171956740424172e-05 -3.2030804628201121e-05 0 -2.0517427883375077e-05 -3.6430034398787985e-05 0 -1.8763208207192958e-05 -2.7304074186972966e-05 0 -2.0517427883375077e-05 -3.6430034398787985e-05 0 -1.4944152864321846e-05 -2.928892053548409e-05 0 -1.0856532203685174e-05 -3.1025481772346459e-05 0 -9.8631212251491852e-06 -2.2752553338062245e-05 0 -1.4944152864321846e-05 -2.928892053548409e-05 0 -1.0856532203685174e-05 -3.1025481772346459e-05 0 -6.3487621425394729e-06 -2.6610147427911202e-05 0 -9.8631212251491852e-06 -2.2752553338062245e-05 0 -1.0856532203685174e-05 -3.1025481772346459e-05 0 -1.1409054451686521e-05 -3.7332882688948451e-05 0 -7.0467707724048448e-06 -3.4602665210571541e-05 0 -1.0856532203685174e-05 -3.1025481772346459e-05 0 -1.4944152864321846e-05 -2.928892053548409e-05 0 -1.5474655533909556e-05 -3.6471799705103737e-05 0 -1.0856532203685174e-05 -3.1025481772346459e-05 0 -1.5474655533909556e-05 -3.6471799705103737e-05 0 -1.1409054451686523e-05 -3.7332882688948451e-05 0 -3.9477640554906584e-05 -4.0604118530781476e-05 0 -3.6477994685561663e-05 -4.4463375994215252e-05 0 -3.1574182952988587e-05 -4.0056508499133667e-05 0 -3.9477640554906584e-05 -4.0604118530781476e-05 0 -3.1574182952988587e-05 -4.0056508499133667e-05 0 -3.293689385411951e-05 -3.4616826726947943e-05 0 -4.1321095317977808e-05 -4.8458404047791673e-05 0 -3.3539392728803103e-05 -4.8438082523659191e-05 0 -3.6477994685561663e-05 -4.4463375994215252e-05 0 -3.9477640554906584e-05 -4.0604118530781476e-05 0 -4.1321095317977808e-05 -4.8458404047791673e-05 0 -3.6477994685561663e-05 -4.4463375994215252e-05 0 -3.3539392728803103e-05 -4.8438082523659191e-05 0 -3.1574182952988587e-05 -4.0056508499133667e-05 0 -3.6477994685561663e-05 -4.4463375994215252e-05 0 -2.6334349159675238e-05 -4.3481246550087108e-05 0 -2.5612819710794649e-05 -3.6816155799466333e-05 0 -3.1574182952988587e-05 -4.0056508499133667e-05 0 -2.6334349159675238e-05 -4.3481246550087108e-05 0 -3.1574182952988587e-05 -4.0056508499133667e-05 0 -3.3539392728803103e-05 -4.8438082523659191e-05 0 -2.6334349159675238e-05 -4.3481246550087108e-05 0 -3.3539392728803103e-05 -4.8438082523659191e-05 0 -2.8039801194069964e-05 -5.0817632441507555e-05 0 -2.6334349159675238e-05 -4.3481246550087108e-05 0 -2.0517427883375077e-05 -3.6430034398787978e-05 0 -2.5612819710794649e-05 -3.6816155799466333e-05 0 -2.7876703598001563e-05 -3.2675751206255364e-05 0 -2.5612819710794649e-05 -3.6816155799466333e-05 0 -2.3171956740424172e-05 -3.2030804628201121e-05 0 -2.0517427883375077e-05 -3.6430034398787985e-05 0 -2.3171956740424172e-05 -3.2030804628201121e-05 0 -2.5612819710794649e-05 -3.6816155799466333e-05 0 -1.8763208207192958e-05 -2.7304074186972966e-05 0 -2.3263358356344332e-05 -2.7343572207859714e-05 0 -2.3171956740424172e-05 -3.2030804628201121e-05 0 -2.7876703598001563e-05 -3.2675751206255364e-05 0 -2.3171956740424172e-05 -3.2030804628201121e-05 0 -2.3263358356344332e-05 -2.7343572207859714e-05 0 -2.7876703598001563e-05 -3.2675751206255364e-05 0 -2.3263358356344332e-05 -2.7343572207859714e-05 0 -2.9629203068011859e-05 -2.813679589161583e-05 0 -2.7876703598001563e-05 -3.2675751206255364e-05 0 -3.1574182952988587e-05 -4.0056508499133667e-05 0 -2.5612819710794649e-05 -3.6816155799466333e-05 0 -2.7876703598001563e-05 -3.2675751206255364e-05 0 -3.293689385411951e-05 -3.4616826726947943e-05 0 -3.1574182952988587e-05 -4.0056508499133667e-05 0 -2.7876703598001563e-05 -3.2675751206255364e-05 0 -2.9629203068011859e-05 -2.813679589161583e-05 0 -3.293689385411951e-05 -3.4616826726947943e-05 0 -3.7168278185915236e-05 -3.3169041542664037e-05 0 -3.293689385411951e-05 -3.4616826726947943e-05 0 -2.9629203068011859e-05 -2.813679589161583e-05 0 -3.7168278185915236e-05 -3.3169041542664037e-05 0 -3.9477640554906584e-05 -4.0604118530781476e-05 0 -3.293689385411951e-05 -3.4616826726947943e-05 0 -3.1167649275519743e-05 -2.0437160145217905e-05 0 -3.4420862221075671e-05 -2.6420789987920215e-05 0 -2.8628936838231345e-05 -2.2471711058240014e-05 0 -3.4420862221075671e-05 -2.6420789987920215e-05 0 -3.7168278185915236e-05 -3.3169041542664037e-05 0 -2.9629203068011859e-05 -2.813679589161583e-05 0 -3.4420862221075671e-05 -2.6420789987920215e-05 0 -2.9629203068011859e-05 -2.813679589161583e-05 0 -2.8628936838231345e-05 -2.2471711058240014e-05 0 -2.4410986140461961e-05 -2.206863949460923e-05 0 -2.8628936838231345e-05 -2.2471711058240014e-05 0 -2.9629203068011859e-05 -2.813679589161583e-05 0 -2.4410986140461961e-05 -2.206863949460923e-05 0 -2.9629203068011859e-05 -2.813679589161583e-05 0 -2.3263358356344332e-05 -2.7343572207859714e-05 0 -1.8763208207192958e-05 -2.7304074186972966e-05 0 -2.0929529567274885e-05 -2.258861994704305e-05 0 -2.3263358356344332e-05 -2.7343572207859714e-05 0 -2.4410986140461961e-05 -2.206863949460923e-05 0 -2.3263358356344332e-05 -2.7343572207859714e-05 0 -2.0929529567274885e-05 -2.258861994704305e-05 0 -1.7066410704380656e-05 -1.9096315438126413e-05 0 -2.0688665292343777e-05 -1.8504044799715832e-05 0 -2.0929529567274885e-05 -2.258861994704305e-05 0 -2.4410986140461961e-05 -2.206863949460923e-05 0 -2.0929529567274885e-05 -2.258861994704305e-05 0 -2.0688665292343777e-05 -1.8504044799715832e-05 0 -1.7991579656606383e-05 -1.4064708744630731e-05 0 -2.3807961925778158e-05 -1.6439638298313652e-05 0 -2.0688665292343777e-05 -1.8504044799715832e-05 0 -1.7991579656606383e-05 -1.4064708744630731e-05 0 -1.8823842017508729e-05 -1.1696358818667774e-05 0 -2.3807961925778158e-05 -1.6439638298313652e-05 0 -2.4410986140461961e-05 -2.206863949460923e-05 0 -2.0688665292343777e-05 -1.8504044799715832e-05 0 -2.3807961925778158e-05 -1.6439638298313652e-05 0 -3.1167649275519743e-05 -2.0437160145217905e-05 0 -2.8628936838231345e-05 -2.2471711058240014e-05 0 -2.3807961925778158e-05 -1.6439638298313652e-05 0 -2.4410986140461961e-05 -2.206863949460923e-05 0 -2.3807961925778158e-05 -1.6439638298313652e-05 0 -2.8628936838231345e-05 -2.2471711058240014e-05 0 -2.7890795836149455e-05 -1.5427524708928565e-05 0 -3.1167649275519743e-05 -2.0437160145217905e-05 0 -2.3807961925778158e-05 -1.6439638298313652e-05 0 -1.2410379493965796e-05 -1.7144759801770807e-05 0 -1.4638771143036524e-05 -2.2858149864996762e-05 0 -9.8631212251491852e-06 -2.2752553338062245e-05 0 -1.2410379493965796e-05 -1.7144759801770807e-05 0 -9.8631212251491852e-06 -2.2752553338062245e-05 0 -8.3703028234049215e-06 -1.4981168739392033e-05 0 -9.8631212251491852e-06 -2.2752553338062245e-05 0 -1.4638771143036524e-05 -2.2858149864996762e-05 0 -1.4944152864321846e-05 -2.928892053548409e-05 0 -1.8763208207192958e-05 -2.7304074186972966e-05 0 -1.4944152864321846e-05 -2.9288920535484093e-05 0 -1.4638771143036524e-05 -2.2858149864996762e-05 0 -1.8763208207192958e-05 -2.7304074186972966e-05 0 -1.7066410704380656e-05 -1.9096315438126413e-05 0 -2.0929529567274885e-05 -2.258861994704305e-05 0 -1.8763208207192958e-05 -2.7304074186972966e-05 0 -1.4638771143036524e-05 -2.2858149864996762e-05 0 -1.7066410704380656e-05 -1.9096315438126413e-05 0 -1.2410379493965796e-05 -1.7144759801770807e-05 0 -1.7066410704380656e-05 -1.9096315438126413e-05 0 -1.4638771143036524e-05 -2.2858149864996762e-05 0 -1.2410379493965796e-05 -1.7144759801770807e-05 0 -1.4370049132473062e-05 -1.3808202818655949e-05 0 -1.7066410704380656e-05 -1.9096315438126413e-05 0 -1.7991579656606383e-05 -1.4064708744630731e-05 0 -2.0688665292343777e-05 -1.8504044799715832e-05 0 -1.7066410704380656e-05 -1.9096315438126413e-05 0 -1.7991579656606383e-05 -1.4064708744630731e-05 0 -1.4370049132473062e-05 -1.3808202818655949e-05 0 -1.5399151004100923e-05 -1.134187032916515e-05 0 -1.7991579656606383e-05 -1.4064708744630731e-05 0 -1.7066410704380656e-05 -1.9096315438126413e-05 0 -1.4370049132473062e-05 -1.3808202818655949e-05 0 -1.2410379493965796e-05 -1.7144759801770807e-05 0 -1.1286881390109042e-05 -1.2024044220257507e-05 0 -1.4370049132473062e-05 -1.3808202818655949e-05 0 -1.1286881390109042e-05 -1.2024044220257507e-05 0 -1.2410379493965796e-05 -1.7144759801770807e-05 0 -8.3703028234049215e-06 -1.4981168739392033e-05 0 -8.2443752880478772e-06 -9.9071057540984649e-06 0 -1.1286881390109042e-05 -1.2024044220257507e-05 0 -8.3703028234049215e-06 -1.4981168739392033e-05 0 -6.2447310239297814e-06 -8.2122386075276082e-06 0 -8.2443752880478772e-06 -9.9071057540984649e-06 0 -8.3703028234049215e-06 -1.4981168739392033e-05 0 -6.2447310239297814e-06 -8.2122386075276082e-06 0 -9.5520406981419723e-06 -7.0540990464069164e-06 0 -8.6080096793816075e-06 -6.2207708080168295e-06 0 -6.2447310239297814e-06 -8.2122386075276082e-06 0 -8.3703028234049215e-06 -1.4981168739392033e-05 0 -3.7517318451169399e-06 -1.6053938306087766e-05 0 -6.1483563153959222e-06 -8.1631866055493699e-06 0 -6.6003329900961693e-06 -1.1615701984895683e-05 0 -3.7517318451169399e-06 -1.6053938306087766e-05 0 -8.3703028234049215e-06 -1.4981168739392033e-05 0 -6.0408653723085506e-06 -1.9930816497873392e-05 0 -9.8631212251491852e-06 -2.2752553338062245e-05 0 -6.0408653723085506e-06 -1.9930816497873392e-05 0 -8.3703028234049215e-06 -1.4981168739392033e-05 0 -6.6003329900961693e-06 -1.1615701984895683e-05 0 -7.1092782984838766e-06 -1.5770845537629933e-05 0 -3.7517318451169399e-06 -1.6053938306087766e-05 0 -6.0408653723085506e-06 -1.9930816497873392e-05 0 -2.4212515295698082e-06 -2.2584639762792557e-05 0 -7.1092782984838766e-06 -1.5770845537629933e-05 0 -7.7483058203785521e-06 -2.0637077937053461e-05 0 -2.4212515295698082e-06 -2.2584639762792557e-05 0 -6.0408653723085506e-06 -1.9930816497873392e-05 0 -6.3487621425394729e-06 -2.6610147427911202e-05 0 -9.8631212251491852e-06 -2.2752553338062245e-05 0 -6.3487621425394729e-06 -2.6610147427911202e-05 0 -6.0408653723085506e-06 -1.9930816497873392e-05 0 -1.0295643098497134e-05 -7.9181439337674005e-06 0 -9.7122662543233166e-06 -6.6121696165182638e-06 0 -1.1528380320932569e-05 -9.1131707566270124e-06 0 -1.1809666881183988e-05 -8.9916299180830955e-06 0 -1.3653081376272052e-05 -1.1570670927897698e-05 0 -1.1528380320932569e-05 -9.1131707566270124e-06 0 -1.1809666881183988e-05 -8.9916299180830955e-06 0 -1.1528380320932569e-05 -9.1131707566270124e-06 0 -9.7122662543233166e-06 -6.6121696165182638e-06 0 -9.5520406981419723e-06 -7.0540990464069164e-06 0 -1.1809666881183988e-05 -8.9916299180830955e-06 0 -9.7122662543233166e-06 -6.6121696165182638e-06 0 -9.7122662543233166e-06 -6.6121696165182638e-06 0 -7.9741359176142964e-06 -4.6081758423936556e-06 0 -8.6080096793816075e-06 -6.2207708080168295e-06 0 -9.5520406981419723e-06 -7.0540990464069164e-06 0 -9.712266254323315e-06 -6.6121696165182638e-06 0 -8.6080096793816075e-06 -6.2207708080168295e-06 0 -6.2447310239297814e-06 -8.2122386075276082e-06 0 -8.6080096793816075e-06 -6.2207708080168295e-06 0 -7.3344728840372687e-06 -5.3908913466423297e-06 0 -8.6080096793816075e-06 -6.2207708080168295e-06 0 -7.9741359176142964e-06 -4.6081758423936556e-06 0 -7.3344728840372687e-06 -5.3908913466423297e-06 0 -7.9741359176142964e-06 -4.6081758423936556e-06 0 -9.7122662543233166e-06 -6.6121696165182638e-06 0 -8.9220060942097285e-06 -5.9588146786857305e-06 0 -7.9741359176142964e-06 -4.6081758423936556e-06 0 -8.9220060942097285e-06 -5.9588146786857305e-06 0 -7.0972969467430253e-06 -3.4775622410599378e-06 0 -7.9741359176142964e-06 -4.6081758423936556e-06 0 -7.0972969467430253e-06 -3.4775622410599378e-06 0 -6.1337289232885573e-06 -2.2740326126031983e-06 0 -5.1082832711101429e-06 -6.3445954166899097e-07 0 -7.0972969467430253e-06 -3.4775622410599378e-06 0 -5.7514856499030649e-06 -1.9192975040198882e-06 0 -5.1082832711101429e-06 -6.3445954166899097e-07 0 -6.1337289232885573e-06 -2.2740326126031983e-06 0 -7.0972969467430253e-06 -3.4775622410599378e-06 0 -6.8362360997692868e-06 -4.4138557482294818e-06 0 -5.7514856499030649e-06 -1.9192975040198882e-06 0 -7.0972969467430253e-06 -3.4775622410599378e-06 0 -6.8362360997692868e-06 -4.4138557482294818e-06 0 -7.8820895466104459e-06 -5.3270632820927109e-06 0 -7.9374415819987793e-06 -6.9641367491023556e-06 0 -6.8362360997692868e-06 -4.4138557482294818e-06 0 -7.0972969467430253e-06 -3.4775622410599378e-06 0 -7.8820895466104459e-06 -5.3270632820927109e-06 0 -8.8835398512378261e-06 -7.2584379874950836e-06 0 -7.8820895466104459e-06 -5.3270632820927101e-06 0 -8.9220060942097285e-06 -5.9588146786857305e-06 0 -7.0972969467430253e-06 -3.4775622410599378e-06 0 -8.9220060942097285e-06 -5.9588146786857305e-06 0 -7.8820895466104459e-06 -5.3270632820927109e-06 0 -8.8835398512378261e-06 -7.2584379874950836e-06 0 -7.9374415819987793e-06 -6.9641367491023556e-06 0 -7.8820895466104459e-06 -5.3270632820927109e-06 0 -1.0295643098497134e-05 -7.9181439337674005e-06 0 -8.9220060942097285e-06 -5.9588146786857305e-06 0 -9.7122662543233166e-06 -6.6121696165182638e-06 0 -8.8835398512378261e-06 -7.2584379874950836e-06 0 -8.9220060942097285e-06 -5.9588146786857305e-06 0 -1.0270899201216177e-05 -9.0900533654881668e-06 0 -1.0295643098497134e-05 -7.9181439337674005e-06 0 -1.0270899201216177e-05 -9.0900533654881668e-06 0 -8.9220060942097285e-06 -5.9588146786857305e-06 0 -1.0295643098497134e-05 -7.9181439337674005e-06 0 -1.1968790025447428e-05 -1.0667606925900187e-05 0 -1.0270899201216177e-05 -9.0900533654881668e-06 0 -1.0682281096689764e-05 -1.1599432677203218e-05 0 -9.2589040715073529e-06 -9.3038045282230493e-06 0 -1.0270899201216177e-05 -9.0900533654881668e-06 0 -1.0682281096689764e-05 -1.1599432677203218e-05 0 -1.0270899201216177e-05 -9.0900533654881668e-06 0 -1.1771871682646856e-05 -1.1684683851525822e-05 0 -1.1968790025447428e-05 -1.0667606925900187e-05 0 -1.1771871682646856e-05 -1.1684683851525822e-05 0 -1.0270899201216177e-05 -9.0900533654881668e-06 0 -8.0747516370740171e-06 -9.111477563469457e-06 0 -7.9374415819987793e-06 -6.9641367491023556e-06 0 -9.2589040715073529e-06 -9.3038045282230493e-06 0 -8.8835398512378261e-06 -7.2584379874950836e-06 0 -9.2589040715073529e-06 -9.3038045282230493e-06 0 -7.9374415819987793e-06 -6.9641367491023556e-06 0 -8.8835398512378261e-06 -7.2584379874950836e-06 0 -1.0270899201216177e-05 -9.0900533654881668e-06 0 -9.2589040715073529e-06 -9.3038045282230493e-06 0 -1.0682281096689764e-05 -1.1599432677203218e-05 0 -9.1690137754444317e-06 -1.1598071156975452e-05 0 -9.2589040715073529e-06 -9.3038045282230493e-06 0 -8.0747516370740171e-06 -9.111477563469457e-06 0 -9.2589040715073529e-06 -9.3038045282230493e-06 0 -9.1690137754444317e-06 -1.1598071156975452e-05 0 -8.0070791209052415e-06 -1.2744350332698046e-05 0 -9.1690137754444317e-06 -1.1598071156975452e-05 0 -9.5479130176284626e-06 -1.4230938160584304e-05 0 -1.0682281096689764e-05 -1.1599432677203218e-05 0 -1.0918525679136505e-05 -1.4082489744954145e-05 0 -9.1690137754444317e-06 -1.1598071156975452e-05 0 -1.0918525679136505e-05 -1.4082489744954145e-05 0 -9.5479130176284626e-06 -1.4230938160584304e-05 0 -9.1690137754444317e-06 -1.1598071156975452e-05 0 -1.3085598815181859e-05 -1.3780538410676e-05 0 -1.219333414897932e-05 -1.3930145435558684e-05 0 -1.1771871682646856e-05 -1.1684683851525822e-05 0 -1.0682281096689764e-05 -1.1599432677203218e-05 0 -1.219333414897932e-05 -1.3930145435558684e-05 0 -1.0918525679136505e-05 -1.4082489744954145e-05 0 -1.0682281096689764e-05 -1.1599432677203218e-05 0 -1.1771871682646856e-05 -1.1684683851525822e-05 0 -1.219333414897932e-05 -1.3930145435558684e-05 0 -1.2969458077231597e-05 -1.6274255344254049e-05 0 -1.0918525679136505e-05 -1.4082489744954143e-05 0 -1.219333414897932e-05 -1.3930145435558684e-05 0 -1.3085598815181859e-05 -1.3780538410676e-05 0 -1.3553376749048736e-05 -1.5329550559530547e-05 0 -1.219333414897932e-05 -1.3930145435558684e-05 0 -1.2969458077231597e-05 -1.6274255344254049e-05 0 -1.219333414897932e-05 -1.3930145435558684e-05 0 -1.3553376749048736e-05 -1.5329550559530547e-05 0 -1.3085598815181859e-05 -1.3780538410676e-05 0 -1.4317797360543935e-05 -1.510646520054722e-05 0 -1.3553376749048736e-05 -1.5329550559530547e-05 0 -1.3085598815181859e-05 -1.3780538410676e-05 0 -1.3420950234803219e-05 -1.2887175465036989e-05 0 -1.4317797360543935e-05 -1.510646520054722e-05 0 -1.3085598815181859e-05 -1.3780538410676e-05 0 -1.1771871682646856e-05 -1.1684683851525822e-05 0 -1.3420950234803219e-05 -1.2887175465036989e-05 0 -1.5006642078039698e-05 -1.4399386255852813e-05 0 -1.4317797360543935e-05 -1.510646520054722e-05 0 -1.3420950234803219e-05 -1.2887175465036989e-05 0 -1.6030604323511237e-06 -3.7199207183915634e-05 0 -8.5215433368851377e-06 -4.2103611954997357e-05 0 -1.6639156926245183e-06 -4.5254172028542152e-05 0 -8.3336458339295668e-06 -2.5813360598330575e-05 0 -8.8464663449857395e-06 -3.1111964774155491e-05 0 -1.5006642078039698e-05 -1.4399386255852813e-05 0 -1.5922955079762718e-05 -1.6989228832463425e-05 0 -1.4317797360543935e-05 -1.510646520054722e-05 0 -1.6639156926245183e-06 -4.5254172028542152e-05 0 -8.5215433368851377e-06 -4.2103611954997357e-05 0 -7.6445623817026183e-06 -4.9726237316573807e-05 0 -1.6030604323511237e-06 -3.7199207183915634e-05 0 -7.0467707724048448e-06 -3.4602665210571541e-05 0 -8.5215433368851377e-06 -4.2103611954997357e-05 0 -1.8312108737578873e-06 -2.9649703522303443e-05 0 -7.0467707724048448e-06 -3.4602665210571541e-05 0 -1.6030604323511237e-06 -3.7199207183915634e-05 0 -1.3653081376272052e-05 -1.1570670927897698e-05 0 -1.5006642078039698e-05 -1.4399386255852813e-05 0 -1.3420950234803219e-05 -1.2887175465036989e-05 0 -7.7483058203785521e-06 -2.0637077937053461e-05 0 -8.3336458339295668e-06 -2.5813360598330575e-05 0 -1.8312108737578873e-06 -2.9649703522303443e-05 0 -6.3487621425394729e-06 -2.6610147427911202e-05 0 -7.0467707724048448e-06 -3.4602665210571541e-05 0 -1.0856532203685174e-05 -3.1025481772346459e-05 0 -7.0467707724048448e-06 -3.4602665210571541e-05 0 -6.3487621425394729e-06 -2.6610147427911202e-05 0 -2.4212515295698082e-06 -2.2584639762792557e-05 0 -6.3487621425394729e-06 -2.6610147427911202e-05 0 -1.8312108737578873e-06 -2.9649703522303443e-05 0 -1.3653081376272052e-05 -1.1570670927897698e-05 0 -1.1968790025447428e-05 -1.0667606925900187e-05 0 -1.1528380320932569e-05 -9.1131707566270124e-06 0 -1.0295643098497134e-05 -7.9181439337674005e-06 0 -1.1528380320932571e-05 -9.1131707566270124e-06 0 -1.1968790025447428e-05 -1.0667606925900187e-05 0 -1.1968790025447428e-05 -1.0667606925900187e-05 0 -1.3420950234803219e-05 -1.2887175465036989e-05 0 -1.1771871682646856e-05 -1.1684683851525822e-05 0 -1.3653081376272052e-05 -1.1570670927897698e-05 0 -1.3420950234803219e-05 -1.2887175465036989e-05 0 -1.1968790025447428e-05 -1.0667606925900187e-05 0 
</DataArray>
</PointData>
<CellData Scalars="region_id,cross_section_updated,displacement_divergence," Vectors="" Tensors="stress,">
<DataArray type="Float64" Name="region_id" format="ascii">
1 1 1 1 1 1 1 1 1 1 1 1 1 1 1 1 1 1 1 1 1 1 1 1 1 1 1 1 1 1 1 1 1 1 1 1 1 1 1 1 1 1 1 1 1 1 1 1 1 1 1 1 1 1 1 1 1 1 1 1 1 1 1 1 1 1 1 1 1 1 1 1 1 1 1 1 1 1 1 1 1 1 1 1 1 1 1 1 1 1 1 1 1 1 1 1 1 1 1 1 1 1 1 1 1 1 1 1 1 1 1 1 1 1 1 1 1 1 1 1 1 1 1 1 1 1 1 1 1 1 1 1 1 1 1 1 1 1 1 1 1 1 1 1 1 1 1 1 1 1 1 1 1 1 1 1 1 1 1 1 1 1 1 1 1 1 1 1 1 1 1 1 1 1 1 1 1 1 1 1 1 1 1 1 1 1 1 1 1 1 1 1 1 1 1 1 1 1 1 1 1 1 1 1 1 1 1 1 1 1 1 1 1 1 1 1 1 1 1 1 1 1 1 1 1 1 1 1 1 1 1 1 1 1 1 1 1 1 1 1 1 1 1 1 1 1 1 1 1 1 1 1 1 1 1 1 1 1 1 1 1 1 1 1 1 1 1 1 1 1 1 1 1 1 1 1 1 1 1 1 1 1 1 1 1 1 1 1 1 1 1 1 1 1 1 1 1 1 1 1 1 1 1 1 1 1 1 1 1 1 1 1 1 1 1 1 1 1 1 1 1 1 1 1 1 1 1 1 1 1 1 1 1 1 1 1 1 1 1 1 1 1 1 1 1 1 1 1 1 1 1 1 1 1 1 1 1 1 1 1 1 1 1 1 1 1 1 1 1 1 1 1 1 1 1 1 1 1 1 1 1 1 1 1 1 1 1 1 1 1 1 1 1 1 1 1 1 1 1 1 1 1 1 1 1 1 1 1 1 1 1 1 1 1 1 1 1 1 1 1 1 1 1 1 1 1 1 1 1 1 1 1 1 1 1 1 1 1 1 1 1 1 1 1 1 1 1 1 1 1 1 1 1 1 1 1 1 1 1 1 1 1 1 1 1 1 1 1 1 1 1 1 1 1 1 1 1 1 1 1 1 1 1 1 1 1 1 1 1 1 1 1 1 1 1 1 1 1 1 1 1 1 1 1 1 1 1 1 1 1 1 1 1 1 1 1 1 1 1 1 1 1 1 1 1 1 1 1 1 1 1 1 1 1 1 1 1 1 3 1 1 3 1 1 3 1 1 1 1 1 1 1 1 1 1 1 1 1 3 1 1 1 1 1 3 1 1 1 1 1 1 1 1 1 1 1 1 1 1 1 1 1 1 1 1 1 1 1 1 1 1 1 1 1 1 1 1 1 1 1 1 1 1 1 1 1 1 1 1 1 1 1 1 1 1 1 1 1 1 1 1 1 1 1 1 1 1 1 1 1 1 1 1 1 1 1 1 1 1 1 1 1 1 1 1 1 1 1 1 1 1 1 1 1 1 1 1 1 1 1 1 1 1 1 1 1 1 1 1 1 1 1 1 1 1 1 1 1 1 1 1 1 1 1 1 1 1 1 1 1 1 1 1 1 1 1 1 1 1 1 1 1 1 1 1 1 1 1 1 1 1 1 1 1 1 1 1 1 1 1 1 1 1 1 1 1 1 1 1 1 1 1 1 3 1 1 1 3 1 1 3 1 1 1 1 1 1 1 1 1 1 1 3 1 1 1 1 3 1 1 1 1 1 1 1 1 1 1 1 1 1 1 1 1 1 1 1 1 1 1 1 1 1 1 1 1 1 1 1 1 1 1 1 1 1 1 1 1 1 1 1 1 1 1 1 1 1 1 1 1 1 1 1 1 1 1 2 1 1 1 1 1 1 1 1 1 1 1 1 1 1 2 1 1 2 1 2 1 1 1 1 1 1 1 1 1 1 1 1 1 2 1 1 1 1 1 1 1 1 1 1 1 1 1 1 1 1 1 1 1 1 1 1 1 1 1 1 1 1 1 1 1 1 1 1 1 1 1 1 1 1 1 1 1 1 1 1 1 1 1 1 1 1 1 1 1 1 1 1 1 1 1 1 1 1 1 1 1 1 1 1 1 1 1 1 1 1 1 1 1 1 1 1 1 1 1 1 1 1 1 1 1 1 1 1 1 1 1 1 1 1 1 1 1 1 1 1 1 1 1 1 1 1 1 1 1 1 1 1 1 1 1 1 1 1 1 1 1 1 1 1 1 1 1 1 1 1 2 1 1 2 1 2 1 1 1 1 1 1 1 1 1 1 1 1 1 1 1 1 1 1 1 1 1 1 1 1 1 1 1 1 1 1 1 1 1 1 1 1 1 1 1 1 1 1 1 1 1 1 1 2 1 1 1 1 1 2 1 1 1 1 1 1 1 
</DataArray>
<DataArray type="Float64" Name="stress" NumberOfComponents="9" format="ascii">
-0.05002501264722041 -0.0048303356236108208 0 -0.0048303356236108208 -0.0070084665690027682 0 0 0 -0.014258369804055791 -0.044400898776527031 -0.0046229040005492383 0 -0.0046229040005492383 -0.014773757092229353 0 0 0 -0.014793663967189098 -0.046892811139212204 -0.0023712936608290365 0 -0.0023712936608290365 -0.00039075091727514585 0 0 0 -0.011820890514121841 -0.041878049363329867 -0.0025048974566021782 0 -0.0025048974566021782 -0.0087432467243483986 0 0 0 -0.012655324021919562 -0.036537774677245213 0.00054766030820528296 0 0.00054766030820528296 -0.01218469183431325 0 0 0 -0.012180616627889619 -0.036533248507458725 0.00055237759621296534 0 0.00055237759621296534 -0.01216986972892134 0 0 0 -0.012175779559095014 -0.039170077751013735 0.0012025127415490741 0 0.0012025127415490741 -0.0048706069918912406 0 0 0 -0.011010171185726246 -0.040860256010048571 -0.00063905792921805412 0 -0.00063905792921805412 -0.0062072765453291354 0 0 0 -0.011766883138844424 -0.039158381741830561 0.0014971070906938944 0 0.0014971070906938944 -0.0057900569983344525 0 0 0 -0.011237109685041253 -0.034792985329927764 0.0026977049047746293 0 0.0026977049047746293 -0.0036797314741704706 0 0 0 -0.0096181792010245591 -0.041705499880449234 0.002620606451631622 0 0.002620606451631622 -0.0036925747481006601 0 0 0 -0.011349518657137476 -0.034722064493199853 0.0039083909672220623 0 0.0039083909672220623 -0.0013824871076789135 0 0 0 -0.009026137900219687 -0.045159239886784441 0.0026438468031776395 0 0.0026438468031776395 -0.001708671799694108 0 0 0 -0.011716977921619643 -0.040719001041700842 0.0024711346645463926 0 0.0024711346645463926 -0.0007328754832963808 0 0 0 -0.010362969131249308 -0.048219376406021967 0.001311518624904782 0 0.001311518624904782 -0.0010424428338282297 0 0 0 -0.01231545480996255 -0.045243245701303968 0.00070901973492805783 0 0.00070901973492805783 -0.00037061517751491198 0 0 0 -0.011403465219704725 -0.043763924273412164 0.0012719023416476989 0 0.0012719023416476989 0.00043480061210696066 0 0 0 -0.010832280915326301 -0.044975155824868079 0.001060896918935593 0 0.001060896918935593 -0.0031261905137114562 0 0 0 -0.012025336584644879 -0.023305827168801189 0.0040991783602073286 0 0.0040991783602073286 -0.0077666122482367202 0 0 0 -0.0077681098542594761 -0.025303210223343191 0.0051263931167238432 0 0.0051263931167238432 -0.0063978166574160528 0 0 0 -0.0079252567201898109 -0.027120640952081221 0.003433566601032668 0 0.003433566601032668 -0.0063837139143981102 0 0 0 -0.0083760887166198315 -0.031310533108812065 0.0038117333912545182 0 0.0038117333912545182 -0.0064176216386921028 0 0 0 -0.0094320386868760406 -0.031712085381291277 0.0030332986538666043 0 0.0030332986538666043 -0.0071464879418167886 0 0 0 -0.0097146433307770137 -0.027898020868817278 0.0043770484445654085 0 0.0043770484445654085 -0.0057252499545056438 0 0 0 -0.0084058177058307319 -0.027885951094990351 0.0033194413365531007 0 0.0033194413365531007 -0.0092980010203995173 0 0 0 -0.0092959880288474694 -0.03299873840642386 0.0042453583069513579 0 0.0042453583069513579 -0.0034893934782669212 0 0 0 -0.0091220329711726965 -0.034167897533014399 0.0032115609813539617 0 0.0032115609813539617 -0.0037565810474272905 0 0 0 -0.0094811196451104213 -0.031925605487946734 0.0032658804001584121 0 0.0032658804001584121 -0.0056991267958060449 0 0 0 -0.0094061830709381965 -0.026251584650729375 0.0037292917042404563 0 0.0037292917042404563 -0.004681767641441615 0 0 0 -0.0077333380730427448 -0.026185807102972539 0.0043493762475593743 0 0.0043493762475593743 -0.0042003127439411182 0 0 0 -0.0075965299617284134 -0.023142880784776745 0.0053493208363866104 0 0.0053493208363866104 -0.0050398947056430315 0 0 0 -0.0070456938726049453 -0.021593472790851678 0.0036513976730126576 0 0.0036513976730126576 -0.0057592765937311257 0 0 0 -0.0068381873461456997 -0.022068770859339143 0.0049950389603942488 0 0.0049950389603942488 -0.0037459088797398322 0 0 0 -0.0064536699347697447 -0.022630009208687487 0.0036433199606049956 0 0.0036433199606049956 -0.0033538310211566613 0 0 0 -0.0064959600574610388 -0.027222116836517554 0.0054033901540888806 0 0.0054033901540888806 -0.0027561014799907086 0 0 0 -0.0074945545791270662 -0.034239223068338084 0.0053307265963640476 0 0.0053307265963640476 -0.0022612999410307772 0 0 0 -0.0091251307523422167 -0.031788387168493921 0.0047673335599726632 0 0.0047673335599726632 -0.003263250436947608 0 0 0 -0.0087629094013603834 -0.028314583192651812 0.0041668142314014289 0 0.0041668142314014289 -0.0023055207663478117 0 0 0 -0.0076550259897498986 -0.03402088570765989 0.0044082323913596068 0 0.0044082323913596068 -0.00085847785704665312 0 0 0 -0.008719840891176639 -0.035659452156939643 0.0059299406857618473 0 0.0059299406857618473 -0.0014698703039680676 0 0 0 -0.0092823306152269303 -0.031417678658363882 0.0049803326304141346 0 0.0049803326304141346 -0.00082407773530751051 0 0 0 -0.008060439098417832 -0.028850343711192335 0.0064552326219591907 0 0.0064552326219591907 -0.00033249857608778563 0 0 0 -0.0072957105718200362 -0.028905925425792307 0.0045974049927919799 0 0.0045974049927919799 -0.00076965377862669732 0 0 0 -0.0074188948011047516 -0.023701617680443373 0.0041767051785587339 0 0.0041767051785587339 -0.0017201398433149802 0 0 0 -0.0063554393809395846 -0.028410447659242829 0.0059517529595773597 0 0.0059517529595773597 -0.0016551049801215752 0 0 0 -0.0075163881598410932 -0.026903798178364198 0.003986131048913228 0 0.003986131048913228 -0.0004109802949533311 0 0 0 -0.0068286946183293779 -0.019217180642527948 0.0040225825328879675 0 0.0040225825328879675 -0.0013225601958008772 0 0 0 -0.0051349352095822025 -0.02303321205497327 0.0049537822047022841 0 0.0049537822047022841 -0.0014854185793526861 0 0 0 -0.0061296576585814864 -0.04825498885330716 0.0017958976422620277 0 0.0017958976422620277 -0.00096507685463446784 0 0 0 -0.012305016426985411 -0.0437330568295261 0.0042519420434989378 0 0.0042519420434989378 -0.00022074227739366653 0 0 0 -0.010988449776729943 -0.05233780940552165 0.002365333217384448 0 0.002365333217384448 -0.00027571841033034034 0 0 0 -0.013153381953963006 -0.044733595119123719 0.002592635522529088 0 0.002592635522529088 0.00032770004923759468 0 0 0 -0.011101473767471535 -0.039345714514702264 0.0036882859047305625 0 0.0036882859047305625 -0.00028157026528531463 0 0 0 -0.009906821194996902 -0.040097777517130014 0.003916081996923503 0 0.003916081996923503 -0.0024080627077485324 0 0 0 -0.010626460056219641 -0.040291857353460636 0.0051180446519259589 0 0.0051180446519259589 -0.0015120061249312075 0 0 0 -0.010450965869597952 -0.042636060158614139 0.0033532383815700092 0 0.0033532383815700092 -0.00063585520263780351 0 0 0 -0.010817978840312985 -0.036403133705638073 0.0046506577725843167 0 0.0046506577725843167 -0.00068787510654693502 0 0 0 -0.0092727522030462469 -0.043445540224623026 0.0053976371505252366 0 0.0053976371505252366 -0.0010590858356220485 0 0 0 -0.011126156515061271 -0.038559129973970013 0.0045471043664259614 0 0.0045471043664259614 -0.00054582765202523809 0 0 0 -0.0097762394064988128 -0.042797629231175964 0.0043370990398371272 0 0.0043370990398371272 0.00028907490760445367 0 0 0 -0.010627138580892885 -0.050433422944839518 0.0035758991572628334 0 0.0035758991572628334 -0.00057834203495567976 0 0 0 -0.012752941244948796 -0.049045955511937897 0.0033861094299899655 0 0.0033861094299899655 -0.00075996494961417041 0 0 0 -0.012451480115388016 -0.048179476687758155 0.0021438896057647139 0 0.0021438896057647139 0.00022866713216534301 0 0 0 -0.011987702388898205 -0.056724631900496349 0.0025233961381593505 0 0.0025233961381593505 -0.00038741235840521887 0 0 0 -0.01427801106472538 -0.059386396391398789 0.0023238830070089964 0 0.0023238830070089964 -0.00031053111891616442 0 0 0 -0.014924231877578735 -0.049531568701821439 0.0028778466917242038 0 0.0028778466917242038 0.00072824617700517971 0 0 0 -0.012200830631204064 -0.053756366091840341 0.0021297054762084364 0 0.0021297054762084364 0.00042632098302797239 0 0 0 -0.013332511277203089 -0.065591256322056729 0.0017121171240482697 0 0.0017121171240482697 0.00070028605715824477 0 0 0 -0.016222742566224607 -0.055194545686516897 0.0045791713507224441 0 0.0045791713507224441 0.0010169326593560402 0 0 0 -0.013544403256790224 -0.054660792230230078 0.0013101843220007653 0 0.0013101843220007653 -0.00033525946921080657 0 0 0 -0.013749012924860228 -0.057221614263907344 0.0018737794003294353 0 0.0018737794003294353 0.0014186579636380481 0 0 0 -0.013950739075067331 -0.071348586628971505 0.00021244564918259024 0 0.00021244564918259024 -0.00044508342609472784 0 0 0 -0.017948417513766551 -0.041531059773179273 0.0024010365325939295 0 0.0024010365325939295 0.0020239434608241291 0 0 0 -0.0098767790780887946 -0.038355383268149509 0.0061078468400322349 0 0.0061078468400322349 0.0013057974264716957 0 0 0 -0.0092623964604194413 -0.046719150577872244 0.0042557705760545936 0 0.0042557705760545936 -6.4973646044325095e-05 0 0 0 -0.011696031055979127 -0.046428566657596676 0.0045877542243415587 0 0.0045877542243415587 0.00077503007433973869 0 0 0 -0.011413384145814238 -0.038369460884128515 0.0063926037395085518 0 0.0063926037395085518 0.00086392634530359225 0 0 0 -0.0093763836347062306 -0.050609890603684454 0.0059828525144139458 0 0.0059828525144139458 0.0011774557958103282 0 0 0 -0.012358108701968525 -0.04569001351078103 0.0040451917518206006 0 0.0040451917518206006 -0.00040821867953233504 0 0 0 -0.011524558047578362 -0.043599647868531932 0.0059217169504737818 0 0.0059217169504737818 0.00031053360978468151 0 0 0 -0.010822278564686812 -0.037476746330288066 0.0059908454946717791 0 0.0059908454946717791 -0.00031272941265852658 0 0 0 -0.009447368935736649 -0.031842657245616933 0.0058466187057824547 0 0.0058466187057824547 0.00015747969804299523 0 0 0 -0.0079212943868934779 -0.031855332758730551 0.0046475204065563255 0 0.0046475204065563255 7.5908330590358439e-05 0 0 0 -0.0079448561070350511 -0.030768499288317763 0.0044068793385118495 0 0.0044068793385118495 0.0014142667745346976 0 0 0 -0.0073385581284457508 -0.02641516033370073 0.0055996310421061023 0 0.0055996310421061023 0.00020584529959348508 0 0 0 -0.0065523287585268087 -0.038205423382877995 0.0049600031948400566 0 0.0049600031948400566 0.00047092990939977958 0 0 0 -0.0094336233683695401 -0.021988121396779015 0.0035044362380714741 0 0.0035044362380714741 0.0006646496225635695 0 0 0 -0.0053308679435538631 -0.023229539734300669 0.0055394835978267278 0 0.0055394835978267278 -0.00064303753351202877 0 0 0 -0.0059681443169531728 -0.025342808443382644 0.0034266499480243157 0 0.0034266499480243157 0.0016419829085160334 0 0 0 -0.0059252063837166571 -0.018441446047553912 0.0014459722203303696 0 0.0014459722203303696 0.0028465636246537834 0 0 0 -0.0038987206057250262 -0.020145817706699903 0.0046075327778494594 0 0.0046075327778494594 0.0011294687980077031 0 0 0 -0.0047540872271730587 -0.024275887591796119 0.003369619629305598 0 0.003369619629305598 0.0038069023132485946 0 0 0 -0.0051172463196368888 -0.016991969619084973 0.0021621383190681756 0 0.0021621383190681756 0.0039157612855755877 0 0 0 -0.0032690520833773429 -0.017723970298668779 0.00095037627738810658 0 0.00095037627738810658 0.0067917900753106525 0 0 0 -0.0027330450558395308 -0.031332081164402767 0.0060952304009639219 0 0.0060952304009639219 0.0010912652996825645 0 0 0 -0.0075602039661800506 -0.0350500375785349 0.0035500663768508883 0 0.0035500663768508883 0.0014677018232163858 0 0 0 -0.0083955839388296302 -0.024351650562281404 0.0041775974638980726 0 0.0041775974638980726 0.0015782900490939542 0 0 0 -0.0056933401282968522 -0.027720896048390384 0.0025893108101470337 0 0.0025893108101470337 0.0032782957948268576 0 0 0 -0.0061106500633908711 -0.030672478686940501 0.0056038346534484154 0 0.0056038346534484154 0.0032188586078897991 0 0 0 -0.0068634050197626771 -0.034694500711471427 0.0053036111351475665 0 0.0053036111351475665 0.0044528593468800282 0 0 0 -0.0075604103411478635 -0.029565048856615962 0.0025916812163771161 0 0.0025916812163771161 0.0094593447278620013 0 0 0 -0.0050264260321884816 -0.033500411294635546 0.00030125456706947551 0 0.00030125456706947551 0.004797065196067235 0 0 0 -0.0071758365246420734 -0.0089422000898720516 -0.0012772067460861247 0 -0.0012772067460861247 0.0083195526513565043 0 0 0 -0.00015566185962888335 -0.025792499072923348 0.0037267153573256676 0 0.0037267153573256676 0.0061684146596477675 0 0 0 -0.004906021103318896 -0.018676917489177124 0.00096608911612561243 0 0.00096608911612561243 0.006945737733610402 0 0 0 -0.0029327949388916925 -0.018211322096439518 0.00091188452646037005 0 0.00091188452646037005 0.011398291011588763 0 0 0 -0.0017032577712126767 -0.010478162789420773 -0.0032080951254325474 0 -0.0032080951254325474 0.012766146482077974 0 0 0 0.00057199592316429203 -0.019813125560477651 -0.00074815087698074795 0 -0.00074815087698074795 0.01829084083832451 0 0 0 -0.0003805711805382906 -0.020852086684167603 -0.0055227581752665678 0 -0.0055227581752665678 0.018966086894557699 0 0 0 -0.00047149994740244838 -0.01643035496086212 -0.0080765403468305436 0 -0.0080765403468305436 0.01480698406361422 0 0 0 -0.00040584272431197499 -0.011031704999012307 -0.0051816488343028599 0 -0.0051816488343028599 0.027924101942035817 0 0 0 0.0042230992357558811 -0.032504016694149776 -0.0024609526696764278 0 -0.0024609526696764278 0.011870293583322977 0 0 0 -0.0051584307777067101 -0.022915066006762901 -0.0015213892916977785 0 -0.0015213892916977785 0.0087058985665054711 0 0 0 -0.0035522918600643591 -0.024188121493180219 -0.0072285663170875147 0 -0.0072285663170875147 0.011004414897308856 0 0 0 -0.0032959266489678216 -0.034571467696099048 -0.00049801790948825198 0 -0.00049801790948825198 0.0060285400217926222 0 0 0 -0.0071357319185765961 -0.036642965573390918 -0.0057002010823712784 0 -0.0057002010823712784 0.0070458633021169836 0 0 0 -0.0073992755678184974 -0.044347275388203079 -0.0021947712191343755 0 -0.0021947712191343755 0.0046705443918227396 0 0 0 -0.0099191827490950762 -0.048276560925155268 0.001710188952765937 0 0.001710188952765937 0.0024459678035363974 0 0 0 -0.011457648280404714 -0.053211168015578278 -0.0046695671956528267 0 -0.0046695671956528267 0.0038507873887441701 0 0 0 -0.012340095156708572 -0.057945397806452921 0.00039205075735675166 0 0.00039205075735675166 0.00081133288146367777 0 0 0 -0.014283516231247302 -0.074284905612250013 -0.00037038318885756192 0 -0.00037038318885756192 0.0014425347381183395 0 0 0 -0.018210592718532884 -0.060046100360607334 0.0012807645855101302 0 0.0012807645855101302 0.0010867837450803108 0 0 0 -0.014739829153881799 -0.05896795524621519 -0.00086884388360736198 0 -0.00086884388360736198 0.0012900159347106616 0 0 0 -0.014419484827876193 -0.061332295048936669 -0.00021137050744948066 0 -0.00021137050744948066 -0.00030998040977381347 0 0 0 -0.015410568864677621 -0.054499778077268232 0.0040079287144440465 0 0.0040079287144440465 0.001214785193600576 0 0 0 -0.013321248220916904 -0.074254473110133265 0.001845430361630353 0 0.001845430361630353 0.00030060931644426692 0 0 0 -0.018488465948422281 -0.059590664981733273 0.003891398574737491 0 0.003891398574737491 0.0010476324734866593 0 0 0 -0.014635758127061613 -0.046783357691758405 0.0053334150854866674 0 0.0053334150854866674 0.0023889207193180662 0 0 0 -0.011098609243110076 -0.040679201518974931 0.0038122606036942314 0 0.0038122606036942314 0.0043018154657155361 0 0 0 -0.0090943465133148244 -0.048675838166347379 0.00060251619964098169 0 0.00060251619964098169 0.0022954000296596389 0 0 0 -0.011595109534171942 -0.017051251525693579 -0.0025863507822891556 0 -0.0025863507822891556 0.027564289486634565 0 0 0 0.0026282594902352456 -0.017114839738835954 -0.0034217272072482978 0 -0.0034217272072482978 0.02217647534856515 0 0 0 0.0012654089024322964 -0.016987456736912342 -0.0049200888007992598 0 -0.0049200888007992598 0.019232383214727373 0 0 0 0.00056123161945377184 -0.020141805857844176 -0.00046986691422643305 0 -0.00046986691422643305 0.023032971406375044 0 0 0 0.00072279138713271431 -0.017954500995675034 0.0035576984539327852 0 0.0035576984539327852 0.025276131495329271 0 0 0 0.0018304076249135597 -0.015760378614427972 0.0022362329323093021 0 0.0022362329323093021 0.031263561560317427 0 0 0 0.003875795736472361 -0.021289526572363302 -0.0019729898183645607 0 -0.0019729898183645607 0.029932013684537705 0 0 0 0.0021606217780436032 -0.021684002184683956 -0.001720741813003726 0 -0.001720741813003726 0.02929979664605185 0 0 0 0.0019039486153419778 -0.020369193646853544 -0.0020942806119105318 0 -0.0020942806119105318 0.029049113867654675 0 0 0 0.002169980055200282 -0.020888735359941561 -0.00178307998750535 0 -0.00178307998750535 0.028226719807548057 0 0 0 0.0018344961119016352 -0.025438014075602054 -0.0030129130095220211 0 -0.0030129130095220211 0.026726677062189265 0 0 0 0.00032216574664680267 -0.021934186697576834 -0.0039901695602792969 0 -0.0039901695602792969 0.028462544382153739 0 0 0 0.0016320894211442234 -0.021995155278475856 -0.0043973433417622242 0 -0.0043973433417622242 0.027393325507981341 0 0 0 0.0013495425573763729 -0.021425761027501239 -0.0071690049407272909 0 -0.0071690049407272909 0.028331719975130218 0 0 0 0.0017264897369072413 -0.024143955679792592 -0.00529021064070737 0 -0.00529021064070737 0.031714576277489637 0 0 0 0.0018926551494242716 -0.0019968522004856406 -0.025427959860659738 0 -0.025427959860659738 0.049413350966796839 0 0 0 0.011854124691577797 -0.026559337653870058 -0.014783305054289712 0 -0.014783305054289712 0.030245521046852492 0 0 0 0.00092154584824560848 -0.0026372550739205136 -0.016659739988379912 0 -0.016659739988379912 0.027819274906958097 0 0 0 0.0062955049582593889 -0.024962454238862414 -0.0071429175871824784 0 -0.0071429175871824784 0.028675844372271095 0 0 0 0.00092834753335216749 0.0013964465923065744 -0.0075235677001143919 0 -0.0075235677001143919 0.040611983002859786 0 0 0 0.010502107398791607 0.00025685258241911479 -0.010376738573346894 0 -0.010376738573346894 0.022058677917167979 0 0 0 0.0055788826248967943 0.012210683275465969 -0.01453180293875693 0 -0.01453180293875693 0.028714528639538717 0 0 0 0.010231302978751189 -0.0085293107087361514 -0.011173077414818017 0 -0.011173077414818017 0.021440745412279277 0 0 0 0.0032278586758857711 -0.010390583776179005 -0.0033070386590185741 0 -0.0033070386590185741 0.020016881582860885 0 0 0 0.0024065744516704665 0.00060110422138481834 -0.0073664354494853493 0 -0.0073664354494853493 0.016352010516502369 0 0 0 0.0042382786844718037 -0.011395607859596212 -0.0038241281192022657 0 -0.0038241281192022657 0.013210751959007692 0 0 0 0.00045378602485286442 -0.0086296043236035753 -0.0039449334265645036 0 -0.0039449334265645036 0.0093994189355629566 0 0 0 0.00019245365298984317 -0.015285921296424587 -0.0095885629053626686 0 -0.0095885629053626686 0.025138893055534184 0 0 0 0.0024632429397773992 -0.016766411084603208 -0.01016570096448058 0 -0.01016570096448058 0.017637951414249287 0 0 0 0.00021788508241152305 -0.0077901428848821466 -0.0089245301621665128 0 -0.0089245301621665128 0.020400766810336965 0 0 0 0.0031526559813637028 -0.014806507419935225 -0.0048648508506805785 0 -0.0048648508506805785 0.010340539116083312 0 0 0 -0.0011164920759629791 -0.01240481997471455 -0.0049463874783927863 0 -0.0049463874783927863 0.019582999740688493 0 0 0 0.0017945449414934825 -0.01165155257974922 -0.0039320068552361441 0 -0.0039320068552361441 0.011840147686684382 0 0 0 4.7148776733795666e-05 -0.012134491441231739 0.00011109734172598529 0 0.00011109734172598529 0.01019726433598216 0 0 0 -0.00048430677631239143 -0.012205937233322826 -0.00089777720295031345 0 -0.00089777720295031345 0.005180086076266209 0 0 0 -0.0017564627892641595 -0.01323836663276208 -0.0024208900960026591 0 -0.0024208900960026591 0.0093616597924737754 0 0 0 -0.0009691767100720762 -0.011996726385684719 -0.0023644697086439535 0 -0.0023644697086439535 0.0068841085389337517 0 0 0 -0.0012781544616877402 -0.013189328928110628 0.00039288279540191078 0 0.00039288279540191078 0.0078248752817880393 0 0 0 -0.0013411134115806425 -0.016590844527799738 0.0023835487597833136 0 0.0023835487597833136 0.0043528926258888665 0 0 0 -0.0030594879754777139 -0.013929494951342249 -8.6511640079996871e-05 0 -8.6511640079996871e-05 0.0036930259745009816 0 0 0 -0.0025591172442103131 -0.014967782981827344 0.002944487540678292 0 0.002944487540678292 0.0029290354793373684 0 0 0 -0.0030096868756224965 -0.016395356174093493 0.0021232593899805658 0 0.0021232593899805658 0.00073159230527053854 0 0 0 -0.0039159409672057353 -0.018510837672182423 0.0043945192886233686 0 0.0043945192886233686 0.00070839458983025863 0 0 0 -0.0044506107705880428 -0.012960983045781789 0.00025674891329178443 0 0.00025674891329178443 0.0063153549840519255 0 0 0 -0.0016614070154324623 -0.012636236722262625 -0.00061645791467093887 0 -0.00061645791467093887 0.0054401915462913893 0 0 0 -0.0017990112939928057 -0.013240063200658299 0.001669412267238257 0 0.001669412267238257 0.004734805034170694 0 0 0 -0.0021263145416218999 -0.013679120535747749 0.0012317986126677985 0 0.0012317986126677985 0.003167139211037286 0 0 0 -0.0026279953311776185 -0.012121186416499863 0.00069398740693332956 0 0.00069398740693332956 0.0070323565355849861 0 0 0 -0.0012722074702287219 -0.010785030277200991 0.0032505725002108846 0 0.0032505725002108846 0.003759647589181939 0 0 0 -0.0017563456720047633 -0.0086780549360633875 0.0039112733710315473 0 0.0039112733710315473 0.0073235309515690726 0 0 0 -0.00033863099612358111 -0.0091531723122620506 0.0040008089134277742 0 0.0040008089134277742 0.0052289274150645777 0 0 0 -0.00098106122429936823 -0.011891458580272735 0.0013167303014460846 0 0.0013167303014460846 0.0082517596646413116 0 0 0 -0.00090992472890785714 -0.011101642761236446 0.00090562579414434595 0 0.00090562579414434595 0.012054902235864111 0 0 0 0.00023831486865691582 -0.014292578410078475 -5.8365005473756323e-05 0 -5.8365005473756323e-05 0.010407425977893094 0 0 0 -0.00097128810804633517 -0.011811872374124826 0.00068240720794266688 0 0.00068240720794266688 0.017660261880564188 0 0 0 0.0014620973766098432 -0.010482229487803203 0.0029345319956059516 0 0.0029345319956059516 0.013062332010332292 0 0 0 0.00064502563063227256 -0.016650189633822365 -0.00018278389419160157 0 -0.00018278389419160157 0.015735000651758334 0 0 0 -0.00022879724551601137 -0.01395411166286612 -0.0016632610717375942 0 -0.0016632610717375942 0.022367468739338404 0 0 0 0.0021033392691180717 -0.015633731625852701 -0.0029904659718249225 0 -0.0029904659718249225 0.01435578252553899 0 0 0 -0.00031948727507841949 -0.010840735273793246 0.0057460250693819118 0 0.0057460250693819118 0.028507690055595749 0 0 0 0.0044167386954506232 -0.015584019882151599 0.0031875673744247036 0 0.0031875673744247036 0.018344030581752824 0 0 0 0.0006900026749003061 -0.012958802930649129 0.001744151518670297 0 0.001744151518670297 0.024909422789076301 0 0 0 0.0029876549646067931 -0.010853001497656924 0.0035830442105529211 0 0.0035830442105529211 0.013088247323976294 0 0 0 0.00055881145657984618 -0.0098136240580089067 0.0062202584755912949 0 0.0062202584755912949 0.017192234684487093 0 0 0 0.0018446526566195448 -0.0087867259876295289 0.0055797389580912547 0 0.0055797389580912547 0.019234770856059662 0 0 0 0.0026120112171075351 -0.0074924730717196714 0.0059425178819327417 0 0.0059425178819327417 0.0080269919735062867 0 0 0 0.00013362972544665556 -0.0066942058476799175 0.0058019556438147386 0 0.0058019556438147386 0.01067938523976911 0 0 0 0.00099629484802229648 -0.0034255915462854808 0.0072222314748865719 0 0.0072222314748865719 0.0065742187555017581 0 0 0 0.00078715680230406759 -0.0035622698290636579 0.0061519406687962751 0 0.0061519406687962751 0.0024621695238787634 0 0 0 -0.00027502507629622273 -0.0059913719889906243 0.0045670258461377334 0 0.0045670258461377334 -0.0011685411534875373 0 0 0 -0.001789978285619543 -0.0064360635202708382 0.0055825360935653177 0 0.0055825360935653177 0.0039402374608758766 0 0 0 -0.00062395651484874019 -0.0062533546620699102 0.0051510367544163977 0 0.0051510367544163977 0.0029173138737595625 0 0 0 -0.00083401019707758824 -0.010564071647658501 0.002666587677987331 0 0.002666587677987331 0.0031278103975226484 0 0 0 -0.0018590653125339597 -0.0093195315548787287 0.0038575479613595968 0 0.0038575479613595968 -2.9580751139401951e-05 0 0 0 -0.0023372780765045335 -0.0078776807165052299 0.0044820836934254859 0 0.0044820836934254859 0.0010150180398862899 0 0 0 -0.0017156656691547346 -0.0072943572285583715 0.0047028316424267335 0 0.0047028316424267335 0.0025861316811039321 0 0 0 -0.0011770563868636098 -0.0066278800366294868 0.0040277850124227441 0 0.0040277850124227441 -0.0026130443970852745 0 0 0 -0.0023102311084286908 -0.0065430917664472859 0.0045868185859527649 0 0.0045868185859527649 -0.0023184961685483504 0 0 0 -0.0022153969837489084 -0.0092807404830905146 0.0039249920518267499 0 0.0039249920518267499 -0.0032066280216445781 0 0 0 -0.0031218421261837723 -0.0040393368564074009 0.0045204841395770721 0 0.0045204841395770721 -0.0034675899638512454 0 0 0 -0.0018767317050646624 -0.0045673669279700062 0.0037053871345391412 0 0.0037053871345391412 -0.0047650903229886164 0 0 0 -0.0023331143127396561 -0.0020577724049470909 0.0046907319985190991 0 0.0046907319985190991 -0.0030634882905671151 0 0 0 -0.0012803151738785511 -0.0041392813547544323 0.0042495172862278144 0 0.0042495172862278144 -0.0034901512004736311 0 0 0 -0.0019073581388070159 -0.0047429020202855122 0.0049420274855217763 0 0.0049420274855217763 -0.00083743142339102669 0 0 0 -0.0013950833609191358 -0.018615808272191461 0.0039519681906093375 0 0.0039519681906093375 0.00095888895283117483 0 0 0 -0.0044142298298400747 -0.015142158409785752 0.0034772940263727774 0 0.0034772940263727774 -0.0012271447148649336 0 0 0 -0.0040923257811626684 -0.018294899063331191 0.004170926793856073 0 0.004170926793856073 -0.0014500463281374399 0 0 0 -0.0049362363478671571 -0.013044154058861068 0.0032943708077755483 0 0.0032943708077755483 -0.0022924478289256187 0 0 0 -0.003834150471946675 -0.014372666318099791 0.0036901675568935606 0 0.0036901675568935606 0.0011294468903516423 0 0 0 -0.003310804856937034 -0.0127952006876954 0.0035717552549249876 0 0.0035717552549249876 0.0010252344887742015 0 0 0 -0.0029424915497302945 -0.012104286545837449 0.0024146138224284729 0 0.0024146138224284729 0.00046449005851536499 0 0 0 -0.0029099491218305194 -0.011200526576614789 0.0043000811397036019 0 0.0043000811397036019 0.0015865686112588213 0 0 0 -0.0024034894913389946 -0.010236930981402001 0.0033542252016678779 0 0.0033542252016678779 -0.001994724400626589 0 0 0 -0.0030579138455071458 -0.01186868966604699 0.0032556746400422588 0 0.0032556746400422588 -0.0022285447194406848 0 0 0 -0.0035243085963719166 -0.0092922941155856292 0.0044735924510974539 0 0.0044735924510974539 -0.0032742367459038767 0 0 0 -0.0031416327153723743 -0.013157093400091573 0.004455678867469906 0 0.004455678867469906 -0.0012558933737273773 0 0 0 -0.0036032466934547381 -0.013998304561080963 0.0039300814931967944 0 0.0039300814931967944 -0.002736389400462131 0 0 0 -0.0041836734903857725 -0.017614300360461754 0.0037942502621296764 0 0.0037942502621296764 -0.0033065454206124036 0 0 0 -0.005230211445268535 -0.018112624511885448 0.0048336426334584731 0 0.0048336426334584731 -0.0031272567237040569 0 0 0 -0.0053099703088973762 -0.018481388670492288 0.00422950692933966 0 0.00422950692933966 -0.0023439074226050925 0 0 0 -0.0052063240232743451 -0.021581708582640656 0.0049043558006975334 0 0.0049043558006975334 -0.0027707928337453985 0 0 0 -0.0060881253540965149 -0.018596575944358699 0.005186880557112891 0 0.005186880557112891 -0.0047569476858488093 0 0 0 -0.0058383809075518789 -0.022016667525127955 0.0043936026503504444 0 0.0043936026503504444 -0.0034556826260044131 0 0 0 -0.0063680875377830929 -0.018946777534349271 0.0037540209136300634 0 0.0037540209136300634 -0.0049669574120558904 0 0 0 -0.0059784337366012913 -0.015164545238299626 0.0049508173316363709 0 0.0049508173316363709 -0.0035551366686646796 0 0 0 -0.004679920476741076 -0.015655584566117365 0.0039098855331700863 0 0.0039098855331700863 -0.0055068764881022539 0 0 0 -0.0052906152635549056 -0.014039666431453629 0.0050713074776561617 0 0.0050713074776561617 -0.0044347159613411045 0 0 0 -0.0046185955981986847 -0.012819402045790906 0.0036302777500084957 0 0.0036302777500084957 -0.0045862300346495924 0 0 0 -0.0043514080201101247 -0.012099710783994633 0.0042271481716099259 0 0.0042271481716099259 -0.00373634193931182 0 0 0 -0.0039590131808266149 -0.0090341693202214551 0.0045507394429522736 0 0.0045507394429522736 -0.0047165541387448971 0 0 0 -0.0034376808647415872 -0.011792753768285152 0.0038246582760497888 0 0.0038246582760497888 -0.0043749410571127254 0 0 0 -0.0040419237063494713 -0.012426300026133916 0.0053886159349726551 0 0.0053886159349726551 -0.0048815457738582268 0 0 0 -0.0043269614499980352 -0.0138462877157419 0.0044021453572800915 0 0.0044021453572800915 -0.0046152860632628035 0 0 0 -0.0046153934447511757 -0.016288833046580256 0.0058174322684099479 0 0.0058174322684099479 -0.0053872010571280327 0 0 0 -0.0054190085259270713 -0.018433830098585954 0.0043855084098337544 0 0.0043855084098337544 -0.0061449487031240823 0 0 0 -0.0061446947004275103 -0.020562839697233933 0.0058255477019510272 0 0.0058255477019510272 -0.0061091621372909924 0 0 0 -0.0066680004586312314 -0.0045994493614789928 0.0033396292308060602 0 0.0033396292308060602 -0.0046077721377597511 0 0 0 -0.0023018053748096868 -0.0036824428401278511 0.0038546933353630053 0 0.0038546933353630053 -0.0045698788617732598 0 0 0 -0.0020630804254752775 -0.0064558172746765063 0.0039710433440047158 0 0.0039710433440047158 -0.0043223701701862252 0 0 0 -0.0026945468612156829 -0.0063775023601466835 0.004133569768350426 0 0.004133569768350426 -0.0042760960203624462 0 0 0 -0.0026633995951272811 -0.0088195012362479383 0.0038506347842445976 0 0.0038506347842445976 -0.0043342654246511314 0 0 0 -0.0032884416652247672 -0.0068536995456249779 0.0038776790443139073 0 0.0038776790443139073 -0.0043776217384632506 0 0 0 -0.0028078303210220569 -0.0097840435371130147 0.0040691589578328389 0 0.0040691589578328389 -0.003262821985172647 0 0 0 -0.0032617163805714155 -0.0094328075485849427 0.0047591932537653396 0 0.0047591932537653396 -0.0040147098488466475 0 0 0 -0.0033618793493578976 -0.0073324790534028397 0.0037288133368632327 0 0.0037288133368632327 -0.002444685215512974 0 0 0 -0.0024442910672289532 -0.0069441763732208395 0.0038388073635417142 0 0.0038388073635417142 -0.0038884596753528781 0 0 0 -0.0027081590121434285 -0.0044102914717293676 0.0028456132798518334 0 0.0028456132798518334 -0.003714494954658744 0 0 0 -0.0020311966065970281 -0.0056903527262676772 0.003500666886427584 0 0.003500666886427584 -0.0048653279097859038 0 0 0 -0.0026389201590133952 -0.0063802039760154552 0.0032043762180373769 0 0.0032043762180373769 -0.0037925309625086419 0 0 0 -0.0025431837346310241 -0.0057991343985624132 0.0031219126906129125 0 0.0031219126906129125 -0.0019335603954998509 0 0 0 -0.0019331736985155655 -0.005008757014177476 0.0021350094312977317 0 0.0021350094312977317 -0.0046211373019780042 0 0 0 -0.0024074735790388705 -0.0039068240326198414 0.0012662397419876952 0 0.0012662397419876952 -0.0013056243465542328 0 0 0 -0.0013031120947935185 -0.0054830596715917572 0.0006056061843978432 0 0.0006056061843978432 -0.0054969693781390504 0 0 0 -0.0027450072624327017 -0.0030009571233983248 0.00088103747933652933 0 0.00088103747933652933 -0.00462845036044752 0 0 0 -0.0019073518709614612 -0.0029624365533305295 0.0019301736389380974 0 0.0019301736389380974 -0.0047892380376241116 0 0 0 -0.0019379186477386616 -0.0026905476977194713 0.0025848673311565026 0 0.0025848673311565026 -0.0054252075051263735 0 0 0 -0.0020289388007114612 -0.0035631296647186655 0.0014985559862703086 0 0.0014985559862703086 -0.0064514783220958006 0 0 0 -0.0025036519967036167 -0.0014663036433120505 0.0019922200012392035 0 0.0019922200012392035 -0.0055496967253792296 0 0 0 -0.0017540000921728194 -0.0027178638040678592 0.002471384304698814 0 0.002471384304698814 -0.0063223754886820279 0 0 0 -0.0022600598231874713 -0.0024320258504967282 0.00093052850325133743 0 0.00093052850325133743 -0.0080185551728314229 0 0 0 -0.0026126452558320372 -0.0043625334328984055 -0.0013444456712466929 0 -0.0013444456712466929 -0.0087795795787458317 0 0 0 -0.0032855282529110595 -0.0031857520549067419 0.00016790226363316732 0 0.00016790226363316732 -0.0064262594374682215 0 0 0 -0.002403002873093741 -0.0038250762038334854 9.8035461208374259e-05 0 9.8035461208374259e-05 -0.0065138726744398238 0 0 0 -0.0025847372195683272 -0.0045219735328637326 -0.00014362557106581994 0 -0.00014362557106581994 -0.0015063534710350874 0 0 0 -0.0015070817509747051 -0.0053519565591096168 -0.0013924848874429594 0 -0.0013924848874429594 -0.0017885593624291411 0 0 0 -0.0017851289803846899 -0.0063566440051701688 -0.0013429996201536026 0 -0.0013429996201536026 -0.0053629159106182156 0 0 0 -0.0029298899789470959 -0.0092906136168545202 -0.003330917476011535 0 -0.003330917476011535 -0.0030980856746107444 0 0 0 -0.0030971748228663157 -0.005796646651587526 -0.0015316162953096023 0 -0.0015316162953096023 -0.0059284630069368436 0 0 0 -0.0029312774146310915 -0.0093991319256819736 -0.0036841199593891298 0 -0.0036841199593891298 -0.007456560861475928 0 0 0 -0.0042139231967894758 -0.016271320815667647 -0.0050034419811623146 0 -0.0050034419811623146 -0.0054263568988612825 0 0 0 -0.0054244194286322328 -0.014645583852286141 -0.006347182729718218 0 -0.006347182729718218 -0.0088952761220189996 0 0 0 -0.0058852149935762852 -0.021185378786559978 -0.0080871504382450145 0 -0.0080871504382450145 -0.0096332028617883009 0 0 0 -0.0077046454120870697 -0.015648551782784702 -0.0062575165664704255 0 -0.0062575165664704255 -0.010415953143710391 0 0 0 -0.0065161262316237728 -0.014011130781373723 -0.0042390029175861862 0 -0.0042390029175861862 -0.0089560478763545601 0 0 0 -0.0057417946644320698 -0.01035039019707797 -0.003288852812548388 0 -0.003288852812548388 -0.0079463512767084278 0 0 0 -0.0045741853684465985 -0.019074133914871214 -0.0056831923378170765 0 -0.0056831923378170765 -0.0082049827680541303 0 0 0 -0.0068197791707313334 -0.0099768766391143873 -0.0038082395131073697 0 -0.0038082395131073697 -0.0090863279451306161 0 0 0 -0.0047658011460612508 -0.005244808919478634 -0.0018529039056828975 0 -0.0018529039056828975 -0.009836056740777397 0 0 0 -0.0037702164150640073 -0.004213794234735932 -0.00032263030255304834 0 -0.00032263030255304834 -0.0075403629482288358 0 0 0 -0.0029385392957411928 -0.0038668478370411639 -0.00077656903490060276 0 -0.00077656903490060276 -0.0082694761958894969 0 0 0 -0.0030340810082326651 -0.0040139611277079882 -0.00070153110246664566 0 -0.00070153110246664566 -0.0088934859341933056 0 0 0 -0.0032268617654753235 0.00096511945304722708 0.001239867750702972 0 0.001239867750702972 -0.0079935894234870013 0 0 0 -0.0017571174926099434 -0.0083612962993002849 -0.0041573720196919402 0 -0.0041573720196919402 -0.010257634154824863 0 0 0 -0.0046547326135312865 -0.013156236008488739 -0.006278597491901558 0 -0.006278597491901558 -0.0092343889172201276 0 0 0 -0.0055976562314272163 -0.0088244617003390546 -0.0035936251964704346 0 -0.0035936251964704346 -0.0097723677624908401 0 0 0 -0.0046492073657074719 -0.0075941973588369883 -0.0021091045648719492 0 -0.0021091045648719492 -0.008626337404183072 0 0 0 -0.0040551336907550138 -0.016668699711337474 -0.0063030289065941171 0 -0.0063030289065941171 -0.010254562735677982 0 0 0 -0.0067308156117538596 -0.008602562695127134 -0.0067261767506410931 0 -0.0067261767506410931 -0.009966115709398763 0 0 0 -0.0046421696011314743 -0.0050280413766360882 -0.0049004791090077509 0 -0.0049004791090077509 -0.0080557144876711746 0 0 0 -0.0032709389660768142 -0.0065856069701891737 -0.0038347132504533065 0 -0.0038347132504533065 -0.0093055986061381327 0 0 0 -0.0039728013940818251 0.0028405486232648421 -0.00080575737641156494 0 -0.00080575737641156494 -0.0063567835965703343 0 0 0 -0.00087905874332637165 -0.0051784186536843399 -0.0069910776153583824 0 -0.0069910776153583824 -0.0061386053882611542 0 0 0 -0.0028292560104863813 -0.0060979115425930791 -0.0064595205908567488 0 -0.0064595205908567488 -0.0076393144449060993 0 0 0 -0.0034343064968747946 -0.0013215514267547624 0.0013489067396237641 0 0.0013489067396237641 -0.006868125741042494 0 0 0 -0.0020474192919493132 -0.00049535197190309186 -0.0023110434525890201 0 -0.0023110434525890201 -0.0083113776902455569 0 0 0 -0.0022016824155371619 0.002926650503485599 0.0020491108261503181 0 0.0020491108261503181 -0.0073773381206454491 0 0 0 -0.0011126719042899623 0.0073189648405570917 0.0047276981759826076 0 0.0047276981759826076 -0.0029069026979951992 0 0 0 0.0011030155356404735 0.002500986854718933 0.0054517523669664015 0 0.0054517523669664015 -0.0024148398162947664 0 0 0 2.153675960604208e-05 0.0037917188367122302 0.0051502728797326765 0 0.0051502728797326765 -0.0018417573030634973 0 0 0 0.00048749038341218236 0.0013202908387982644 0.0038543275441036071 0 0.0038543275441036071 -0.0056948308408950286 0 0 0 -0.00109363500052419 0.0014514964102899162 0.0061502077003516009 0 0.0061502077003516009 -0.002022263046473783 0 0 0 -0.00014269165904596615 0.0022349070291099119 0.007797145741661328 0 0.007797145741661328 0.0023939611898609672 0 0 0 0.0011572170547427176 -0.00016836161469401673 0.0057543444079444506 0 0.0057543444079444506 -0.0016532269959624035 0 0 0 -0.0004553971526641068 -0.00023197271074156152 0.0074433849088281412 0 0.0074433849088281412 0.0033503702883058324 0 0 0 0.00077959939439106903 -0.0023352716895691916 0.0053305509469096738 0 0.0053305509469096738 -0.00090962636110449371 0 0 0 -0.00081122451266842088 -0.0035551798797803236 0.0054658000358303958 0 0.0054658000358303958 -0.0013385099077618096 0 0 0 -0.001223422446885533 -0.0011267532892690322 0.0040984111521873015 0 0.0040984111521873015 -0.0046679820816103333 0 0 0 -0.0014486838427198406 -0.00020546401790023927 0.0047856354807695872 0 0.0047856354807695872 -0.0035236836176388321 0 0 0 -0.00093228690888476698 -0.0028636313542363921 0.0034159595124064316 0 0.0034159595124064316 -0.0055173021531376674 0 0 0 -0.0020952333768435149 -0.00043916117929923863 0.003250771241947897 0 0.003250771241947897 -0.0053739249099233775 0 0 0 -0.0014532715223056544 -0.002056225969043847 0.0022240140770524892 0 0.0022240140770524892 -0.0067478196857957314 0 0 0 -0.0022010114137098946 -0.00099612468812031564 0.0019345930725947656 0 0.0019345930725947656 -0.0067814140194958428 0 0 0 -0.0019443846769040397 -0.0015643929369593352 -1.0070476389037691e-05 0 -1.0070476389037691e-05 -0.0081845139526769556 0 0 0 -0.0024372267224090725 -0.00077634157614579345 0.0032691077627306515 0 0.0032691077627306515 -0.0056190803289620991 0 0 0 -0.0015988554762769727 0.0010950560595653939 0.0034839202653283068 0 0.0034839202653283068 -0.0062246759083445721 0 0 0 -0.0012824049621947943 -0.073606277826306854 -0.0028048285048769251 0 -0.0028048285048769251 -0.0021010468677787712 0 0 0 -0.018926831173521404 -0.064411240448705581 -0.0043393996288820531 0 -0.0043393996288820531 -0.0045837412536206181 0 0 0 -0.017248745425581555 -0.066178158082708313 -0.002214535494258766 0 -0.002214535494258766 -0.00061000639713390667 0 0 0 -0.016697041119960558 -0.06258577264336683 -0.0035983437489367082 0 -0.0035983437489367082 0.0014102200137916278 0 0 0 -0.015293888157393794 -0.065516838640815131 0.0015272020994905081 0 0.0015272020994905081 0.00024427873523918953 0 0 0 -0.016318139976393985 -0.069532586127297916 0.0049854588845273497 0 0.0049854588845273497 -0.00943306340256048 0 0 0 -0.019741412382464598 -0.061890678453852918 0.0045663691003152863 0 0.0045663691003152863 -0.020592221171907444 0 0 0 -0.02062072490644009 -0.058715356050756243 0.0015913914506810612 0 0.0015913914506810612 -0.011735778276408367 0 0 0 -0.017612783581791153 -0.057337242301938623 -0.0017411953269273741 0 -0.0017411953269273741 -0.0085299639183934964 0 0 0 -0.016466801555083031 -0.05346741466913868 -0.0039637662030963527 0 -0.0039637662030963527 -0.0063510739208927115 0 0 0 -0.014954622147507852 -0.049502778154142668 -0.0029576006997167588 0 -0.0029576006997167588 -0.016509382963006216 0 0 0 -0.016503040279287222 -0.049495525982552739 -0.0029638237701646065 0 -0.0029638237701646065 -0.016485975442437673 0 0 0 -0.016495375356247604 -0.053322933657970716 -0.0048970200306067985 0 -0.0048970200306067985 -0.0088360127936541362 0 0 0 -0.015539736612906216 -0.044648679512254486 -0.0064788040885893671 0 -0.0064788040885893671 -0.0053691000184437083 0 0 0 -0.012504444882674548 -0.056051306034708107 -0.0062659532746081005 0 -0.0062659532746081005 -0.00090322585287060456 0 0 0 -0.014238632971894677 -0.066831419148563678 -0.0068614937230894067 0 -0.0068614937230894067 -0.003400542640631078 0 0 0 -0.01755799044729868 -0.0440319595774845 -0.0091912516285972742 0 -0.0091912516285972742 -0.0030204823655931492 0 0 0 -0.011763110485769415 -0.05822690489423623 -0.0071909432888504496 0 -0.0071909432888504496 -0.0066888879223336922 0 0 0 -0.016228948204142488 -0.042540276065629309 -0.0073703431930741796 0 -0.0073703431930741796 -0.0067354646175499348 0 0 0 -0.012318935170794815 -0.03930241760920785 -0.0069892771496242768 0 -0.0069892771496242768 -0.0097547458938494619 0 0 0 -0.012264290875764333 -0.04181386704699655 -0.0091696008897998293 0 -0.0091696008897998293 -0.0067365363767197227 0 0 0 -0.012137600855929066 -0.039803019083858915 -0.0076253949736428813 0 -0.0076253949736428813 -0.008782744972734435 0 0 0 -0.012146441014148338 -0.040399811794323337 -0.0067432127428168637 0 -0.0067432127428168637 -0.0100409748221573 0 0 0 -0.012610196654120158 -0.03282536015829058 -0.0058991943390756798 0 -0.0058991943390756798 -0.010947292281541407 0 0 0 -0.010943163109957998 -0.032475013518580544 -0.0080229466867392414 0 -0.0080229466867392414 -0.0090448843937837916 0 0 0 -0.010379974478091082 -0.030278505414484923 -0.0058256170018672129 0 -0.0058256170018672129 -0.0088155693434276393 0 0 0 -0.0097735186894781396 -0.029333037872155056 -0.0087365082637795854 0 -0.0087365082637795854 -0.0095332200132779536 0 0 0 -0.0097165644713582515 -0.024262164970462761 -0.0059942518530676373 0 -0.0059942518530676373 -0.0080855662780285366 0 0 0 -0.0080869328121228237 -0.019892199405397874 -0.004868563928873252 0 -0.004868563928873252 -0.008209995822205338 0 0 0 -0.0070255488069008018 -0.023874010150511965 -0.0086982132056265538 0 -0.0086982132056265538 -0.0093254755051615686 0 0 0 -0.008299871413918386 -0.02745453796828666 -0.0085425671659168038 0 -0.0085425671659168038 -0.0082437896537552249 0 0 0 -0.0089245819055104713 -0.027452034272001203 -0.006415471094106351 0 -0.006415471094106351 -0.0093025112601313395 0 0 0 -0.0091886363830331347 -0.020024647914207841 -0.0086831180457533214 0 -0.0086831180457533214 -0.010695019154986371 0 0 0 -0.0076799167672985521 -0.016060334140603545 -0.0069510553438381639 0 -0.0069510553438381639 -0.0088508433682032359 0 0 0 -0.0062277943772017031 -0.027375823726100146 -0.010964502237559254 0 -0.010964502237559254 -0.0098815036579144068 0 0 0 -0.009314331846003639 -0.016902744563913302 -0.0096502099646934621 0 -0.0096502099646934621 -0.0099558594158614244 0 0 0 -0.006714650994943683 -0.026896657604809308 -0.010787814871266564 0 -0.010787814871266564 -0.0052860944993830469 0 0 0 -0.0080456880260480913 -0.031213236565497779 -0.013384213394545116 0 -0.013384213394545116 -0.0077916121267316407 0 0 0 -0.0097512121730573553 -0.017834149251545063 -0.008522758483177505 0 -0.008522758483177505 -0.0062177019473573349 0 0 0 -0.0060129627997255993 -0.030305309111519033 -0.012046126161161162 0 -0.012046126161161162 -0.004668733589811922 0 0 0 -0.0087435106753327423 -0.028077680861515901 -0.01535787441264653 0 -0.01535787441264653 -0.0037412663793518763 0 0 0 -0.0079547368102169443 -0.045369742428511141 -0.012870792253032755 0 -0.012870792253032755 -0.0079170987786979525 0 0 0 -0.013321710301802275 -0.043895218195727274 -0.01259108743889675 0 -0.01259108743889675 -0.0065561233207309666 0 0 0 -0.012612835379114567 -0.044518324877830716 -0.010149001519659214 0 -0.010149001519659214 -0.0032895604665631561 0 0 0 -0.011951971336098471 -0.029624406054416325 -0.0095114778631770203 0 -0.0095114778631770203 -0.0056218367074608666 0 0 0 -0.0088115606904692924 -0.038467201425661596 -0.010075201894455682 0 -0.010075201894455682 -0.0083073161710078697 0 0 0 -0.011693629399167366 -0.054874542552550552 -0.0097557105220701362 0 -0.0097557105220701362 -0.0055122325845529578 0 0 0 -0.015096693784275876 -0.05300227727260845 -0.0091845320523381759 0 -0.0091845320523381759 -0.00024934908780749907 0 0 0 -0.013312906590103984 -0.062553358335070919 -0.0088386189085059262 0 -0.0088386189085059262 -0.0017314454645954924 0 0 0 -0.016071200949916591 -0.054769437676353387 -0.013507021946648162 0 -0.013507021946648162 -0.0019235512585559582 0 0 0 -0.014173247233727322 -0.060871845240263296 -0.011000425960643474 0 -0.011000425960643474 -0.004166209101883353 0 0 0 -0.016259513585536654 -0.046351463914792265 -0.016402666381588375 0 -0.016402666381588375 -0.0023466989030517457 0 0 0 -0.012174540704460998 -0.060665154380970553 -0.012986323471311569 0 -0.012986323471311569 0.00081401238068004589 0 0 0 -0.014962785500072608 -0.078196053927593448 -0.0090968473284927485 0 -0.0090968473284927485 -0.0034997850461152037 0 0 0 -0.020423959743427159 -0.082434202434648995 -0.011276579826559038 0 -0.011276579826559038 -0.0024139422794079018 0 0 0 -0.021212036178514249 -0.092880051384948828 -0.0059981045163251187 0 -0.0059981045163251187 -0.0007691392478393691 0 0 0 -0.023412297658197044 -0.075381123696802485 -0.0047338692440078364 0 -0.0047338692440078364 2.8714710365879831e-05 0 0 0 -0.018838102246609149 -0.082180069925162802 -0.0051471522120085612 0 -0.0051471522120085612 -0.00071720437688028299 0 0 0 -0.02072431857551077 -0.063598835793351405 -0.0099671232860707552 0 -0.0099671232860707552 -0.0007666015060902049 0 0 0 -0.016091359324860399 -0.07478773982795292 -0.0041062492368611897 0 -0.0041062492368611897 -0.0024743813797070205 0 0 0 -0.019315530301914983 -0.064964566413024311 -0.0059307598785643297 0 -0.0059307598785643297 0.00106767801888338 0 0 0 -0.015974222098535232 -0.099878012013875153 -0.0059406212820161119 0 -0.0059406212820161119 0.0030893817208050844 0 0 0 -0.024197157573267528 -0.13311970632677306 -0.0015980985358432509 0 -0.0015980985358432509 -0.00058400276199715995 0 0 0 -0.033425927272192527 -0.094677745714790248 -0.013301257494658353 0 -0.013301257494658353 0.0027492550407780814 0 0 0 -0.022982122668503066 -0.0955058674321492 -0.0045846892413629395 0 -0.0045846892413629395 0.0002858170304350649 0 0 0 -0.023805012600428513 -0.11710361305074007 -0.0050176202327356229 0 -0.0050176202327356229 0.00088622388034462207 0 0 0 -0.029054347292598863 -0.10334980287741491 -0.0059068589645895012 0 -0.0059068589645895012 -0.00045302352494326625 0 0 0 -0.025950706600589551 -0.079663974421930475 -0.0061397118322891499 0 -0.0061397118322891499 0.00080019319597933458 0 0 0 -0.019715945306487799 -0.088202541686563579 -0.0054545555204237872 0 -0.0054545555204237872 0.00065551956451002924 0 0 0 -0.021886755530513391 -0.085885499634295648 -0.013972315091627607 0 -0.013972315091627607 0.0007661421739959956 0 0 0 -0.021279839365074899 -0.062757223554894687 -0.014143846350434017 0 -0.014143846350434017 0.00030743015824336722 0 0 0 -0.015612448349162818 -0.063011722232045875 -0.01378031026015358 0 -0.01378031026015358 -0.00087517217392507618 0 0 0 -0.015971723601492738 -0.05178112281576204 -0.013337145986313508 0 -0.013337145986313508 -0.0049536323038706434 0 0 0 -0.014183688779908183 -0.06258363393520168 -0.019633652492334001 0 -0.019633652492334001 0.0033239430148437332 0 0 0 -0.014814922730089469 -0.07385463941865969 -0.010048349414957851 0 -0.010048349414957851 0.00052565552096059398 0 0 0 -0.018332245974424777 -0.066703498425079319 -0.0085380759643912119 0 -0.0085380759643912119 0.002808979122656232 0 0 0 -0.015973629825605754 -0.035726090268226054 -0.015972204163322755 0 -0.015972204163322755 0.0037868437561071472 0 0 0 -0.0079848116280297164 -0.033012553214922281 -0.013828997832719472 0 -0.013828997832719472 0.011051810804740977 0 0 0 -0.0054901856025453208 -0.01978101675878971 -0.017942785652019642 0 -0.017942785652019642 0.0011121839607650674 0 0 0 -0.0046672081995061607 -0.056581248254004061 -0.014136451055814091 0 -0.014136451055814091 0.0033454113877218333 0 0 0 -0.013308959216570552 -0.038995035410680348 -0.017621691163932272 0 -0.017621691163932272 0.0010110167224111274 0 0 0 -0.0094960046720673052 -0.054514995293946891 -0.01864645881954561 0 -0.01864645881954561 -0.0018085006147357391 0 0 0 -0.014080873977170661 -0.040339766535537877 -0.019107943063921776 0 -0.019107943063921776 -0.0039437858441051243 0 0 0 -0.01107088809491075 -0.037516955092300186 -0.0140188723289269 0 -0.0140188723289269 -0.002759167232116732 0 0 0 -0.01006903058110422 -0.023695238610358625 -0.017244155973265309 0 -0.017244155973265309 -0.00200585452475327 0 0 0 -0.0064252732837779755 -0.039019039908725232 -0.014747027974869719 0 -0.014747027974869719 -0.00080699768342612499 0 0 0 -0.0099565093980378307 -0.023308863835083855 -0.01225014307386995 0 -0.01225014307386995 -0.0033863936904962103 0 0 0 -0.0066738143813950129 -0.0081438881944190418 -0.015092503466249175 0 -0.015092503466249175 -0.0027233996316163092 0 0 0 -0.002716821956508849 -0.014624209670629471 -0.013932614391505624 0 -0.013932614391505624 -0.0048723948548183502 0 0 0 -0.0048741511313619562 -0.0013913196856679931 -0.010681497155159092 0 -0.010681497155159092 -0.0045756666395722415 0 0 0 -0.0014917465813100612 -0.014667244081185256 -0.0089169348091828072 0 -0.0089169348091828072 -0.0062873713057937262 0 0 0 -0.0052386538467447457 -0.0074024026853206776 -0.0083726292179130499 0 -0.0083726292179130499 -0.00087304458632671278 0 0 0 -0.0020688618179118407 0.0068741346399177165 -0.011884382601937499 0 -0.011884382601937499 0.00091465334614547478 0 0 0 0.0019471969965158022 -0.018739046250930848 -0.012687306667131682 0 -0.012687306667131682 0.0032958218454896132 0 0 0 -0.0038608061013603139 0.00012104224162470811 -0.015521671907167519 0 -0.015521671907167519 0.0049794490084970611 0 0 0 0.0012751228125304631 -0.0010356057210062081 -0.0077484215978482623 0 -0.0077484215978482623 0.0083545098711487881 0 0 0 0.001829726037535645 0.01259419746897579 -0.0044337375984911179 0 -0.0044337375984911179 0.021167520172259535 0 0 0 0.008440429410308814 0.018808483249749191 -0.012296843538717385 0 -0.012296843538717385 0.01468808179758873 0 0 0 0.0083741412618344828 -0.012097299569000658 -0.010823804355814468 0 -0.010823804355814468 0.013940994191678158 0 0 0 0.00046092365566938187 -0.020470266633834062 -0.01908383795713231 0 -0.01908383795713231 0.014954490822465027 0 0 0 -0.001378943952842264 0.0015641805623285432 -0.018781883168187595 0 -0.018781883168187595 0.035427565239370018 0 0 0 0.0092479364504246264 0.012423385830143893 -0.011076649404219395 0 -0.011076649404219395 0.068242386046941828 0 0 0 0.020166442969271461 0.014559454729902117 0.010110062388979796 0 0.010110062388979796 0.056548994795718788 0 0 0 0.017777112381405231 0.0037679426909763003 0.0066828678923181728 0 0.0066828678923181728 0.076157130610525536 0 0 0 0.019981268325375556 -0.0046961983007199892 0.0043987027163160421 0 0.0043987027163160421 0.047718838653658668 0 0 0 0.010755660088234698 -0.01479925684709895 -0.010672822307048455 0 -0.010672822307048455 0.035379202053477089 0 0 0 0.0051449863015945244 -0.0035697413985084636 -0.0023366826006466987 0 -0.0023366826006466987 0.034537758871048541 0 0 0 0.0077420043681350192 -0.027038922475594029 0.011550021185968443 0 0.011550021185968443 0.040804035233747593 0 0 0 0.0034412781895384048 -0.038893339921843822 0.0025764504972296542 0 0.0025764504972296542 0.024803671252075832 0 0 0 -0.0035224171674420046 -0.05356869928693081 0.0070918824817277201 0 0.0070918824817277201 0.030632463249884778 0 0 0 -0.0057340590092615218 -0.04009267121678331 -0.0097421532170225353 0 -0.0097421532170225353 0.011802211352954173 0 0 0 -0.0070726149659572912 -0.056898210841126298 -0.0047238671296927354 0 -0.0047238671296927354 0.012236032974668215 0 0 0 -0.011165544466614524 -0.033106931259704875 -0.00740583181779568 0 -0.00740583181779568 0.033372141637813962 0 0 0 6.6302594527251069e-05 -0.054583063975099738 -0.017170140994278708 0 -0.017170140994278708 0.014395749176676223 0 0 0 -0.010046828699605883 -0.076536512733866885 -0.014395422546155792 0 -0.014395422546155792 0.0062217857444236135 0 0 0 -0.017578681747360853 -0.081860276665504245 -0.0036658485694032739 0 -0.0036658485694032739 0.0052074717050584196 0 0 0 -0.019163201240111477 -0.06462058143881122 -0.01279884326366125 0 -0.01279884326366125 0.013064341961131765 0 0 0 -0.012889059869419878 -0.078129668047277764 0.004122525876846056 0 0.004122525876846056 0.012410784072271877 0 0 0 -0.016429720993751437 -0.061867919645027802 0.0015041096328062414 0 0.0015041096328062414 0.0071162496607910797 0 0 0 -0.013687917496059188 -0.093400027849103978 0.011049215578884025 0 0.011049215578884025 0.0054895823402173471 0 0 0 -0.021977611377221679 -0.080789980371630571 0.0035355859218874075 0 0.0035355859218874075 0.01844914239295431 0 0 0 -0.0155852094946691 -0.082912137838843242 -0.0033696241799441931 0 -0.0033696241799441931 0.0064009679749096327 0 0 0 -0.019127792465983479 -0.10524389927480626 0.0024313513927706476 0 0.0024313513927706476 0.0051739783523241933 0 0 0 -0.025017480230620476 -0.10347262735689135 -0.000554047644060085 0 -0.000554047644060085 0.0027315989973299981 0 0 0 -0.025185257089890348 -0.14092220009860734 0.00091800301961841326 0 0.00091800301961841326 0.0033765149395893479 0 0 0 -0.034386421289754554 -0.10929417690199439 -0.0029022813826516392 0 -0.0029022813826516392 0.0015819070576689742 0 0 0 -0.026928067461081284 -0.14196246759147504 -0.0044503499239920159 0 -0.0044503499239920159 0.0021043892812855347 0 0 0 -0.034964519577547398 -0.1121371625309816 -0.00018861680096812772 0 -0.00018861680096812772 -0.00085554480158159252 0 0 0 -0.028248176833140744 -0.0936439342490583 -0.010599950977227698 0 -0.010599950977227698 0.0041434634298224832 0 0 0 -0.022375117704808978 -0.10581890294123129 -0.010158013705688765 0 -0.010158013705688765 0.0029206174152441311 0 0 0 -0.025724571381496794 0.0060774608806761221 0.014035332628357856 0 0.014035332628357856 0.014514195967167777 0 0 0 0.005147914211960973 0.0075594698769316376 0.014808835102782775 0 0.014808835102782775 0.017859802813700199 0 0 0 0.0063548181726579694 0.008948905821095662 0.016254899172202956 0 0.016254899172202956 0.018224211837798175 0 0 0 0.0067932794147234606 0.00084746547500684499 0.01368586092643451 0 0.01368586092643451 0.023700382081789928 0 0 0 0.0061369618891991967 -0.0063139456632977957 0.010400641795967398 0 0.010400641795967398 0.027729079263438879 0 0 0 0.0053537834000352705 -0.0031098442293548386 0.011419192968354711 0 0.011419192968354711 0.015639446001111019 0 0 0 0.0031324004429390427 -0.010429298251244988 0.0076751232539640901 0 0.0076751232539640901 0.018987948723655883 0 0 0 0.0021396626181027188 0.0016335869935007671 0.012072486478262874 0 0.012072486478262874 0.017244027468847324 0 0 0 0.0047194036155870228 -0.0044965843458046086 0.0084144903454204112 0 0.0084144903454204112 0.00848928282296392 0 0 0 0.00099817461928982873 -0.0038367962218271781 0.0089358712719919652 0 0.0089358712719919652 0.015092730404651266 0 0 0 0.0028139835457060246 -0.003868670844595315 0.0066203613584823896 0 0.0066203613584823896 0.0027782530991458873 0 0 0 -0.00027260443636235691 0.00029032980902613231 0.009679767118653218 0 0.009679767118653218 0.00953242121508391 0 0 0 0.0024556877560275086 0.0010594002983578422 0.0083828546177406489 0 0.0083828546177406489 0.0016314374356025153 0 0 0 0.00067270943349008981 0.00060398571339896276 0.010221799579030612 0 0.010221799579030612 0.0089838774349646836 0 0 0 0.0023969657870909072 0.0053756511263382319 0.011314324422378822 0 0.011314324422378822 0.0078071306755284342 0 0 0 0.0032956954504666652 0.0066723044683695241 0.0076404069117910816 0 0.0076404069117910816 0.00037784745390462282 0 0 0 0.0017625379805685376 0.0031507407223229453 0.0062981784734964727 0 0.0062981784734964727 0.00015199292641120479 0 0 0 0.0008256834121835345 0.0017655618964318807 -0.00041613161658267742 0 -0.00041613161658267742 -0.0060483510604952759 0 0 0 -0.0010706972910158492 0.0095299098065998594 0.0028754307759186679 0 0.0028754307759186679 -3.3079748510772555e-05 0 0 0 0.0023742075145222717 0.0081962470892304809 0.0035516348364875907 0 0.0035516348364875907 -0.0013315289661254281 0 0 0 0.0017161795307762615 0.0095635316293965177 0.010101888100870669 0 0.010101888100870669 0.0064509384992240126 0 0 0 0.00400361753215513 -0.00028590747659389126 -0.0036186905503859182 0 -0.0036186905503859182 -0.0043962956274435326 0 0 0 -0.0011705507760093603 0.0059849223879033285 -0.0053166890458827337 0 -0.0053166890458827337 -0.0033352643437802015 0 0 0 0.00066241451103077765 0.0096220864694590933 -0.00042739770929363374 0 -0.00042739770929363374 0.0024777640242507962 0 0 0 0.0030249626234274702 0.014660273571469828 -0.002710089436308483 0 -0.002710089436308483 0.0061776167188935388 0 0 0 0.0052094725725908425 0.022060419330200649 0.0049355842072822129 0 0.0049355842072822129 0.013615815259923475 0 0 0 0.0089190586475310224 0.014368569435674022 0.011007357672717495 0 0.011007357672717495 0.0075396883284651606 0 0 0 0.0054770644410347957 0.020361385063851205 0.0077878300696029232 0 0.0077878300696029232 0.0059669569769913687 0 0 0 0.006582085510210646 0.013244536573753855 0.010385744497144626 0 0.010385744497144626 0.011994764434232925 0 0 0 0.0063098252519966968 0.023764432767531485 0.013325073179244615 0 0.013325073179244615 0.014148184520728371 0 0 0 0.0094781543220649744 0.015771277909600256 0.019927031169990835 0 0.019927031169990835 0.032888296361285319 0 0 0 0.012164893567721394 0.037619562734659051 0.020645449640951663 0 0.020645449640951663 0.029502374258130459 0 0 0 0.016780484248197385 0.024089291405828141 0.020683027145736749 0 0.020683027145736749 0.048144855425370822 0 0 0 0.018058536707799749 0.011340908496280916 0.022818165164313509 0 0.022818165164313509 0.053129716879382366 0 0 0 0.016117656343915834 0.018950721313051935 0.018889519537478888 0 0.018889519537478888 0.033974936215437179 0 0 0 0.013231414382122275 0.035714695147830204 -0.00048691012935575539 0 -0.00048691012935575539 0.022702000826006152 0 0 0 0.014604173993459098 0.036487863969272671 0.0069658495600964931 0 0.0069658495600964931 0.039562068673613698 0 0 0 0.019012483160721606 0.040108498895291694 -0.012399518924134982 0 -0.012399518924134982 0.033972783865435674 0 0 0 0.018520320690181849 0.088520184702234953 -0.004022981471946005 0 -0.004022981471946005 0.060681840802726955 0 0 0 0.037300506376240453 0.04629433331085351 -0.0014115802564906299 0 -0.0014115802564906299 0.14482209049273359 0 0 0 0.047779105950896759 0.081421661029103365 0.055020098770915363 0 0.055020098770915363 0.10278758386730436 0 0 0 0.046052311224101944 0.024372947407121183 0.033877004536885129 0 0.033877004536885129 0.090167165248592834 0 0 0 0.02863502816392851 -0.0043585990228167202 0.016965624552724892 0 0.016965624552724892 0.049237627915231799 0 0 0 0.01121975722310376 0.021817769920533289 0.023353070542818346 0 0.023353070542818346 0.048289834143448368 0 0 0 0.017526901015995411 -0.0049157786308542187 -0.0058972130672317671 0 -0.0058972130672317671 0.10279589754384169 0 0 0 0.024470029728246863 -0.012390481416035971 -0.007011251500132494 0 -0.007011251500132494 0.05772322075001167 0 0 0 0.01133318483349393 -0.012011696019480038 -0.0071781645309419162 0 -0.0071781645309419162 0.062018428183635121 0 0 0 0.012501683041038769 -0.0010866879745641449 0.016309390443769126 0 0.016309390443769126 0.059224798079724347 0 0 0 0.014534527526290062 0.00010883355376418297 0.015932734004224888 0 0.015932734004224888 0.032276489574875528 0 0 0 0.0080963307821599259 -0.0046193985158735386 0.01351023536727582 0 0.01351023536727582 0.052313455813917678 0 0 0 0.011923514324511036 -0.01289418113869851 0.0078516856044120904 0 0.0078516856044120904 0.034441319758668654 0 0 0 0.0053867846549925397 -0.004299396459683677 0.013044305723095111 0 0.013044305723095111 0.042096290892651128 0 0 0 0.0094492236082418662 -0.0020982247491765707 0.013658113036383738 0 0.013658113036383738 0.023118955576953329 0 0 0 0.0052551827069441948 0.0045332875745951375 0.018387399808869699 0 0.018387399808869699 0.035473839911688128 0 0 0 0.010001781871570815 -0.01219820563832659 0.0086518493879035735 0 0.0086518493879035735 0.024997432547355619 0 0 0 0.0031998067272572574 -0.011423548141312419 0.0074864925806760541 0 0.0074864925806760541 0.037252946615205645 0 0 0 0.0064573496184733084 -0.014592960373583574 -0.0075904270108098854 0 -0.0075904270108098854 0.040043016716177965 0 0 0 0.0063625140856486007 -0.016866844775797613 -0.00016715776078053343 0 -0.00016715776078053343 0.038223699283550017 0 0 0 0.0053392136269381019 -0.019303983607967253 0.0015437133428858919 0 0.0015437133428858919 0.032027816958071754 0 0 0 0.0031809583375261193 -0.011575265385261185 0.0055635827876025822 0 0.0055635827876025822 0.049483971712952518 0 0 0 0.0094771765819228315 -0.016853621668506399 -0.0074460099326395003 0 -0.0074460099326395003 0.031300839768800812 0 0 0 0.0036118045250736093 -0.01739178400532063 -0.0072260261023835027 0 -0.0072260261023835027 0.027380508856988357 0 0 0 0.00249718121291693 -0.010062333738312758 -0.014929471005910518 0 -0.014929471005910518 0.029410718307649457 0 0 0 0.00483709614233418 -0.013422214319359339 -0.01367391353203061 0 -0.01367391353203061 0.016007137401762031 0 0 0 0.00064623077060067119 -0.017170307805614377 -0.010055003328148803 0 -0.010055003328148803 0.014637090110755476 0 0 0 -0.00063330442371472282 -0.010522877940691726 -0.014751598246142247 0 -0.014751598246142247 0.016304532356958418 0 0 0 0.0014454136040666782 -0.010292175054601614 -0.013675459108835414 0 -0.013675459108835414 0.017050368908013796 0 0 0 0.0016895484633530373 -0.013922611322852271 -0.011795526090878489 0 -0.011795526090878489 0.0070914044519361785 0 0 0 -0.001707801717729017 -0.0024189961436967833 -0.0076530643729171878 0 -0.0076530643729171878 0.0066883158246091867 0 0 0 0.0010673299202280939 -0.0069382941958694155 -0.0097860437405723043 0 -0.0097860437405723043 0.0026481276002211229 0 0 0 -0.0010725416489120662 -0.0034966411660521668 -0.013281128180312251 0 -0.013281128180312251 0.0066205037014620549 0 0 0 0.00078096563385247203 0.006726905783139189 -0.02066215527222464 0 -0.02066215527222464 0.020557561642985143 0 0 0 0.006821116856531086 -0.0145395153264785 -0.0077045143074898886 0 -0.0077045143074898886 0.04096948407835619 0 0 0 0.0066074921879694243 -0.0078336769097946124 -0.015774148187212737 0 -0.015774148187212737 0.027169436550932322 0 0 0 0.0048339399102844266 -0.0078852203810975945 -0.01797626020854716 0 -0.01797626020854716 0.033068206737772915 0 0 0 0.0062957465891688279 -0.0050581407479140788 -0.021229799025542166 0 -0.021229799025542166 0.04897911385191521 0 0 0 0.010980243276000288 -0.015874670947023287 -0.017853604115274729 0 -0.017853604115274729 0.064199534191835494 0 0 0 0.012081215811203048 0.00072300393492962661 -0.017284413921677504 0 -0.017284413921677504 0.063733499791198356 0 0 0 0.016114125931532004 0.01549948986442385 -0.000687790359474999 0 -0.000687790359474999 0.18394897137024879 0 0 0 0.049862115308668145 0.0064595179742838842 -0.0058174143916519504 0 -0.0058174143916519504 -0.007001270320206171 0 0 0 -0.00013543808648057085 0.020062937383163504 -0.029851891773025704 0 -0.029851891773025704 0.03739709267905348 0 0 0 0.014365007515554249 0.073076833057836632 0.072443819909853907 0 0.072443819909853907 0.11867701263832689 0 0 0 0.047938461424040853 0.014389309595029711 -0.04236236184331555 0 -0.04236236184331555 0.076674505266593029 0 0 0 0.022765953715405685 0.0034424018946162347 0.00076041892175216148 0 0.00076041892175216148 0.010154905516968378 0 0 0 0.0033993268528961537 0.14982343781832314 0.057519166836028306 0 0.057519166836028306 0.033296790343361526 0 0 0 0.045780057040421152 0.059197851899436132 0.017278039568806303 0 0.017278039568806303 0.017614192164307464 0 0 0 0.019203011015935832 0.0088431575319735771 0.0018613909310813016 0 0.0018613909310813016 0.026505864944045939 0 0 0 0.0088372556190048791 -0.024163853881684048 0.0033077161252945547 0 0.0033077161252945547 0.021555982026423677 0 0 0 -0.00065196796381509353 0.064625408507865245 0.018076054236685499 0 0.018076054236685499 0.01424785259710204 0 0 0 0.019718315276241849 0.012797088972099531 0.0026357311088587802 0 0.0026357311088587802 0.038375621903617041 0 0 0 0.012793177718929143 -0.017454457218221961 0.0049728535068397986 0 0.0049728535068397986 0.026209946622932856 0 0 0 0.0021888723511777203 0.034869582278297728 0.017497081331776465 0 0.017497081331776465 0.0096215498802959543 0 0 0 0.011122783039648476 -0.0010203428304740234 -0.0098806694714668047 0 -0.0098806694714668047 -0.0022674062005441364 0 0 0 -0.00082193725775454168 -0.0029975564031195986 0.0031949878751596009 0 0.0031949878751596009 0.01652256001905332 0 0 0 0.0033812509039834321 -0.0037620507196753118 -0.0035919727322774805 0 -0.0035919727322774805 0.01115444871472801 0 0 0 0.0018480994987631755 -0.003528356007799327 -0.0017986679743248399 0 -0.0017986679743248399 0.0075147007115076506 0 0 0 0.00099658617592707915 -0.01152332919208094 0.0012383366539852683 0 0.0012383366539852683 0.010260359886838433 0 0 0 -0.00031574232631063209 -0.005410857567636769 0.0023961351484355908 0 0.0023961351484355908 0.028410526123034047 0 0 0 0.0057499171388493212 -0.008018938846362407 0.0040999691900345803 0 0.0040999691900345803 0.031911750960962104 0 0 0 0.0059732030286499191 -0.0055954493608870032 -0.0011374573810676858 0 -0.0011374573810676858 0.011033745972004128 0 0 0 0.0013595741527792776 0.027374980853932085 0.017339206376130956 0 0.017339206376130956 0.010977669419984348 0 0 0 0.0095881625684790528 0.032764574146351866 0.010998665331807711 0 0.010998665331807711 0.030702041267603786 0 0 0 0.01586665385348901 0.050790384510666531 0.0086768859692547985 0 0.0086768859692547985 0.02851096649664342 0 0 0 0.019825337751827266 0.016579549548925421 0.003146074666568631 0 0.003146074666568631 0.049738827533841602 0 0 0 0.016579594270691757 0.035160145624789085 0.010690389795299939 0 0.010690389795299939 0.03144456042026178 0 0 0 0.016651176511262578 0.031629345052565372 0.009622730546240077 0 0.009622730546240077 0.031424195100119068 0 0 0 0.015763385038171041 0.013256177498179922 0.01706606391811516 0 0.01706606391811516 0.028796549611167732 0 0 0 0.0105131817773369 0.026231200254288489 0.011512639902521205 0 0.011512639902521205 0.038551444673213364 0 0 0 0.016195661231875436 -0.0028875465831941227 0.0030558318909604948 0 0.0030558318909604948 0.042604110701249504 0 0 0 0.0099291410295138383 0.020472090857121223 0.0034992971588230534 0 0.0034992971588230534 0.061431586160273582 0 0 0 0.020475919254348704 0.018618462937074226 0.011822317204273958 0 0.011822317204273958 0.039515767999383944 0 0 0 0.014533557734114549 -0.010023520131944328 0.00018303319682991259 0 0.00018303319682991259 0.017480285708462065 0 0 0 0.0018641913941294629 -0.011640710505168475 -0.001240897283925721 0 -0.001240897283925721 0.0090184301771303321 0 0 0 -0.00065557008200954614 -0.0045890958880843297 0.0010335167305138143 0 0.0010335167305138143 0.037511442541903056 0 0 0 0.0082305866634546782 -0.0087502950374774568 -0.0018557627120727865 0 -0.0018557627120727865 0.019445849135888649 0 0 0 0.002673888524602791 -0.010428427000990143 -0.0024101578831486475 0 -0.0024101578831486475 0.018486765878569345 0 0 0 0.0020145847193948074 -0.0146989589829823 -0.0045609626063603526 0 -0.0045609626063603526 0.0038702057904477435 0 0 0 -0.0027071882981336507 -0.012884481523166923 -0.0049482138872207482 0 -0.0049482138872207482 0.004403576830567163 0 0 0 -0.0021202261731499486 -0.0097638510159665792 -0.0031729352527735677 0 -0.0031729352527735677 0.0057805535918996065 0 0 0 -0.00099582435601675012 -0.011816902416845111 -0.0080471333555288405 0 -0.0080471333555288405 0.00029417807463940834 0 0 0 -0.0028806810855514292 -0.01269319152171576 -0.0049028666872042038 0 -0.0049028666872042038 0.0012645675886603369 0 0 0 -0.0028571559832638593 -0.014855572387986071 -0.007351410842195677 0 -0.007351410842195677 -0.0024199851065864197 0 0 0 -0.0043188893736431228 -0.013456312473585905 -0.0090461190318067985 0 -0.0090461190318067985 -0.0040006156174524909 0 0 0 -0.0043642320227596093 -0.013645789616675522 -0.01016552051346243 0 -0.01016552051346243 -0.00016493242800164065 0 0 0 -0.0034526805111692871 -0.011912032060386983 -0.0075103830916089381 0 -0.0075103830916089381 -0.0014243360955998111 0 0 0 -0.0033340920389966985 -0.0095946074046176222 -0.0087681246343167957 0 -0.0087681246343167957 0.0009108207097650034 0 0 0 -0.0021709466737131616 -0.013815206995398385 -0.010027200163760942 0 -0.010027200163760942 -6.5152970572135427e-05 0 0 0 -0.0034700899914926198 -0.0099926894207988844 -0.012258875584596957 0 -0.012258875584596957 0.0039301157507109358 0 0 0 -0.0015156434175220036 -0.013825131751485573 -0.011580547503091947 0 -0.011580547503091947 0.0070738045024182766 0 0 0 -0.001687831812266824 -0.010415087137688593 -0.008365222906002813 0 -0.008365222906002813 0.0020117328478966023 0 0 0 -0.0021008385724479994 -0.010086538539323901 -0.0036239200326815407 0 -0.0036239200326815407 0.0016486536509407873 0 0 0 -0.0021094712220957774 -0.0068810912593942515 -0.0059922255021050835 0 -0.0059922255021050835 0.003336556522701652 0 0 0 -0.00088613368417316376 -0.090811900280699215 0.0065470421052616357 0 0.0065470421052616357 -0.00045566811618313885 0 0 0 -0.022816892099220554 -0.1014927245295027 0.0095104031548286332 0 0.0095104031548286332 0.0015242133103283706 0 0 0 -0.024992127804793651 -0.07915528845818165 0.021721230460178265 0 0.021721230460178265 0.0074229668725716014 0 0 0 -0.017933080396402457 -0.12600531895176248 0.0087119594948250612 0 0.0087119594948250612 0.0016412753624868159 0 0 0 -0.031091010897318916 -0.12887361429297273 0.0058894244808594398 0 0.0058894244808594398 0.0037534810025043885 0 0 0 -0.031280033322617029 -0.090579976966002854 0.0076074019882508559 0 0.0076074019882508559 0.00056354293838928315 0 0 0 -0.022504108506903337 -0.093436421612338699 0.010140974678471026 0 0.010140974678471026 0.0014613431270960042 0 0 0 -0.022993769621310639 -0.075562238027016226 0.020743417613723392 0 0.020743417613723392 0.011432650704000125 0 0 0 -0.016032396830754025 -0.058775967675929991 0.019639880064057272 0 0.019639880064057272 0.010106368721455317 0 0 0 -0.012167399738618662 -0.047748831088508414 0.027759282155843445 0 0.027759282155843445 0.022686219256549345 0 0 0 -0.0062656529579897535 -0.059193295160257786 0.018549693298223369 0 0.018549693298223369 0.0025571711295326871 0 0 0 -0.014159031007681289 -0.052381978961538317 0.029943174785163951 0 0.029943174785163951 0.0096931315505444648 0 0 0 -0.010672211852748442 -0.069153688380974021 0.01790512577662301 0 0.01790512577662301 0.00058820202266840482 0 0 0 -0.017141371589576404 -0.046705905308196183 0.025742425872014363 0 0.025742425872014363 0.0035727528021716193 0 0 0 -0.010783288126506307 -0.0089859466042968017 0.038075775339511009 0 0.038075775339511009 0.0095712225116182936 0 0 0 0.00014631897683031747 -0.027223888242407568 0.030224024871853945 0 0.030224024871853945 0.0088873460095220125 0 0 0 -0.0045841355582214027 0.0015105936163996581 0.041491460401173727 0 0.041491460401173727 0.023551458130627201 0 0 0 0.0062655129367566453 -0.027907322761926423 0.032310070241409139 0 0.032310070241409139 0.0089444569397896245 0 0 0 -0.0047407164555341996 -0.05514443356562404 0.015951992737022497 0 0.015951992737022497 0.012286714743535931 0 0 0 -0.010714429705522055 -0.034102362527972621 0.029059759609679159 0 0.029059759609679159 0.032101470824186837 0 0 0 -0.00050022292594646342 -0.028273688610526482 0.023613460666822045 0 0.023613460666822045 0.023995053516614351 0 0 0 -0.0010696587734779772 -0.0037520130602555213 0.036420036605180617 0 0.036420036605180617 0.050436782741544617 0 0 0 0.011671192420322274 0.0062385543240998376 0.039055669523820377 0 0.039055669523820377 0.082287467763778599 0 0 0 0.022131505521969602 0.030042052794768792 0.045456058076797673 0 0.045456058076797673 0.030178837181763285 0 0 0 0.015055222494132992 0.034817868241699232 0.043385360957024333 0 0.043385360957024333 0.031052310256083404 0 0 0 0.016467544624445649 0.0078556755772384856 0.029356529718493896 0 0.029356529718493896 0.010407913237464594 0 0 0 0.0045658972036757284 0.019672462114430134 0.035865343214181278 0 0.035865343214181278 0.011822607823521958 0 0 0 0.0078737674844880368 0.033729597985347914 0.017201407759761339 0 0.017201407759761339 0.012325705189727643 0 0 0 0.011513825793768806 0.00098454892430939467 0.027912211087878169 0 0.027912211087878169 0.005168091342947545 0 0 0 0.0015381600668141343 -0.0021648455609111217 0.032034262550790893 0 0.032034262550790893 0.0036019942939926608 0 0 0 0.00035928718327038478 0.016734273528071775 0.023959862390614983 0 0.023959862390614983 0.0094952019321481451 0 0 0 0.0065573688650548689 0.011837112447357856 0.019867737688987086 0 0.019867737688987086 0.011155531497468507 0 0 0 0.0057481609862065075 0.014214932796440705 0.020300100555431466 0 0.020300100555431466 0.014613982227636768 0 0 0 0.0072072287560193127 -0.0016762855126792875 0.024842686237296741 0 0.024842686237296741 0.0093196861648801033 0 0 0 0.0019108501630502595 -0.0041123938155595008 0.026344923451934822 0 0.026344923451934822 0.0054290353999753016 0 0 0 0.0003291603961042 -0.0037533311977731021 0.032243696167850833 0 0.032243696167850833 0.0028494810223675948 0 0 0 -0.00022596254385143233 -0.01840260146008979 0.029537239221999467 0 0.029537239221999467 0.00070154998124374868 0 0 0 -0.0044252628697114826 -0.016782132014116269 0.031564595599840817 0 0.031564595599840817 0.00090040949435765683 0 0 0 -0.0039704306299396253 -0.019253088960282438 0.030667793316470071 0 0.030667793316470071 0.00014948099789835467 0 0 0 -0.0047759019905960765 -0.034588942715477411 0.032059369309047181 0 0.032059369309047181 0.0016061496443873224 0 0 0 -0.0082456982677725499 -0.018100512777301458 0.033357574733000717 0 0.033357574733000717 0.0026957451856419734 0 0 0 -0.0038511918979147741 -0.011773668450036023 0.028819998835744209 0 0.028819998835744209 0.0016822017065805106 0 0 0 -0.0025228666858638782 -0.030439392243689634 0.029425104081467646 0 0.029425104081467646 0.0021655491846981345 0 0 0 -0.0070684607647478193 -0.035431363563147578 0.033470656910174063 0 0.033470656910174063 0.0047509854874776547 0 0 0 -0.0076700945189173142 -0.050436698170830296 0.023539312015682434 0 0.023539312015682434 -0.0011065564747390066 0 0 0 -0.012885813661392298 -0.054790553598184299 0.026460443198962125 0 0.026460443198962125 0.0045282676213855844 0 0 0 -0.012565571494199623 -0.051503262637660252 0.019610297214614759 0 0.019610297214614759 -0.0010336809317776918 0 0 0 -0.013134235892359292 -0.049827244792359671 0.027932574168263558 0 0.027932574168263558 0.0016266878313320188 0 0 0 -0.012050139240256996 -0.03266156698577799 0.028121757845472384 0 0.028121757845472384 1.7021315441567708e-05 0 0 0 -0.0081611364175841472 -0.028962651626921396 0.031500686456400251 0 0.031500686456400251 -0.0028116039525898917 0 0 0 -0.0079435638948777559 -0.034471257745763539 0.024113853707634525 0 0.024113853707634525 0.0013918933015237833 0 0 0 -0.0082698411110597725 -0.046920413577454023 0.022264019261043266 0 0.022264019261043266 -0.0027578253090387861 0 0 0 -0.01241955972162323 -0.050578222130435502 0.022906343952058483 0 0.022906343952058483 0.0015063754996553769 0 0 0 -0.012267961657694948 -0.05973887454130633 0.009254319629218544 0 0.009254319629218544 -0.000459198020880347 0 0 0 -0.01504951814054678 -0.041357866936641285 0.0097378943891404113 0 0.0097378943891404113 0.00054698682543485866 0 0 0 -0.010202720027801648 -0.058163986699323822 0.0099734067357257761 0 0.0099734067357257761 0.00072843853129511693 0 0 0 -0.014358887042007329 -0.083279843868270365 0.0087747456082237201 0 0.0087747456082237201 -0.00020327616275617189 0 0 0 -0.020870780007756662 -0.072524365426839488 0.020113304624396811 0 0.020113304624396811 0.0010498835464932688 0 0 0 -0.017868620470086416 -0.069940611204044822 0.0099401095309715748 0 0.0099401095309715748 -0.00088170892603867124 0 0 0 -0.017705580032520762 -0.0093823975291386988 0.0071865498974867936 0 0.0071865498974867936 0.0006757748451350909 0 0 0 -0.0021766556710008725 -0.025731120236236138 0.009857138136046828 0 0.009857138136046828 -0.0045741277158115601 0 0 0 -0.0075763119880121188 -0.017826942542108704 0.013691390574891327 0 0.013691390574891327 0.00077845228430906133 0 0 0 -0.0042621225644499106 -0.021183543731655874 0.0074143623310115167 0 0.0074143623310115167 0.00058328755892933515 0 0 0 -0.0051500640431818567 -0.031041435741404277 0.0075993317913214398 0 0.0075993317913214398 -0.00097940241093708025 0 0 0 -0.0080052095380852561 -0.041170026034843099 0.0086110947716450444 0 0.0086110947716450444 -0.0011107070908220606 0 0 0 -0.010570183281416234 -0.047377263057607144 0.018855430758821567 0 0.018855430758821567 -0.0027222518650646954 0 0 0 -0.012524878730668099 -0.034018687513219792 0.015868405050617929 0 0.015868405050617929 -0.003930063556420782 0 0 0 -0.00948718776741031 -0.031401564021524608 0.024494204634204569 0 0.024494204634204569 -0.0022476804477689072 0 0 0 -0.0084123111173235454 -0.02901038319347149 0.01852167691312312 0 0.01852167691312312 0.0013090751264615008 0 0 0 -0.006925327016752636 -0.03135928378341335 0.024055131676383956 0 0.024055131676383956 -0.0026389859378732616 0 0 0 -0.0084995674303218749 -0.023337465501787058 0.023553790581128053 0 0.023553790581128053 -0.0019789268663110704 0 0 0 -0.0063290980920245321 -0.018707525882916576 0.021478599074757021 0 0.021478599074757021 -0.0061870319095169712 0 0 0 -0.0062236394481085533 -0.022815967752264021 0.021458984226234046 0 0.021458984226234046 -0.0041253926402711194 0 0 0 -0.0067353400981337019 -0.0090670775782557556 0.01705541536567956 0 0.01705541536567956 -0.0040341816042324119 0 0 0 -0.0032753147956217088 -0.011782533022648423 0.024685097877596207 0 0.024685097877596207 -0.0051513126843341084 0 0 0 -0.0042334614267458548 -0.01195668429562291 0.027152739659987768 0 0.027152739659987768 -0.0066474649452716861 0 0 0 -0.004651037310223316 -0.012524189350576531 0.029511534738389189 0 0.029511534738389189 -0.0033983607192498155 0 0 0 -0.0039806375174562536 -0.017894443361695656 0.02603489618679955 0 0.02603489618679955 -0.0063189061324226969 0 0 0 -0.0060533373735296436 -0.023620221891101578 0.029396697720196707 0 0.029396697720196707 -0.0032598228400244622 0 0 0 -0.0067200111827814268 -0.016633845865904773 0.028008699911788559 0 0.028008699911788559 -0.0038551767342355214 0 0 0 -0.0051222556500352123 -0.01993439822656836 0.028372788248499536 0 0.028372788248499536 -0.0020376070787456848 0 0 0 -0.0054930013263285397 -0.013668150448814961 0.030903487033978605 0 0.030903487033978605 -0.00046469655270756083 0 0 0 -0.0035332117503805577 -0.016602738629776015 0.029634453122515864 0 0.029634453122515864 -0.0022622426761236269 0 0 0 -0.004716245326475077 -0.0072016539042644434 0.027487790720299721 0 0.027487790720299721 0.0030605581068952614 0 0 0 -0.0010352739493423579 -0.005127752025537613 0.024799508434773965 0 0.024799508434773965 0.010659499522056137 0 0 0 0.0013829368741296033 -0.0086699164164626419 0.029804075194057165 0 0.029804075194057165 0.0010722584355828957 0 0 0 -0.0018994144952200198 -0.0084857973539811393 0.02734561935241675 0 0.02734561935241675 0.0077364692426686865 0 0 0 -0.00018733202782805769 0.0055949193057662772 0.018417842957077712 0 0.018417842957077712 0.024541410050378687 0 0 0 0.0075340823390359635 -0.008811126850907236 0.027947365026360527 0 0.027947365026360527 0.0026158605877211194 0 0 0 -0.0015488165657964181 -0.0088326948732945221 0.02245024752257585 0 0.02245024752257585 0.017981034159497922 0 0 0 0.0022870848215508222 -0.011113162222320616 0.028988544008246353 0 0.028988544008246353 0.0019019502219346229 0 0 0 -0.0023028030000964428 -0.0077744505953638576 0.026593936601624291 0 0.026593936601624291 0.0023537247875338174 0 0 0 -0.0013551814519574545 -0.0062311907369190234 0.025701332482039763 0 0.025701332482039763 0.0046864695658688227 0 0 0 -0.0003861802927627167 -0.0035880268439860696 0.02025362503437278 0 0.02025362503437278 -0.0082440789709243845 0 0 0 -0.002958026453727669 -0.0083611021283045844 0.021968735753303381 0 0.021968735753303381 0.0045784415072919193 0 0 0 -0.00094566515525311423 -0.0011882473228830293 0.015228147933333602 0 0.015228147933333602 -0.0047484941717845786 0 0 0 -0.001484185373666902 0.0012137464491746019 0.013724802798876778 0 0.013724802798876778 0.0024735963346946832 0 0 0 0.00092183569596726578 -0.00039734180514416906 0.0065266018160212713 0 0.0065266018160212713 0.0031850965656268215 0 0 0 0.0006969386901205521 0.0019478719582953024 0.005375973140943735 0 0.005375973140943735 -0.0042588762499714584 0 0 0 -0.0005777510729189834 -0.00088716108624931067 0.0093710788175895843 0 0.0093710788175895843 -0.017951137523880334 0 0 0 -0.0047095746525323001 0.0014291363748630825 0.0062818616193831556 0 0.0062818616193831556 -0.0069974039396809573 0 0 0 -0.0013920668912044132 -0.0023254627802649086 0.010053414210080122 0 0.010053414210080122 -0.018261201405149308 0 0 0 -0.0051466660463534986 0.001198958463167088 0.0070900911551052825 0 0.0070900911551052825 -0.0098726737674272869 0 0 0 -0.0021684288260652718 -0.0050906820523194396 0.017543015760284719 0 0.017543015760284719 -0.0079000816589573919 0 0 0 -0.0032476909278192911 -0.0032544274675065932 0.018685726087795396 0 0.018685726087795396 -0.0094538014347307353 0 0 0 -0.0031770572255593876 -0.0079207242741762274 0.021534928238271966 0 0.021534928238271966 -0.014589298371336046 0 0 0 -0.0056275056613780405 -0.010350087191859147 0.02727544287093675 0 0.02727544287093675 -0.0079052487253192805 0 0 0 -0.004563833979294496 -0.014732584680807292 0.020601776980021524 0 0.020601776980021524 -0.013122242243633675 0 0 0 -0.0069637067311101308 -0.01679385751379564 0.012774600948805892 0 0.012774600948805892 -0.0063619381355208282 0 0 0 -0.0057889489123293392 -0.0046743103555573207 0.0081406373673334476 0 0.0081406373673334476 -0.005683178722140525 0 0 0 -0.0025893722694243504 -0.0042723267845887758 0.0075600526776484767 0 0.0075600526776484767 -0.003762823534367854 0 0 0 -0.002008787579739213 -0.0054528405899352261 0.013265682949867852 0 0.013265682949867852 -0.01569821798642268 0 0 0 -0.0052877646440895321 -0.0022012224870238128 0.0053377615596783556 0 0.0053377615596783556 -0.0071064588801617035 0 0 0 -0.0023269203417966011 -0.0026988597181436197 0.0014304854092941355 0 0.0014304854092941355 -0.00047276019637200012 0 0 0 -0.00079290497862901591 0.00018688482367612558 0.0017168060347518832 0 0.0017168060347518832 -0.0024614324769069995 0 0 0 -0.00056863691330777399 -0.001218749059007318 0.0038823039232052103 0 0.0038823039232052103 -0.0070368446401416485 0 0 0 -0.0020638984247872694 -0.0043469326230116678 0.0024255586069110713 0 0.0024255586069110713 -0.0020510632887926761 0 0 0 -0.0015994989779515301 0.00093952511856376653 0.00051369510475951508 0 0.00051369510475951508 -0.00063859487898199063 0 0 0 7.5232559895388462e-05 -0.000412539213417773 -0.00024203403334732698 0 -0.00024203403334732698 0.00063656069797612957 0 0 0 5.6005371139589144e-05 0.00045331832009143369 8.0838114837021414e-07 0 8.0838114837021414e-07 -0.0005289959607228667 0 0 0 -1.8919410157636207e-05 9.0022589804283903e-06 0.00048314143665884046 0 0.00048314143665884046 0.00048811032058704296 0 0 0 0.00012427814489196498 -0.0021613812998348969 0.0020087338570556881 0 0.0020087338570556881 -0.00027641133345834845 0 0 0 -0.00060944815832342236 -0.0062153860221443313 0.0036668377242765615 0 0.0036668377242765615 -0.0024366269797706508 0 0 0 -0.00216300325047869 -0.010713778977458288 0.0059263339513399849 0 0.0059263339513399849 -0.0033537270409693676 0 0 0 -0.0035168765046065253 -0.010952424583004855 -0.0087439881991248497 0 -0.0087439881991248497 -0.0090618813007542487 0 0 0 -0.005003576470939769 -0.010401953880998224 -0.0091994483325208709 0 -0.0091994483325208709 0.0017280937785862927 0 0 0 -0.0021684650256029586 -0.014630550577022533 -0.0084132326929032934 0 -0.0084132326929032934 0.00026810253540143769 0 0 0 -0.003590612010405253 -0.012920218119255041 -0.0099053630452098917 0 -0.0099053630452098917 -0.012493846914425254 0 0 0 -0.0063535162584201022 -0.012488774551937282 -0.008290040118982489 0 -0.008290040118982489 -0.019882425444543772 0 0 0 -0.0080927999991202704 -0.010325451936545826 -0.0065747547060344691 0 -0.0065747547060344691 -0.012554323166678483 0 0 0 -0.0057199437758060911 -0.012097303479847596 -0.0054118106126185561 0 -0.0054118106126185561 -0.016683890711646776 0 0 0 -0.0071952985478736381 -0.014120622294593987 -0.00793794693735329 0 -0.00793794693735329 -0.01195007146348126 0 0 0 -0.0065176734395188118 -0.013369058303775078 -0.007003460844684041 0 -0.007003460844684041 -0.0067488066095682253 0 0 0 -0.0050294662283358604 -0.014818076298731751 -0.0072060792012265673 0 -0.0072060792012265673 -0.0072845388132619232 0 0 0 -0.0055256537779984106 -0.013863110893627628 -0.0070021127562094089 0 -0.0070021127562094089 -0.0035272882499863267 0 0 0 -0.0043475997859034887 -0.015257365325816064 -0.0081427057002603411 0 -0.0081427057002603411 -0.003904511276184075 0 0 0 -0.0047904691505000208 -0.013242029415559586 -0.0071870077612194161 0 -0.0071870077612194161 -0.0085809310415482926 0 0 0 -0.0054557401142769461 -0.012797990096463041 -0.0064865575231742856 0 -0.0064865575231742856 0.0033887712089376576 0 0 0 -0.0023523047218813598 -0.015186269907905281 -0.0059173800781131963 0 -0.0059173800781131963 0.0026742775520682271 0 0 0 -0.0031279980889592496 -0.00928752478631234 -0.0035888789600063142 0 -0.0035888789600063142 0.020769543564302606 0 0 0 0.0028705046944975943 -5.5076897004457948e-05 0.00073297682852509205 0 0.00073297682852509205 0.048026918564266607 0 0 0 0.011992960416815551 0.0026205874192086059 -0.0015450794832370385 0 -0.0015450794832370385 0.055718788266626018 0 0 0 0.014584843921458659 -0.009066378584716317 -0.0042818202573707831 0 -0.0042818202573707831 0.019380771126979723 0 0 0 0.0025785981355658377 0.0058596141309950056 0.019539457696591267 0 0.019539457696591267 0.032319110830343334 0 0 0 0.0095446812403345849 0.020586583192333308 0.010831139660114316 0 0.010831139660114316 0.053352413810173971 0 0 0 0.01848474925062682 0.0022711563931458179 0.0013507741825575653 0 0.0013507741825575653 0.048916072575450553 0 0 0 0.012796807242149114 0.024512189032988272 0.0037285508598811946 0 0.0037285508598811946 0.073568701555035643 0 0 0 0.024520222647005981 -0.0032940453923960833 0.022283195921324772 0 0.022283195921324772 0.018628062077939989 0 0 0 0.0038335041713860596 0.010826550059957363 0.014191048993174471 0 0.014191048993174471 0.055947684903684625 0 0 0 0.016693558740910497 0.0066967301266189216 0.013404675356885942 0 0.013404675356885942 0.043664791410206238 0 0 0 0.012590380384206179 0.02874585076459954 0.0038009922537967792 0 0.0038009922537967792 0.086284918135774824 0 0 0 0.028757692225093591 0.0033716022461228318 -0.0015432667264683175 0 -0.0015432667264683175 0.055471558204193083 0 0 0 0.014710790112578989 0.0055126034649426447 0.016079391123353395 0 0.016079391123353395 0.052702498584154434 0 0 0 0.014553775512274214 0.033002809767299884 0.0038185531446261085 0 0.0038185531446261085 0.099117225397944972 0 0 0 0.033030008791311218 -0.0039081605919049078 0.019408658599543105 0 0.019408658599543105 0.038880762757475651 0 0 0 0.0087431505413926303 -0.0081516321672333997 -0.0056911762059940196 0 -0.0056911762059940196 0.022129743358621945 0 0 0 0.0034945277978471606 0.0054039963634290589 -0.0024438805109273098 0 -0.0024438805109273098 0.057121699776770785 0 0 0 0.015631424035049968 -0.0082641584526797762 -0.0079604158770416045 0 -0.0079604158770416045 0.0045239960059236806 0 0 0 -0.00093504061168905861 -0.0089136798528677286 -0.0081790061683707366 0 -0.0081790061683707366 0.019468644139544633 0 0 0 0.0026387410716692816 -0.0043289230870905936 -0.0093824583186657706 0 -0.0093824583186657706 0.013158030938504608 0 0 0 0.0022072769628534473 -0.0067064538231377813 -0.010966752852745953 0 -0.010966752852745953 0.0060280617612945564 0 0 0 -0.0001695980154608201 0.0074990028001915982 -0.0021581046717733532 0 -0.0021581046717733532 0.057517451653843255 0 0 0 0.016254113613508689 0.007875822135598981 -0.0063408555750189555 0 -0.0063408555750189555 0.064107440870102006 0 0 0 0.017995815751425254 -0.0040403303690264014 -0.011502748028593163 0 -0.011502748028593163 0.013715746433189069 0 0 0 0.0024188540160406391 0.0029396947963027387 0.011621803170577261 0 0.011621803170577261 0.067271352016570418 0 0 0 0.017552761703218289 0.037373920190672247 0.0036682397645499383 0 0.0036682397645499383 0.11205616803761671 0 0 0 0.037357522057072233 0.0077635248962916736 -0.0041081106331522232 0 -0.0041081106331522232 0.068503448471137041 0 0 0 0.019066743341857179 -0.0043715796206660329 0.018299302228437231 0 0.018299302228437231 0.06483753803665504 0 0 0 0.01511648960399703 0.0056539631357819531 0.016809923865089171 0 0.016809923865089171 0.042486339380312654 0 0 0 0.012035075629023534 0.0020943583911707808 0.020169040437281183 0 0.020169040437281183 0.042300462231183111 0 0 0 0.011098705155588418 0.041219066801521355 0.0035996109053867287 0 0.0035996109053867287 0.12432839388075805 0 0 0 0.041386865170569845 0.00068761792891058882 0.0062124055953409751 0 0.0062124055953409751 0.070556803942004365 0 0 0 0.017811105467728572 0.010436697128347511 8.6018215458505409e-05 0 8.6018215458505409e-05 0.047323219391457831 0 0 0 0.014439979129951114 -0.0030204736199808402 -0.010009155566235939 0 -0.010009155566235939 -0.012142787792621901 0 0 0 -0.0037908153531506783 0.014685364019023067 -0.0035261126541335508 0 -0.0035261126541335508 0.061793933370988929 0 0 0 0.019119824347503006 0.014500129181298171 -0.0056852128220871989 0 -0.0056852128220871989 0.060659353433391905 0 0 0 0.018789870653672491 0.017209690597305899 0.00039839908316241512 0 0.00039839908316241512 0.03351526416464834 0 0 0 0.012681238690488567 4.6536520523415836e-05 -0.0069891676387763974 0 -0.0069891676387763974 -0.010999131385877381 0 0 0 -0.0027381487163384843 -0.00095774577717055998 -0.0049607214160585777 0 -0.0049607214160585777 -0.033731445700269092 0 0 0 -0.0086722978693599129 0.0019097680191567379 -0.0032886296364786349 0 -0.0032886296364786349 -0.022448975291081141 0 0 0 -0.0051348018179810939 -0.00017727463090834588 -0.0030735471807951664 0 -0.0030735471807951664 -0.02871484177700322 0 0 0 -0.0072230291019779336 -0.0026919313834421546 -0.010167825140030562 0 -0.010167825140030562 -0.015038596709001914 0 0 0 -0.0044326320231109842 -0.0064485681388066485 -0.0094590352321879956 0 -0.0094590352321879956 -0.027237896665448513 0 0 0 -0.0084216162010638251 -0.010059312617236554 -0.009190093558455098 0 -0.009190093558455098 -0.025286562586742778 0 0 0 -0.0088364688009948678 -0.0062222223215195882 -0.0099758781429843263 0 -0.0099758781429843263 -0.010266182855996675 0 0 0 -0.0041221012943790658 -0.0099781742996569167 -0.012161077048258764 0 -0.012161077048258764 -0.016582940606382102 0 0 0 -0.0066402787265097962 -0.010180904189656489 -0.0055120515388554503 0 -0.0055120515388554503 -0.030426466207022482 0 0 0 -0.01015184259916975 -0.0065765708377571869 -0.0066875361820038504 0 -0.0066875361820038504 -0.017953530736359871 0 0 0 -0.0061325253935292506 -0.0056857933041767339 -0.0054345738426822832 0 -0.0054345738426822832 -0.034415838552354194 0 0 0 -0.010025407964132704 -0.0037952466972770438 -0.0077823896832535377 0 -0.0077823896832535377 -0.023390071221250919 0 0 0 -0.0067963294796319906 -0.0016586916932820606 -0.0031104627253005779 0 -0.0031104627253005779 -0.026566674640111754 0 0 0 -0.0070563415833484744 0.0011141303383445655 -0.0027180404749683265 0 -0.0027180404749683265 -0.029927245027824623 0 0 0 -0.0072032786723699727 -0.0010067634148363163 -0.0014304674713495336 0 -0.0014304674713495336 -0.033768231961095629 0 0 0 -0.0086937488439829593 0.00041650307814417031 -0.00061104956818333611 0 -0.00061104956818333611 -0.031076900453089529 0 0 0 -0.0076650993437363812 -0.00083213806942199827 0.00010361109090212262 0 0.00010361109090212262 -0.033392783920146669 0 0 0 -0.0085562304973921463 -0.0004701914687437192 0.0005926336535068133 0 0.0005926336535068133 -0.03125164274969261 0 0 0 -0.00793045855460911 -0.0018661022798888288 -0.00044462021777813554 0 -0.00044462021777813554 -0.029086058388220926 0 0 0 -0.0077380401670273935 -0.0040628813545878772 -0.0018234208368053534 0 -0.0018234208368053534 -0.032998532321543261 0 0 0 -0.0092653534190327846 0.0013617800041170031 0.002037394116829655 0 0.002037394116829655 -0.026757893249569613 0 0 0 -0.0063490283113631519 0.00015432208923110702 0.0023843974771982079 0 0.0023843974771982079 -0.030384667844394975 0 0 0 -0.007557586438790953 -0.00068336046831754538 0.0025330711121851306 0 0.0025330711121851306 -0.030429318617573142 0 0 0 -0.0077781697714726927 -0.0023695985094705219 0.0055681459904426966 0 0.0055681459904426966 -0.01413926698039264 0 0 0 -0.0041272163724657696 -0.00658550655741727 0.0048961919589662617 0 0.0048961919589662617 -0.028009323166762023 0 0 0 -0.0086487074310448164 -0.010588291902147662 0.002716517378363259 0 0.002716517378363259 -0.020763904487182572 0 0 0 -0.0078380490973325723 -0.0064323863231491134 0.0032193135570265374 0 0.0032193135570265374 -0.0072542115439115928 0 0 0 -0.0034216494667652191 -0.010311228583797717 0.0058492085977909503 0 0.0058492085977909503 -0.016094148260927199 0 0 0 -0.0066013442111812828 -0.0076060723849352835 0.00033120533084898818 0 0.00033120533084898818 -0.029292898916056409 0 0 0 -0.0092247428252479058 -0.0036310612797049446 0.0023309835037470111 0 0.0023309835037470111 -0.020067025392030535 0 0 0 -0.005924521667933863 -0.0054782879627885139 -0.0029270388210832499 0 -0.0029270388210832499 -0.020531449306982474 0 0 0 -0.0065024343174427679 -0.010751876297514423 -0.0029000470385965732 0 -0.0029000470385965732 -0.021865666385395777 0 0 0 -0.0081543856707275153 -0.012282596425032322 -0.0047528578744882033 0 -0.0047528578744882033 -0.010866843443472329 0 0 0 -0.0057873599671261766 -0.014013286373448092 -0.0042687470248818221 0 -0.0042687470248818221 -0.017077220637741197 0 0 0 -0.0077726267527973569 -0.011128894752033824 -0.002636655144929001 0 -0.002636655144929001 -0.0081257568858953411 0 0 0 -0.0048136629094822636 -0.0094220303721808431 -0.0019337171226377625 0 -0.0019337171226377625 -0.015178451440165955 0 0 0 -0.0061501204530866917 -0.01398617610123605 -0.0009172939886228082 0 -0.0009172939886228082 -0.014641658888010056 0 0 0 -0.0071569587473114954 -0.0097504431164011363 -0.00098286675763670228 0 -0.00098286675763670228 -0.014351965126539246 0 0 0 -0.0060256020607351024 -0.013950517316742045 0.00050886459167535925 0 0.00050886459167535925 -0.010491188711849397 0 0 0 -0.0061104265071478814 -0.010050876163956612 0.00020685950016716137 0 0.00020685950016716137 0.0036204862451757469 0 0 0 -0.0016075974796951886 -0.011316229734332828 -0.00096094199934924907 0 -0.00096094199934924907 -0.0048531816363376334 0 0 0 -0.0040423528426676014 -0.014308036489906834 -0.0046500275134900987 0 -0.0046500275134900987 -0.0026223314915470031 0 0 0 -0.0042325919953634938 -0.017563910100239416 -0.0028998385397571227 0 -0.0028998385397571227 -0.0058330299192393964 0 0 0 -0.0058492350048696684 -0.014059829127620823 -0.0040795895617280198 0 -0.0040795895617280198 0.007042423805234857 0 0 0 -0.0017543513305964785 -0.015794849753989371 -0.0076736235953378806 0 -0.0076736235953378806 -0.0021266222939432602 0 0 0 -0.0044803680119831334 -0.015958914509472288 -0.0078227567575430597 0 -0.0078227567575430597 -0.0028715813510554189 0 0 0 -0.0047076239651319129 -0.014149215559019074 -0.0078845429047948376 0 -0.0078845429047948376 -0.006279590347623154 0 0 0 -0.00510720147666055 -0.014051385039588336 -0.0056869336209308952 0 -0.0056869336209308952 -0.0060760674882003145 0 0 0 -0.0050318631319471764 -0.014881038233436977 -0.0065338411220629278 0 -0.0065338411220629278 -0.011681283288380917 0 0 0 -0.0066405803804544805 -0.015425503157241536 -0.0049611118064603055 0 -0.0049611118064603055 -0.010401277718826332 0 0 0 -0.0064566952190169592 -0.0027070714765722315 -0.012210540893828448 0 -0.012210540893828448 0.029508465674694451 0 0 0 0.0067003485495304993 0.012551128797089738 -0.0058061590975997286 0 -0.0058061590975997286 0.037685156007121461 0 0 0 0.012559071201052799 0.0018201242187220745 -0.010729848057777547 0 -0.010729848057777547 0.025110945023104958 0 0 0 0.0067327673104567443 -0.0047831442100597366 -0.0060444135300807833 0 -0.0060444135300807833 0.02411103906273554 0 0 0 0.0048319737131689855 -0.01194361328167054 -0.005633441567718972 0 -0.005633441567718972 0.023972231602306993 0 0 0 0.0030071545801590993 -0.016152208583205971 -0.006726847680172815 0 -0.006726847680172815 0.0053609494513697231 0 0 0 -0.0026978147829590654 -0.015378648492893998 -0.0059365544458533231 0 -0.0059365544458533231 0.011191447098422402 0 0 0 -0.0010468003486178712 -0.014560214097820004 -0.001213680511054166 0 -0.001213680511054166 0.0013243249447252026 0 0 0 -0.0033089722882736622 -0.0060179695571671715 -0.0018225021802420055 0 -0.0018225021802420055 0.028359052701207643 0 0 0 0.0055852707860101075 -0.0096527931391511834 -0.0030611989797046518 0 -0.0030611989797046518 0.014963298220123211 0 0 0 0.0013276262702430208 -0.0083476325411949506 0.00193872199806297 0 0.00193872199806297 0.011169938943514396 0 0 0 0.00070557660057984223 -0.010260116892329585 0.00036764055917556937 0 0.00036764055917556937 -0.00014986370480551958 0 0 0 -0.0026024951492837345 0.00068947576383601716 -0.0024026074326880531 0 -0.0024026074326880531 0.033524929923098967 0 0 0 0.008553601421733753 0.0056000734609939762 -0.0012914817659449007 0 -0.0012914817659449007 0.03136566953907538 0 0 0 0.0092414357500173461 -0.0028030809890963182 -0.012678674340370955 0 -0.012678674340370955 0.023454575594729521 0 0 0 0.0051628736514083284 -0.0091788662063809617 -0.016504936123059588 0 -0.016504936123059588 0.021061966126921398 0 0 0 0.0029707749801350519 0.0182387795791315 -0.0056537184681487622 0 -0.0056537184681487622 0.054759834501512471 0 0 0 0.018249653520160992 0.00086851231308127108 -0.003550402568450961 0 -0.003550402568450961 0.030141133068852577 0 0 0 0.0077524113454834898 -0.0054253837739897948 -0.013272291754068799 0 -0.013272291754068799 0.027809747476788105 0 0 0 0.0055960909256995983 0.015279334797262335 -0.0058083248401404157 0 -0.0058083248401404157 0.045876116982976861 0 0 0 0.015288862945059798 -0.0043268101158947525 -0.011624369879952634 0 -0.011624369879952634 0.037056136720085231 0 0 0 0.0081823316510476474 0.021433246353999413 -0.0053818430734641218 0 -0.0053818430734641218 0.064323459623242193 0 0 0 0.021439176494310402 0.0072620373049959164 0.001405214797885387 0 0.001405214797885387 0.037160912289918024 0 0 0 0.011105737398728499 -0.0082182358336939428 -0.015801361042611317 0 -0.015801361042611317 0.036006123935282422 0 0 0 0.0069469720253972026 -0.00041143713596414333 -0.015186777478297664 0 -0.015186777478297664 0.021160199842844785 0 0 0 0.0051871906767200215 -0.0061726915156328221 0.0053312912955397612 0 0.0053312912955397612 0.0028916678614160363 0 0 0 -0.00082025591355419647 -0.0042339612940185678 0.0043741219882903748 0 0.0043741219882903748 0.0035810848035620069 0 0 0 -0.00016321912261416105 0.0041522950287809501 0.0015867629219099011 0 0.0015867629219099011 0.037093911276164848 0 0 0 0.010311551576236422 -0.0029129487853825631 0.0076041459941617318 0 0.0076041459941617318 0.0046010548240759119 0 0 0 0.00042202650967335109 -0.0027951830639725006 0.0060373717854168979 0 0.0060373717854168979 -0.016912962758985906 0 0 0 -0.0049270364557395807 0.0097256159812055543 0.00062695615201585619 0 0.00062695615201585619 0.032243913590265905 0 0 0 0.010492382392867872 0.011919510364156061 0.0035166587684088702 0 0.0035166587684088702 0.031463710078802776 0 0 0 0.010845805110739737 0.01209767589997175 -0.0016889504407346934 0 -0.0016889504407346934 0.010428639275464177 0 0 0 0.0056315787938590166 0.00043844392935254994 0.0057378122844966573 0 0.0057378122844966573 -0.015823242268262538 0 0 0 -0.003846199584727511 -0.00054361118907764183 -0.015941822508180659 0 -0.015941822508180659 0.021334212682338982 0 0 0 0.0051976503733153212 0.024424276083872511 -0.0051221426721070476 0 -0.0051221426721070476 0.073388391132670386 0 0 0 0.024453166804135725 0.00046231305098931585 -0.0066368497571928685 0 -0.0066368497571928685 0.03997352555510103 0 0 0 0.010108959651522698 0.0065154313408092301 -0.0016179458468057462 0 -0.0016179458468057462 0.021926490251359176 0 0 0 0.0071104803980421849 -0.00015360989000567926 -0.0055699064550603361 0 -0.0055699064550603361 -0.0034601230334381228 0 0 0 -0.00090343323086095051 0.0012747036521609703 -0.0049056286248183589 0 -0.0049056286248183589 -0.0078400073498134121 0 0 0 -0.0016413259244131382 -0.0012378595490387667 -0.012319998085106976 0 -0.012319998085106976 -0.0060581017987830776 0 0 0 -0.0018239903369554611 -0.00057147452871531002 -0.011925224438184778 0 -0.011925224438184778 -0.0046948977847609541 0 0 0 -0.001316593078368955 -0.0013486244261127212 -0.0076468892995108506 0 -0.0076468892995108506 -0.016484315169711383 0 0 0 -0.0044582348989560261 -0.0022113301797156426 -0.0077348470885306719 0 -0.0077348470885306719 -0.014477744298094786 0 0 0 -0.0041722686194526348 0.00090952782541753319 -0.0047246170519818064 0 -0.0047246170519818064 -0.0051151702828367007 0 0 0 -0.0010514106143547641 0.00069510279467770771 -0.0055656357307103388 0 -0.0055656357307103388 -0.008677094095110938 0 0 0 -0.00199549782510828 -0.0031959791974484064 -0.014630842913209818 0 -0.014630842913209818 -0.0074655906030756114 0 0 0 -0.0026653924501310322 -0.0064644181189584538 -0.01611758544755304 0 -0.01611758544755304 -0.010072178773870566 0 0 0 -0.0041341492232072896 -0.0052727441331021363 -0.012803643865524128 0 -0.012803643865524128 -0.0049050909972652157 0 0 0 -0.0025444587825919629 -0.010399483694533251 -0.020203403567262024 0 -0.020203403567262024 -0.0061024453107945131 0 0 0 -0.0041254822513320244 -0.0087189719364101012 -0.020629365673255906 0 -0.020629365673255906 0.00047834816437286598 0 0 0 -0.0020601559430094216 -0.0079735187511056349 -0.01826121866183783 0 -0.01826121866183783 0.0013797376831730102 0 0 0 -0.0016484452669832672 -0.0045827056592547821 -0.016430075091706506 0 -0.016430075091706506 -0.0093356496891852103 0 0 0 -0.0034795888371100814 -2.6602454326618563e-05 -0.00032730060058794308 0 -0.00032730060058794308 0.00042413296598553529 0 0 0 9.9382627914645916e-05 0.00035366263101233031 2.9013814784262237e-05 0 2.9013814784262237e-05 -0.00033257186562951624 0 0 0 5.2726913456480062e-06 -0.00032143507990361656 0.00017511550179571955 0 0.00017511550179571955 0.00044732424948819023 0 0 0 3.1472292396254439e-05 0.00066241290751389847 -0.00037532599104916908 0 -0.00037532599104916908 -0.00040644189019634069 0 0 0 6.3992754329333934e-05 -0.003217004342207952 -0.0017518132571060496 0 -0.0017518132571060496 -0.0014475456289249067 0 0 0 -0.0011661374927831591 -0.00092633068605973978 -0.0028229156428589697 0 -0.0028229156428589697 -0.004972917876854055 0 0 0 -0.001474812140728532 0.00016699484531357278 -0.0013196585370139347 0 -0.0013196585370139347 -0.0018097562571703918 0 0 0 -0.00041069035296414924 -0.0019509419887372345 -0.0010791384301096496 0 -0.0010791384301096496 -0.00047819912894606439 0 0 0 -0.00060728527942088026 -0.0016846174365760505 -0.0039637030601895606 0 -0.0039637030601895606 -0.0055378912772575057 0 0 0 -0.0018056271784583891 -0.0041251628838440135 -0.0095467664540822283 0 -0.0095467664540822283 -0.011167197258659112 0 0 0 -0.0038230900356258646 -0.011608833057716067 -0.014619385597447687 0 -0.014619385597447687 -0.0081269920560322895 0 0 0 -0.0049339562784372071 -0.011874925386639257 -0.0090068454041202228 0 -0.0090068454041202228 -0.0047025975773791195 0 0 0 -0.0041443807410046496 -0.0035902141361496831 -0.0058769695716228698 0 -0.0058769695716228698 -0.0040664782395587462 0 0 0 -0.0019141730939270518 -0.0030441677944584231 -0.0053360783291800384 0 -0.0053360783291800384 -0.0023723666207005334 0 0 0 -0.0013541336037898241 -0.0046959830988729662 -0.00257091332003756 0 -0.00257091332003756 -0.0017283949464814152 0 0 0 -0.0016060945113385156 -0.0070397059628969361 -0.0038947400852316588 0 -0.0038947400852316588 -0.0021350093265157799 0 0 0 -0.0022936788223530957 -0.0013307419657784259 -0.0012565027279392016 0 -0.0012565027279392016 -0.00023072666998302793 0 0 0 -0.00039036715894047447 -0.014353057290793725 -0.0044109008856291635 0 -0.0044109008856291635 0.0010487352974151154 0 0 0 -0.0033260804983445968 -0.0066252068638121275 -0.0045334210005561482 0 -0.0045334210005561482 0.00041293777906914464 0 0 0 -0.0015530672711857041 -0.012071047629967024 -0.0086823547141382518 0 -0.0086823547141382518 0.00075324518700836673 0 0 0 -0.0028294506107398032 -0.017033052042839246 -0.0060905706160998552 0 -0.0060905706160998552 -0.0026539998294343725 0 0 0 -0.0049217629680683647 -0.01685628981810372 -0.013274768080539262 0 -0.013274768080539262 -0.0043664888880337038 0 0 0 -0.0053056946765343005 -0.0074501259732483449 -0.011286323461157113 0 -0.011286323461157113 -0.00059028450944098587 0 0 0 -0.0020101026206723605 -0.013584941212398727 -0.015098630826457626 0 -0.015098630826457626 -5.3829554227613485e-05 0 0 0 -0.003409692691656474 -0.015508831218081942 -0.017241521464646747 0 -0.017241521464646747 -0.0032046940073366947 0 0 0 -0.0046783813063547286 -0.02182804284309885 -0.014769563664550622 0 -0.014769563664550622 -0.0027728451189949141 0 0 0 -0.0061502219905234419 -0.023287414387588912 -0.016893227538278752 0 -0.016893227538278752 -0.00035891266912679853 0 0 0 -0.0059115817641789414 -0.016428564196162045 -0.017902149047717031 0 -0.017902149047717031 0.0020626521875820591 0 0 0 -0.0035914780021449114 -0.020545921941903633 -0.013969488958511633 0 -0.013969488958511633 2.9973718150833051e-05 0 0 0 -0.0051289870559381723 -0.019730230088335687 -0.0090564242498822889 0 -0.0090564242498822889 -0.00088994307114242943 0 0 0 -0.0051550432898696541 -0.027120943562758071 -0.0089675899133235815 0 -0.0089675899133235815 -0.0022169207537989788 0 0 0 -0.0073344660791391236 -0.023081361719608617 -0.0067786781386254269 0 -0.0067786781386254269 0.0019816513953059278 0 0 0 -0.0052749275810757279 -0.027462178621717293 -0.0047990479595606365 0 -0.0047990479595606365 -0.0014316084982821664 0 0 0 -0.0072234467799999758 -0.020861454503285859 -0.0041190564710412714 0 -0.0041190564710412714 0.00015144229619545868 0 0 0 -0.0051775030517726139 -0.012734145276567937 -0.021136358705540759 0 -0.021136358705540759 0.003282933031762747 0 0 0 -0.0023628030612012629 -0.011715170339958059 -0.020118065211159109 0 -0.020118065211159109 -7.2783829383471499e-06 0 0 0 -0.0029306121807241015 -0.011581317992536366 -0.017529448208908407 0 -0.017529448208908407 0.012251019652784745 0 0 0 0.00016742541506209463 -0.0086799148158559492 -0.020601001519966466 0 -0.020601001519966466 0.00087605138711044361 0 0 0 -0.0019509658571864597 -0.011431865236313121 -0.019292029375378876 0 -0.019292029375378876 -0.0041393903292070711 0 0 0 -0.0038928138913800758 -0.010420088840610908 -0.016812000195465249 0 -0.016812000195465249 -0.0020598717575669445 0 0 0 -0.0031199901495445048 -0.011970210067586473 -0.020493927265998191 0 -0.020493927265998191 -0.0005528222184361109 0 0 0 -0.003130758071505646 -0.01415014038129353 -0.020835239007246098 0 -0.020835239007246098 0.0022020696274749341 0 0 0 -0.0029870176884546074 -0.014838410724744511 -0.019892558480531286 0 -0.019892558480531286 -0.00052826586867948944 0 0 0 -0.0038416691483559862 -0.015395230603833521 -0.018223802866578001 0 -0.018223802866578001 -0.00069818024374823651 0 0 0 -0.004023352711895356 -0.017545167881487113 -0.018524175759786432 0 -0.018524175759786432 0.001869839282039043 0 0 0 -0.0039188321498620296 -0.011967635256067366 -0.019922796262546904 0 -0.019922796262546904 0.0052070878815924093 0 0 0 -0.0016901368436187392 -0.01318361806090973 -0.019647675013397259 0 -0.019647675013397259 0.0049616936288350288 0 0 0 -0.0020554811080185642 -0.0074362608453728274 -0.016776612884307374 0 -0.016776612884307374 0.011583770609180588 0 0 0 0.001036877440951961 -0.010164042368158543 -0.017051074185248316 0 -0.017051074185248316 0.011895126779998932 0 0 0 0.00043277110296008336 -0.0042906985314620782 -0.01551543335610589 0 -0.01551543335610589 0.011195191199406818 0 0 0 0.001726123166986171 -0.010465563747024731 -0.018236608060965775 0 -0.018236608060965775 0.0080839018387934836 0 0 0 -0.00059541547705782571 -0.0055356294919105715 -0.015370551531631804 0 -0.015370551531631804 0.0097272132571661375 0 0 0 0.001047895941313919 -0.0043695479995662923 -0.015752704489815153 0 -0.015752704489815153 0.0094973891872616178 0 0 0 0.0012819602969238453 -0.012659568872232241 -0.018330430318426294 0 -0.018330430318426294 0.0061976987833349817 0 0 0 -0.0016154675222243564 -0.011579265450018417 -0.017660398801856034 0 -0.017660398801856034 0.0069040590334426 0 0 0 -0.0011688016041440097 -0.013975366022006552 -0.020305144088293592 0 -0.020305144088293592 0.004059138129796809 0 0 0 -0.0024790569730524514 -0.018079818117227753 -0.019122090559242744 0 -0.019122090559242744 0.002603542481583232 0 0 0 -0.0038690689089110886 -0.021184415731935528 -0.016711338213070415 0 -0.016711338213070415 0.0014485504678436907 0 0 0 -0.0049339663160229454 -0.013498395207077574 -0.017772171206913046 0 -0.017772171206913046 0.0044658418123906252 0 0 0 -0.0022581383486718343 -0.017544393741126596 -0.019642026553117919 0 -0.019642026553117919 0.0035912918126190796 0 0 0 -0.0034882754821268791 -0.013933939468715507 -0.016442534264955122 0 -0.016442534264955122 0.0042702950049440594 0 0 0 -0.0024159111159428488 -0.02192497673352406 -0.016205657888461011 0 -0.016205657888461011 0.0025565271661734945 0 0 0 -0.0048421123918376274 -0.020945608040563168 -0.017698102313537332 0 -0.017698102313537332 0.0063872130023633344 0 0 0 -0.0036395987595500001 -0.001467584614128048 -0.016176472188156717 0 -0.016176472188156717 0.0077559759983042431 0 0 0 0.0015720978460440627 0.00080618743154647898 -0.012791311131064159 0 -0.012791311131064159 0.011163189927328399 0 0 0 0.0029923443397187333 -0.003640262746780254 -0.013673566295713948 0 -0.013673566295713948 0.012105421793052518 0 0 0 0.0021162897615680243 -0.013004705344734371 -0.017709831720189417 0 -0.017709831720189417 0.0067963748758605447 0 0 0 -0.0015520826172183561 -0.0056716656801253928 -0.016276835569196069 0 -0.016276835569196069 0.0070949041276600067 0 0 0 0.00035580961188363958 -0.034634696918219632 -0.0067777662323656451 0 -0.0067777662323656451 0.0017738154977852139 0 0 0 -0.0082152203551086878 -0.043219950849602735 -0.0050348734446460375 0 -0.0050348734446460375 -0.0011697002558515787 0 0 0 -0.01109741277636362 -0.033746923923065671 -0.005382403269786229 0 -0.005382403269786229 -0.0017436300662662385 0 0 0 -0.0088726384973328923 -0.03911480889078478 -0.0054313829567242322 0 -0.0054313829567242322 0.00063667816389356702 0 0 0 -0.0096195326817228866 -0.029685046471407572 -0.0066512748423013315 0 -0.0066512748423013315 -0.00090981214834817692 0 0 0 -0.0076487146549388818 -0.027048440914135163 -0.013295955986216211 0 -0.013295955986216211 0.0010852138214265672 0 0 0 -0.006490806773177149 -0.030371904435121805 -0.013324073947151738 0 -0.013324073947151738 0.00090510589470682579 0 0 0 -0.0073666996351038072 -0.022190573278075332 -0.014144671521963192 0 -0.014144671521963192 -0.00014015169909242786 0 0 0 -0.0055826812442920093 -0.025619980974061096 -0.017397725704620781 0 -0.017397725704620781 0.0031836046440598675 0 0 0 -0.005609094082500321 -0.02802460678740798 -0.014588691254248776 0 -0.014588691254248776 0.0029677720594795121 0 0 0 -0.0062642086819820197 -0.028024851904372705 -0.01451959434623562 0 -0.01451959434623562 0.0022756819149236662 0 0 0 -0.0064372924973623014 -0.028513511414616798 -0.016266516144953114 0 -0.016266516144953114 0.0057894480987960018 0 0 0 -0.0056810158289551591 -0.033618813436542785 -0.011428862607259171 0 -0.011428862607259171 0.0013523395725210871 0 0 0 -0.0080666184660054385 -0.036732995235015553 -0.012103293349729066 0 -0.012103293349729066 0.0029974139225358298 0 0 0 -0.0084338953281199169 -0.035681182308589299 -0.011913468756662715 0 -0.011913468756662715 0.0011355638425019077 0 0 0 -0.00863640461652182 -0.034117501225607971 -0.010568963127817854 0 -0.010568963127817854 0.0020536854844208086 0 0 0 -0.0080159539352969156 -0.047081158513138543 -0.0077384107214548414 0 -0.0077384107214548414 0.00047531662591338009 0 0 0 -0.011651460471806319 -0.04484200971816929 -0.0042024152444763707 0 -0.0042024152444763707 -8.2039082224816262e-06 0 0 0 -0.011212553406597964 -0.048937804771687854 -0.0059227053626562665 0 -0.0059227053626562665 0.0009857772999934955 0 0 0 -0.011988006867923562 -0.069066317723294968 -0.0035781211686586761 0 -0.0035781211686586761 0.0010066753451462018 0 0 0 -0.017014910594537219 -0.05829713286300231 -0.0043984170825020841 0 -0.0043984170825020841 0.00094322316026207442 0 0 0 -0.014338477425685031 -0.052778249545640588 -0.0026692902838168497 0 -0.0026692902838168497 -9.9581401670711944e-05 0 0 0 -0.013219457736827811 -0.047478000016003857 -0.0096379132738174389 0 -0.0096379132738174389 0.0035177442977621376 0 0 0 -0.010990063929560451 -0.042923252688216867 -0.007987512867078661 0 -0.007987512867078661 0.00090369298482140259 0 0 0 -0.010504889925848859 -0.031643788905633019 -0.011647645293821479 0 -0.011647645293821479 0.0036234882021074499 0 0 0 -0.0070050751758813923 -0.032982793694341872 -0.013517827377714786 0 -0.013517827377714786 0.0059724421800705363 0 0 0 -0.0067525878785678617 -0.032392894167047465 -0.012297755348397055 0 -0.012297755348397055 0.010616892944092182 0 0 0 -0.0054440003057388275 -0.038411048168461276 -0.0078915297214202929 0 -0.0078915297214202929 0.0010046710311434615 0 0 0 -0.0093515942843294397 -0.038279747237350989 -0.0081825032980667456 0 -0.0081825032980667456 0.0042607956556444948 0 0 0 -0.0085047378954266478 -0.046782519169106598 -0.0019341631121723019 0 -0.0019341631121723019 0.005380081495328759 0 0 0 -0.010350609418444442 -0.045910821661659773 -0.0086603013506941356 0 -0.0086603013506941356 0.0048568446780690167 0 0 0 -0.010263494245897717 -0.05398700396368708 -0.004283500407988583 0 -0.004283500407988583 0.0009146385644863142 0 0 0 -0.013268091349800226 -0.052449712766533596 -0.0030501094356518987 0 -0.0030501094356518987 0.00072962517448049713 0 0 0 -0.012930021898013344 -0.069417349015082619 -0.0020457972583804674 0 -0.0020457972583804674 0.0014665730739442107 0 0 0 -0.016987693985284574 -0.010473898125757747 -0.014166290596134834 0 -0.014166290596134834 0.0094270944807831603 0 0 0 -0.00026170091124366746 0.0050627602418707035 -0.021714527383265972 0 -0.021714527383265972 0.017413426417268729 0 0 0 0.0056190466647848963 -0.011481162771160913 -0.017617021079429557 0 -0.017617021079429557 0.0097878492488367094 0 0 0 -0.00042332838058107766 -0.013608638815239688 -0.015254498015002005 0 -0.015254498015002005 0.0047169610723468702 0 0 0 -0.0022229194357231974 -0.02450763759114899 -0.014341243257199324 0 -0.014341243257199324 0.0050229399226846549 0 0 0 -0.0048711744171160976 -0.023215697150165596 -0.015138407905359502 0 -0.015138407905359502 0.0091051754889308056 0 0 0 -0.0035276304153087218 -0.014399430149838126 -0.017695756547660563 0 -0.017695756547660563 0.011161280356173545 0 0 0 -0.00080953744841612968 -0.023876850902715602 -0.0099419517527272044 0 -0.0099419517527272044 0.011902103345961257 0 0 0 -0.0029936868891885793 -0.036467185870629082 -0.0066062538059032117 0 -0.0066062538059032117 0.0052585649292674619 0 0 0 -0.0078021552353404189 -0.031977423515221579 -0.0039375455012004013 0 -0.0039375455012004013 0.0080290919193137661 0 0 0 -0.005987082898976967 -0.026383712342235452 -0.012341224306944912 0 -0.012341224306944912 0.012865206681608898 0 0 0 -0.0033796264151566419 -0.012269217175657654 -0.014004740035197649 0 -0.014004740035197649 0.015550570412892872 0 0 0 0.00082033830930877683 -0.011450754845325609 -0.013261411414412276 0 -0.013261411414412276 0.017406844553333523 0 0 0 0.0014890224270019542 0.0017872892432305582 -0.01727748064901187 0 -0.01727748064901187 0.02336276343988708 0 0 0 0.0062875131707793991 0.01103815229028597 -0.029100252465098148 0 -0.029100252465098148 0.047310156207211129 0 0 0 0.014587077124374263 -0.062293337030372022 0.0024156224519367164 0 0.0024156224519367164 0.024787808058464422 0 0 0 -0.0093763822429768773 0.060710189168095632 -0.027342787921879066 0 -0.027342787921879066 0.022578620060264842 0 0 0 0.020822202307090129 0.0017891204117433642 -0.0011876818936397771 0 -0.0011876818936397771 0.0053962877424109101 0 0 0 0.0017963520385385684 0.016345825015275213 -0.01565020301305281 0 -0.01565020301305281 0.0038425216047182492 0 0 0 0.0050470866549983742 0.011910796159557632 -0.012411858145428528 0 -0.012411858145428528 0.011117827398104713 0 0 0 0.0057571558894155689 0.0045063551334767549 -0.0030709859893497163 0 -0.0030709859893497163 0.013551637900167083 0 0 0 0.0045144982584109598 0.032387573923319535 -0.0095038790969241005 0 -0.0095038790969241005 0.012011981574941988 0 0 0 0.011099888874565367 0.0063190718272975697 -0.0042809870300210568 0 -0.0042809870300210568 0.018998113243293965 0 0 0 0.0063292962676478838 0.01377565280059756 -0.0083861580580322781 0 -0.0083861580580322781 0.013445653920408362 0 0 0 0.0068053266802514112 0.010339657306773581 -0.013989708680581886 0 -0.013989708680581886 0.008671983680333506 0 0 0 0.0047529102467767925 -0.028661680009379908 -0.008986776666845317 0 -0.008986776666845317 0.0084738742256436905 0 0 0 -0.0050469514459340614 -0.034962625268095168 -0.010157015183442218 0 -0.010157015183442218 0.013090651881350335 0 0 0 -0.0054679933466861841 -0.027576347946701649 -0.0085033124283334371 0 -0.0085033124283334371 0.01120337706726024 0 0 0 -0.0040932427198603488 -0.045360452376670746 -0.010383283953423942 0 -0.010383283953423942 0.0084067185846773418 0 0 0 -0.009238433447998351 -0.027438567075628376 -0.0055997367700380482 0 -0.0055997367700380482 0.017051033364371332 0 0 0 -0.0025968834278142644 -0.031426398816182671 -0.0036033135684149786 0 -0.0036033135684149786 0.0048375794896103053 0 0 0 -0.0066472048316431089 -0.039530097464119771 -0.0085660845608792752 0 -0.0085660845608792752 0.045961765795303172 0 0 0 0.0016079170827958331 -0.02595278319840863 -8.2853507698564532e-05 0 -8.2853507698564532e-05 0.018647061987322827 0 0 0 -0.0018264303027714351 -0.022708177480591014 -0.0059168726827149992 0 -0.0059168726827149992 0.0082066119118097136 0 0 0 -0.0036253913921953235 -0.020048322770849995 -0.0063231039006271597 0 -0.0063231039006271597 0.020494513172591849 0 0 0 0.00011154760043547221 -0.022299858768350188 -0.0056915393291304441 0 -0.0056915393291304441 0.019454018516712905 0 0 0 -0.00071146006290932762 -0.019251406370081613 -0.0066977436861326844 0 -0.0066977436861326844 0.022734785788499953 0 0 0 0.00087084485460458758 -0.019648692589463449 -0.0063839993406192667 0 -0.0063839993406192667 0.029217444094886382 0 0 0 0.0023921878763557367 -0.015341333742119375 -0.011685591899237981 0 -0.011685591899237981 0.022674191841996746 0 0 0 0.001833214524969335 -0.01434534577399418 -0.013179240649736898 0 -0.013179240649736898 0.01401437842857069 0 0 0 -8.2741836355881143e-05 -0.017305383560909687 -0.00863427181844581 0 -0.00863427181844581 0.014157835713475064 0 0 0 -0.00078688696185864188 -0.017601214185154618 -0.011499577472776638 0 -0.011499577472776638 0.011444478019189436 0 0 0 -0.0015391840414912816 -0.018342346117126075 -0.0088940782710634353 0 -0.0088940782710634353 0.010851898097274382 0 0 0 -0.0018726120049629216 -0.01768155736303223 -0.011162382604690338 0 -0.011162382604690338 0.0072476352138762905 0 0 0 -0.0026084805372889744 -0.024191552554209024 -0.011135831652503828 0 -0.011135831652503828 0.0097564433394332212 0 0 0 -0.0036087773036939455 -0.018682903455170048 -0.010520384112531769 0 -0.010520384112531769 0.0081943831293070923 0 0 0 -0.0026221300814657442 -0.019657378622163733 -0.011540733453720108 0 -0.011540733453720108 0.0058600469648091152 0 0 0 -0.0034493329143386528 -0.022888965918359899 -0.011100812487399837 0 -0.011100812487399837 0.0073115266658555778 0 0 0 -0.0038943598131260665 -0.018550884522003305 -0.011882118167377081 0 -0.011882118167377081 0.0045095740629940428 0 0 0 -0.0035103276147523121 -0.019376432297523269 -0.011139344978507298 0 -0.011139344978507298 0.0046267715610811 0 0 0 -0.0036874151841105318 -0.019765520882587873 -0.011363783209876306 0 -0.011363783209876306 0.0079033421090078382 0 0 0 -0.0029655446933950225 -0.014604700983554014 -0.011470302692960094 0 -0.011470302692960094 0.0037602799668743359 0 0 0 -0.0027111052541698988 -0.016269201856938489 -0.011796872875085976 0 -0.011796872875085976 0.0078569888356195827 0 0 0 -0.0021030532553297232 -0.017074624020583073 -0.011718659202611947 0 -0.011718659202611947 0.0047946517416762591 0 0 0 -0.0030699930697267036 -0.015837250542562641 -0.011297549366876283 0 -0.011297549366876283 0.0015724063798843099 0 0 0 -0.0035662110406695889 -0.015113334523386899 -0.011718455343020462 0 -0.011718455343020462 0.0036302539553542991 0 0 0 -0.0028707701420081812 -0.015560324280018897 -0.0086756280182684331 0 -0.0086756280182684331 -0.0026132460460699392 0 0 0 -0.0045433925815222126 -0.017133653216410361 -0.010062735506430991 0 -0.010062735506430991 0.00079123397140673513 0 0 0 -0.0040856048112509202 -0.014874394986748503 -0.0098478908479591454 0 -0.0098478908479591454 -0.0019330858634231049 0 0 0 -0.0042018702125428981 -0.019681083660467939 -0.0095006802054808381 0 -0.0095006802054808381 0.0068438779553035012 0 0 0 -0.0032093014262911043 -0.017232070519511991 -0.0097384139000015607 0 -0.0097384139000015607 0.0019769823981418688 0 0 0 -0.003813772030342541 -0.019305975505946541 -0.010387107662733958 0 -0.010387107662733958 0.0043409110367726988 0 0 0 -0.0037412661172934632 -0.018145379584291951 -0.0072949402866125806 0 -0.0072949402866125806 0.00044684955587775965 0 0 0 -0.0044246325071035514 -0.019282169828151119 -0.0075961190164765824 0 -0.0075961190164765824 0.0053400519569921645 0 0 0 -0.0034855294677897386 -0.016270594659319959 -0.0069880202249350837 0 -0.0069880202249350837 0.0061383726040697972 0 0 0 -0.0025330555138125266 -0.016712199104947409 -0.0077386535645578847 0 -0.0077386535645578847 0.013532195303761041 0 0 0 -0.00079500095029659545 -0.019527979197368622 -0.0090890371428519467 0 -0.0090890371428519467 0.011246602619121859 0 0 0 -0.0020703441445616144 -0.018982001703705884 -0.0090630946510790594 0 -0.0090630946510790594 0.010845715829172486 0 0 0 -0.0020340714686333666 -0.016180027075389292 -0.0065058144150818981 0 -0.0065058144150818981 0.021628154138189026 0 0 0 0.0013620317656999337 0.0055291551853812182 -0.0095371243354294144 0 -0.0095371243354294144 0.020482202213641165 0 0 0 0.0065028393497555403 0.010200645132562962 -0.0055749130399719554 0 -0.0055749130399719554 0.03063475591039648 0 0 0 0.01020885026073986 -0.012328602645499176 -0.007146445170780568 0 -0.007146445170780568 0.021658224173775498 0 0 0 0.0023324053820690804 -0.0028131247433939577 -0.011854312477045548 0 -0.011854312477045548 0.023063569209032742 0 0 0 0.0050626111164097098 0.0017845184618033305 -0.0099862052417875602 0 -0.0099862052417875602 0.019484160198224632 0 0 0 0.0053171696650070044 0.010606546136146977 -0.0079497693148741777 0 -0.0079497693148741777 0.017218010158407959 0 0 0 0.0069561390736387618 -0.022765502919807001 -0.0084844456859009543 0 -0.0084844456859009543 0.018331376153708279 0 0 0 -0.0011085316915246668 0.0081617225441684878 -0.0050865006909307647 0 -0.0050865006909307647 0.024522629393372724 0 0 0 0.0081710879843853047 0.0072783598254714532 -0.0083947482829123121 0 -0.0083947482829123121 0.016925845151220476 0 0 0 0.0060510512441730169 0.003228435282266906 -0.013454743911994804 0 -0.013454743911994804 0.009158640024028164 0 0 0 0.0030967688265737814 0.017273679367156375 -0.0077131445877994254 0 -0.0077131445877994254 0.014058436129506302 0 0 0 0.0078330288741656484 -0.026771376672539156 -0.0090089872414044758 0 -0.0090089872414044758 0.013093504548679125 0 0 0 -0.0034194680309649981 -0.023389617054219988 -0.011485669704574264 0 -0.011485669704574264 0.0080578445186605396 0 0 0 -0.0038329431338898733 -0.02418133498311606 -0.010711700460667509 0 -0.010711700460667509 0.0085471853265500775 0 0 0 -0.0039085374141414747 -0.020315529933850218 -0.0084778539711197198 0 -0.0084778539711197198 0.01508289218945108 0 0 0 -0.0013081594360997983 
</DataArray>
<DataArray type="Float64" Name="cross_section_updated" format="ascii">
1 1 1 1 1 1 1 1 1 1 1 1 1 1 1 1 1 1 1 1 1 1 1 1 1 1 1 1 1 1 1 1 1 1 1 1 1 1 1 1 1 1 1 1 1 1 1 1 1 1 1 1 1 1 1 1 1 1 1 1 1 1 1 1 1 1 1 1 1 1 1 1 1 1 1 1 1 1 1 1 1 1 1 1 1 1 1 1 1 1 1 1 1 1 1 1 1 1 1 1 1 1 1 1 1 1 1 1 1 1 1 1 1 1 1 1 1 1 1 1 1 1 1 1 1 1 1 1 1 1 1 1 1 1 1 1 1 1 1 1 1 1 1 1 1 1 1 1 1 1 1 1 1 1 1 1 1 1 1 1 1 1 1 1 1 1 1 1 1 1 1 1 1 1 1 1 1 1 1 1 1 1 1 1 1 1 1 1 1 1 1 1 1 1 1 1 1 1 1 1 1 1 1 1 1 1 1 1 1 1 1 1 1 1 1 1 1 1 1 1 1 1 1 1 1 1 1 1 1 1 1 1 1 1 1 1 1 1 1 1 1 1 1 1 1 1 1 1 1 1 1 1 1 1 1 1 1 1 1 1 1 1 1 1 1 1 1 1 1 1 1 1 1 1 1 1 1 1 1 1 1 1 1 1 1 1 1 1 1 1 1 1 1 1 1 1 1 1 1 1 1 1 1 1 1 1 1 1 1 1 1 1 1 1 1 1 1 1 1 1 1 1 1 1 1 1 1 1 1 1 1 1 1 1 1 1 1 1 1 1 1 1 1 1 1 1 1 1 1 1 1 1 1 1 1 1 1 1 1 1 1 1 1 1 1 1 1 1 1 1 1 1 1 1 1 1 1 1 1 1 1 1 1 1 1 1 1 1 1 1 1 1 1 1 1 1 1 1 1 1 1 1 1 1 1 1 1 1 1 1 1 1 1 1 1 1 1 1 1 1 1 1 1 1 1 1 1 1 1 1 1 1 1 1 1 1 1 1 1 1 1 1 1 1 1 1 1 1 1 1 1 1 1 1 1 1 1 1 1 1 1 1 1 1 1 1 1 1 1 1 1 1 1 1 1 1 1 1 1 1 1 1 1 1 1 1 1 1 1 1 1 1 1 1 1 1 1 1 1 1 1 1 1 1 1 1 1 1 1 1 1 1 1 1 1 1 1 1 1 1 1 1 1 1 1 1 1 1 1 1 1 1 1 1 1 1 1 1 0.0020168889466601805 1 1 0.0020441715233126029 1 1 0.0020639561104617197 1 1 1 1 1 1 1 1 1 1 1 1 1 0.0020828980831578748 1 1 1 1 1 0.0021023891672648123 1 1 1 1 1 1 1 1 1 1 1 1 1 1 1 1 1 1 1 1 1 1 1 1 1 1 1 1 1 1 1 1 1 1 1 1 1 1 1 1 1 1 1 1 1 1 1 1 1 1 1 1 1 1 1 1 1 1 1 1 1 1 1 1 1 1 1 1 1 1 1 1 1 1 1 1 1 1 1 1 1 1 1 1 1 1 1 1 1 1 1 1 1 1 1 1 1 1 1 1 1 1 1 1 1 1 1 1 1 1 1 1 1 1 1 1 1 1 1 1 1 1 1 1 1 1 1 1 1 1 1 1 1 1 1 1 1 1 1 1 1 1 1 1 1 1 1 1 1 1 1 1 1 1 1 1 1 1 1 1 1 1 1 1 1 1 1 1 0.0021226211972700743 1 1 1 0.0021438180647767031 1 1 0.0021652180415165844 1 1 1 1 1 1 1 1 1 1 1 0.0021867466149513614 1 1 1 1 0.0022073538217754706 1 1 1 1 1 1 1 1 1 1 1 1 1 1 1 1 1 1 1 1 1 1 1 1 1 1 1 1 1 1 1 1 1 1 1 1 1 1 1 1 1 1 1 1 1 1 1 1 1 1 1 1 1 1 1 1 1 1 0.0010314076060075859 1 1 1 1 1 1 1 1 1 1 1 1 1 1 0.0010456377262266893 1 1 0.0010382340675473964 1 0.0010536053539111647 1 1 1 1 1 1 1 1 1 1 1 1 1 0.0010611690304106684 1 1 1 1 1 1 1 1 1 1 1 1 1 1 1 1 1 1 1 1 1 1 1 1 1 1 1 1 1 1 1 1 1 1 1 1 1 1 1 1 1 1 1 1 1 1 1 1 1 1 1 1 1 1 1 1 1 1 1 1 1 1 1 1 1 1 1 1 1 1 1 1 1 1 1 1 1 1 1 1 1 1 1 1 1 1 1 1 1 1 1 1 1 1 1 1 1 1 1 1 1 1 1 1 1 1 1 1 1 1 1 1 1 1 1 1 1 1 1 1 1 1 1 1 1 1 1 1 1 1 1 1 1 1 1 1 0.0010044999196298404 1 1 0.0010112964245521951 1 0.0010158360212195576 1 1 1 1 1 1 1 1 1 1 1 1 1 1 1 1 1 1 1 1 1 1 1 1 1 1 1 1 1 1 1 1 1 1 1 1 1 1 1 1 1 1 1 1 1 1 1 0.0010255323820620708 1 1 1 1 1 0.0010204394267612344 1 1 1 1 1 1 1 
</DataArray>
<DataArray type="Float64" Name="displacement_divergence" format="ascii">
-3.5645924510139493e-05 -3.6984159917972741e-05 -2.9552226285304575e-05 -3.1638310054798917e-05 -3.0451541569724047e-05 -3.0439448897737535e-05 -2.7525427964315616e-05 -2.9417207847111063e-05 -2.8092774212603151e-05 -2.4045448002561387e-05 -2.837379664284368e-05 -2.2565344750549223e-05 -2.9292444804049103e-05 -2.5907422828123251e-05 -3.0788637024906367e-05 -2.8508663049261789e-05 -2.7080702288315746e-05 -3.0063341461612207e-05 -1.9420274635648696e-05 -1.9813141800474522e-05 -2.0940221791549569e-05 -2.3580096717190109e-05 -2.4286608326942531e-05 -2.1014544264576837e-05 -2.3239970072118668e-05 -2.2805082427931738e-05 -2.370279911277604e-05 -2.351545767734549e-05 -1.9333345182606869e-05 -1.8991324904321026e-05 -1.7614234681512367e-05 -1.7095468365364252e-05 -1.6134174836924355e-05 -1.6239900143652587e-05 -1.8736386447817657e-05 -2.2812826880855539e-05 -2.190727350340097e-05 -1.9137564974374769e-05 -2.179960222794158e-05 -2.3205826538067324e-05 -2.015109774604462e-05 -1.8239276429550094e-05 -1.8547237002761875e-05 -1.5888598452348974e-05 -1.8790970399602746e-05 -1.707173654582343e-05 -1.2837338023955515e-05 -1.5324144146453716e-05 -3.0762541067463526e-05 -2.7471124441824834e-05 -3.2883454884907523e-05 -2.7753684418678853e-05 -2.4767052987492281e-05 -2.6566150140549129e-05 -2.6127414673994882e-05 -2.7044947100782482e-05 -2.3181880507615638e-05 -2.7815391287653182e-05 -2.4440598516247038e-05 -2.6567846452232191e-05 -3.1882353112371941e-05 -3.1128700288470032e-05 -2.9969255972245564e-05 -3.5695027661813483e-05 -3.7310579693946823e-05 -3.0502076578010148e-05 -3.333127819300773e-05 -4.0556856415561531e-05 -3.3861008141975504e-05 -3.4372532312150585e-05 -3.487684768766834e-05 -4.4871043784416425e-05 -2.4691947695221978e-05 -2.3155991151048653e-05 -2.9240077639947854e-05 -2.8533460364535622e-05 -2.3440959086765558e-05 -3.0895271754921309e-05 -2.8811395118945855e-05 -2.7055696411716991e-05 -2.3618422339341667e-05 -1.9803235967233708e-05 -1.9862140267587656e-05 -1.8346395321114331e-05 -1.6380821896317039e-05 -2.3584058420923904e-05 -1.3327169858884648e-05 -1.4920360792382919e-05 -1.481301595929165e-05 -9.7468015143125939e-06 -1.1885218067932613e-05 -1.2793115799092196e-05 -8.1726302084433961e-06 -6.8326126395988195e-06 -1.8900509915450073e-05 -2.0988959847074058e-05 -1.4233350320742132e-05 -1.5276625158477198e-05 -1.7158512549406659e-05 -1.8901025852869678e-05 -1.2566065080471124e-05 -1.7939591311605209e-05 -3.8915464907220674e-07 -1.2265052758297224e-05 -7.3319873472292658e-06 -4.2581444280316669e-06 1.4299898079107297e-06 -9.5142795134567771e-07 -1.1787498685060559e-06 -1.0146068107799559e-06 1.0557748089389793e-05 -1.2896076944266774e-05 -8.8807296501608034e-06 -8.2398166224195886e-06 -1.7839329796441529e-05 -1.8498188919546224e-05 -2.4797956872737607e-05 -2.8644120701011827e-05 -3.0850237891771323e-05 -3.5708790578118288e-05 -4.552648179633232e-05 -3.6849572884704396e-05 -3.6048712069690617e-05 -3.8526422161694102e-05 -3.330312055229234e-05 -4.6221164871055654e-05 -3.6589395317654145e-05 -2.7746523107775197e-05 -2.2735866283287029e-05 -2.8987773835429816e-05 6.5706487255881067e-06 3.163522256080738e-06 1.403079048634412e-06 1.8069784678317785e-06 4.5760190622839049e-06 9.6894893411809215e-06 5.4015544451089969e-06 4.7598715383549159e-06 5.4249501380007013e-06 4.586240279754074e-06 8.0541436661697008e-07 4.0802235528605713e-06 3.3738563934409506e-06 4.3162243422681214e-06 4.7316378735606996e-06 2.9635311728944493e-05 2.3038646206140049e-06 1.5738762395648475e-05 2.320868833380422e-06 2.6255268496979002e-05 1.3947206562241968e-05 2.5578257446877894e-05 8.0696466897144266e-06 6.0164361291761945e-06 1.0595696711179461e-05 1.134465062132157e-06 4.811341324746189e-07 6.1581073494434868e-06 5.4471270602881032e-07 7.8816399534092631e-06 -2.7912301899074465e-06 4.4863623537336992e-06 1.1787194183446884e-07 -1.2107669407809841e-06 -4.3911569731603671e-06 -2.4229417751801848e-06 -3.1953861542193649e-06 -3.3527835289516041e-06 -7.6487199386942945e-06 -6.3977931105257844e-06 -7.5242171890562475e-06 -9.7898524180143369e-06 -1.1126526926470111e-05 -4.153517538581162e-06 -4.4975282349820155e-06 -5.3157863540547584e-06 -6.5699883279440541e-06 -3.1805186755718116e-06 -4.3908641800119032e-06 -8.4657749030895098e-07 -2.4526530607484212e-06 -2.274811822269662e-06 5.9578717164228774e-07 -2.4282202701158533e-06 3.6552434415245943e-06 1.6125640765806794e-06 -5.7199311379002942e-07 5.2583481727951555e-06 -7.9871818769605238e-07 1.1041846738626563e-05 1.7250066872507571e-06 7.4691374115169887e-06 1.3970286414496097e-06 4.6116316415488713e-06 6.5300280427688468e-06 3.3407431361664528e-07 2.4907371200557404e-06 1.9678920057601629e-06 -6.8756269074055494e-07 -4.474945714048849e-06 -1.5598912871218503e-06 -2.0850254926939657e-06 -4.647663281334914e-06 -5.8431951912613387e-06 -4.2891641728868354e-06 -2.942640967159025e-06 -5.7755777710717269e-06 -5.5384924593722704e-06 -7.8046053154594337e-06 -4.6918292626616549e-06 -5.8327857818491423e-06 -3.2007879346963775e-06 -4.7683953470175396e-06 -3.4877084022978399e-06 -1.1035574574600201e-05 -1.0230814452906666e-05 -1.2340590869667905e-05 -9.5853761798666797e-06 -8.2770121423426044e-06 -7.3562288743257378e-06 -7.2748728045763073e-06 -6.0087237283474837e-06 -7.6447846137678642e-06 -8.8107714909297958e-06 -7.8540817884309334e-06 -9.0081167336368449e-06 -1.0459183725964438e-05 -1.3075528613171356e-05 -1.3274925772243447e-05 -1.3015810058185882e-05 -1.5220313385241273e-05 -1.459595226887969e-05 -1.592021884445773e-05 -1.4946084341503214e-05 -1.1699801191852682e-05 -1.3226538158887267e-05 -1.1546488995496709e-05 -1.0878520050275313e-05 -9.8975329520665359e-06 -8.594202161853973e-06 -1.0104809265873677e-05 -1.0817403624995089e-05 -1.1538483611877939e-05 -1.3547521314817677e-05 -1.5361736751068774e-05 -1.6670001146578083e-05 -5.7545134370242167e-06 -5.157701063688193e-06 -6.7363671530392009e-06 -6.6584989878182056e-06 -8.2211041630619189e-06 -7.0195758025551435e-06 -8.1542909514285384e-06 -8.4046983733947412e-06 -6.110727668072383e-06 -6.7703975303585708e-06 -5.0779915164925688e-06 -6.5973003975334876e-06 -6.3579593365775611e-06 -4.8329342462889143e-06 -6.0186839475971751e-06 -3.2577802369837968e-06 -6.8625181560817541e-06 -4.7683796774036525e-06 -4.8447966193466528e-06 -5.0723470017786539e-06 -6.2591299917590414e-06 -4.3850002304320509e-06 -5.6501495579686783e-06 -6.5316131395800937e-06 -8.2138206322776493e-06 -6.0075071827343535e-06 -6.4618430489208188e-06 -3.7677043774367628e-06 -4.4628224509617252e-06 -7.3247249473677388e-06 -7.742937057165789e-06 -7.3281935365777297e-06 -1.053480799197369e-05 -1.3561048571580581e-05 -1.4713037483940712e-05 -1.9261613530217676e-05 -1.6290315579059431e-05 -1.4354486661080162e-05 -1.1435463421116497e-05 -1.7049447926828331e-05 -1.1914502865153126e-05 -9.4255410376600152e-06 -7.3463482393529786e-06 -7.5852025205816614e-06 -8.0671544136883084e-06 -4.3927937315248571e-06 -1.163683153382822e-05 -1.3994140578568033e-05 -1.1623018414268689e-05 -1.0137834226887529e-05 -1.6827039029384644e-05 -1.1605424002828687e-05 -8.177347415192031e-06 -9.932003485204554e-06 -2.1976468583159326e-06 -7.0731400262159352e-06 -8.5857662421869827e-06 -5.1185482298732814e-06 -5.5042060388429069e-06 -2.7816797607249046e-06 2.7575388391011809e-06 5.3841899015103303e-08 1.2187259585304529e-06 -2.7340875013104775e-06 -3.5672914761491571e-07 2.8930426368568079e-06 -1.1384928816602614e-06 1.9489984859776749e-06 -2.028061281671054e-06 -3.0585561172138349e-06 -3.6217096067996015e-06 -2.3307172722119179e-06 -5.2380834421087876e-06 -3.6331788057641358e-06 -5.5025285342747358e-06 -4.8609616922600993e-06 -6.0930668060226812e-06 -3.9971386906924306e-06 -3.206012405486985e-06 -4.7317077933803509e-05 -4.3121863563953876e-05 -4.1742602799901399e-05 -3.823472039348449e-05 -4.0795349940984967e-05 -4.9353530956161504e-05 -5.1551812266100221e-05 -4.4031958954477884e-05 -4.1167003887707567e-05 -3.738655536876962e-05 -4.1257600698218043e-05 -4.1238438390619007e-05 -3.8849341532265529e-05 -3.1261112206686364e-05 -3.5596582429736699e-05 -4.389497611824666e-05 -2.9407776214423532e-05 -4.0572370510356198e-05 -3.0797337926987035e-05 -3.0660727189410828e-05 -3.0344002139822671e-05 -3.0366102535370846e-05 -3.1525491635300403e-05 -2.7357907774895e-05 -2.5949936195227707e-05 -2.443379672369535e-05 -2.4291411178395634e-05 -2.0217332030307054e-05 -1.7563872017252004e-05 -2.0749678534795961e-05 -2.231145476377618e-05 -2.2971590957582827e-05 -1.9199791918246379e-05 -1.556948594300426e-05 -2.3285829615009091e-05 -1.678662748735921e-05 -2.0114220065120204e-05 -2.4378030432643414e-05 -1.5032406999314003e-05 -2.1858776688331834e-05 -1.9886842025542349e-05 -3.3304275754505674e-05 -3.1532088447786417e-05 -2.9879928340246143e-05 -2.2028901726173226e-05 -2.9234073497918402e-05 -3.7741734460689719e-05 -3.3282266475259967e-05 -4.0178002374791465e-05 -3.5433118084318315e-05 -4.0648783963841667e-05 -3.0436351761152498e-05 -3.7406963750181542e-05 -5.1059899358567857e-05 -5.3030090446285585e-05 -5.8530744145492605e-05 -4.7095255616522858e-05 -5.1810796438776902e-05 -4.0228398312151025e-05 -4.8288825754787433e-05 -3.9935555246338046e-05 -6.0492893933168635e-05 -8.3564818180481321e-05 -5.7455306671257702e-05 -5.9512531501071327e-05 -7.2635868231497099e-05 -6.4876766501473899e-05 -4.9289863266219476e-05 -5.4716888826283464e-05 -5.3199598412687272e-05 -3.9031120872907061e-05 -3.9929309003731867e-05 -3.5459221949770439e-05 -3.7037306825223775e-05 -4.5830614936061991e-05 -3.9934074564014435e-05 -1.996202907007436e-05 -1.3725464006363302e-05 -1.1668020498765389e-05 -3.3272398041426401e-05 -2.3740011680168232e-05 -3.5202184942926655e-05 -2.7677220237276861e-05 -2.5172576452760541e-05 -1.6063183209444942e-05 -2.4891273495094555e-05 -1.6684535953487542e-05 -6.7920548912720989e-06 -1.2185377828404881e-05 -3.7293664532751455e-06 -1.3096634616861861e-05 -5.1721545447795995e-06 4.8679924912895038e-06 -9.6520152534007713e-06 3.1878070313261339e-06 4.5743150938391098e-06 2.1101073525772032e-05 2.0935353154586197e-05 1.1523091391734259e-06 -3.4473598821057065e-06 2.311984112606159e-05 5.0416107423178601e-05 4.4442780953513059e-05 4.9953170813438739e-05 2.6889150220586614e-05 1.2862465753986383e-05 1.9355010920337422e-05 8.6031954738459979e-06 -8.8060429186050679e-06 -1.4335147523153826e-05 -1.7681537414893209e-05 -2.791386116653629e-05 1.6575648631819056e-07 -2.5117071749014719e-05 -4.3946704368402149e-05 -4.7908003100278514e-05 -3.2222649673549594e-05 -4.1074302484378677e-05 -3.421979374014809e-05 -5.4944028443054248e-05 -3.8963023736672851e-05 -4.7819481164958406e-05 -6.2543700576551172e-05 -6.2963142724725783e-05 -8.5966053224386307e-05 -6.7320168652703537e-05 -8.7411298943868487e-05 -7.0620442082851756e-05 -5.5937794262022468e-05 -6.4311428453741969e-05 1.2869785529902425e-05 1.5887045431644915e-05 1.6983198536808646e-05 1.5342404722997984e-05 1.3384458500088171e-05 7.8310011073476121e-06 5.3491565452568049e-06 1.1798509038967558e-05 2.4954365482245805e-06 7.0349588642650513e-06 -6.8151109090589025e-07 6.1392193900687688e-06 1.6817735837252247e-06 5.9924144677272689e-06 8.2392386261666715e-06 4.406344951421341e-06 2.0642085304588385e-06 -2.6767432275396179e-06 5.9355187863056657e-06 4.2904488269406482e-06 1.0009043830387831e-05 -2.9263769400234114e-06 1.6560362775769583e-06 7.5624065585686641e-06 1.3023681431477123e-05 2.2297646618827567e-05 1.3692661102586991e-05 1.6455213775526616e-05 1.5774563129991743e-05 2.3695385805162431e-05 3.0412233919303503e-05 4.195121062049345e-05 4.5146341769499357e-05 4.0294140859789562e-05 3.3078535955305714e-05 3.6510434983647762e-05 4.7531207901804011e-05 4.630080172545462e-05 9.3251265940601143e-05 0.0001194477648772419 0.00011513077806025475 7.1587570409821282e-05 2.8049393057759387e-05 4.3817252539988518e-05 6.1175074320617189e-05 2.8332962083734788e-05 3.1254207602596934e-05 3.6336318815725121e-05 2.0240826955399824e-05 2.9808785811277583e-05 1.3466961637481345e-05 2.3623059020604682e-05 1.3137956767360494e-05 2.5004454678927033e-05 7.9995168181431478e-06 1.6143374046183266e-05 1.5906285214121512e-05 1.3348034067345238e-05 7.9523958438153147e-06 2.3692941454807094e-05 9.0295113126840105e-06 6.2429530322923171e-06 1.2092740355835422e-05 1.6155769265016796e-06 -1.5832610592868266e-06 3.6135340101666873e-06 4.2238711583826007e-06 -4.2695042943225375e-06 2.6683248005702511e-06 -2.6813541222801753e-06 1.9524140846312056e-06 1.705279214132771e-05 1.6518730469923563e-05 1.2084849775711073e-05 1.5739366472922077e-05 2.7450608190000704e-05 3.0203039528007626e-05 4.028531482883001e-05 0.00012465528827167036 -3.3859521620142617e-07 3.5912518788885621e-05 0.00011984615356010208 5.6914884288514176e-05 0.0084983171322403853 0.00011445014260105303 4.8007527539839743e-05 0.022093139047512197 -1.6299199095377325e-06 4.929578819060467e-05 0.031982944297322846 5.4721808779443408e-06 2.7806957599121104e-05 -2.0548431443863445e-06 8.4531272599586019e-06 4.6202487469079251e-06 2.4914654398176963e-06 -7.8935581577659108e-07 1.4374792847123276e-05 1.4933007571624779e-05 3.3989353819481908e-06 2.3970406421197914e-05 3.9666634633722469e-05 4.9563344379568346e-05 0.041448985676729382 4.1627941278156357e-05 3.9408462595427567e-05 2.6282954443341937e-05 4.0489153079688572e-05 2.4822852573784602e-05 0.051189798135871746 3.6333894335286159e-05 4.6604784853236279e-06 -1.6389252050238003e-06 2.0576466658636688e-05 6.6847213115070166e-06 5.0364617984869665e-06 -6.7679707453341243e-06 -5.3005654328748585e-06 -2.4895608900419002e-06 -7.2017027138785494e-06 -7.1428899581596234e-06 -1.079722343410783e-05 -1.0910580056898986e-05 -8.6317012779232568e-06 -8.335230097491798e-06 -5.4273666842829409e-06 -8.6752249787315613e-06 -3.7891085438049532e-06 -4.2195795306670481e-06 -5.25209643112003e-06 -5.2736780552394263e-06 -2.215334210432888e-06 -5.7042230248051406e-05 -6.2480319511984102e-05 -4.4832700991005768e-05 -7.7727527243297073e-05 -7.8200083306542603e-05 -5.6260271267258378e-05 -5.748442405327655e-05 -4.0080992076885007e-05 -3.0418499346546689e-05 -1.566413239497441e-05 -3.5397577519203196e-05 -2.6680529631870921e-05 -4.2853428973940819e-05 -2.6958220316265145e-05 3.6579744207634879e-07 -1.1460338895553576e-05 1.5663782341891535e-05 -1.185179113883533e-05 -2.6786074263805389e-05 -1.2505573148661415e-06 -2.6741469336950509e-06 2.9177981050805719e-05 5.5328763804923927e-05 3.7638056235332683e-05 4.1168861561114209e-05 1.1414743009189503e-05 1.9684418711220057e-05 2.8784564484422327e-05 3.8454001670354754e-06 8.9821795817564103e-07 1.6393422162637493e-05 1.437040246551652e-05 1.8018071890048455e-05 4.7771254076255532e-06 8.2290099026019643e-07 -5.6490635962839868e-07 -1.1063157174278664e-05 -9.9260765748488376e-06 -1.1939754976490486e-05 -2.0614245669431375e-05 -9.6279797447868269e-06 -6.307166714659973e-06 -1.7671151911869722e-05 -1.9175236297293763e-05 -3.2214534153480589e-05 -3.141392873549898e-05 -3.2835589730898819e-05 -3.0125348100642265e-05 -2.0402841043960264e-05 -1.9858909737194443e-05 -2.0674602777649449e-05 -3.1048899304057754e-05 -3.0669904144237439e-05 -3.7623795351366882e-05 -2.5506800069504147e-05 -3.5897217605018327e-05 -5.2176950019391412e-05 -4.467155117521542e-05 -4.4263950081302049e-05 -5.4416391775020007e-06 -1.8940779970029811e-05 -1.0655306411124811e-05 -1.2875160107954104e-05 -2.0013023845213279e-05 -2.6425458203540707e-05 -3.1312196826669466e-05 -2.3717969418525411e-05 -2.1030777793308499e-05 -1.7313317541881382e-05 -2.1248918575804583e-05 -1.5822745230061226e-05 -1.5559098620270863e-05 -1.6838350245334719e-05 -8.1882869890546016e-06 -1.058365356686403e-05 -1.1627593275558836e-05 -9.9515937936407901e-06 -1.5133343433824421e-05 -1.6800027956954001e-05 -1.2805639125087771e-05 -1.3732503315821401e-05 -8.833029375951353e-06 -1.1790613316187571e-05 -2.5881848733561898e-06 3.4573421853242425e-06 -4.7485362380497893e-06 -4.6833006957062995e-07 1.8835205847589874e-05 -3.8720414144910106e-06 5.717712053876934e-06 -5.7570075002407774e-06 -3.3879536298938966e-06 -9.6545073190656625e-07 -7.3950661343188256e-06 -2.3641628881330013e-06 -3.710463434166561e-06 2.304589239917991e-06 1.7423467253011374e-06 -1.4443776822973025e-06 -1.1773936631330299e-05 -3.4801672280111023e-06 -1.2866665115884076e-05 -5.4210720651626763e-06 -8.1192273195481758e-06 -7.9426430638985038e-06 -1.4068764153445492e-05 -1.1409584948236752e-05 -1.7409266827775501e-05 -1.4472372280822834e-05 -6.4734306735613791e-06 -5.0219689493478589e-06 -1.3219411610223414e-05 -5.8173008544910344e-06 -1.9822624465718459e-06 -1.4215922832694523e-06 -5.1597460619678698e-06 -3.9987474448792762e-06 1.8808139973930382e-07 1.4001342784914633e-07 -4.7298525393188462e-08 3.1069536222927928e-07 -1.523620395808313e-06 -5.4075081261963087e-06 -8.792191261516695e-06 -1.250894117734954e-05 -5.4211625640074226e-06 -8.9765300260131542e-06 -1.5883790646050414e-05 -2.0231999997800661e-05 -1.4299859439515194e-05 -1.7988246369684044e-05 -1.6294183598797112e-05 -1.2573665570839588e-05 -1.3814134444995976e-05 -1.0868999464758763e-05 -1.1976172876250067e-05 -1.3639350285692348e-05 -5.8807618047035121e-06 -7.8199952223982269e-06 7.176261736243939e-06 2.998240104203881e-05 3.6462109803646662e-05 6.4464953389145921e-06 2.3861703100836688e-05 4.6211873126567569e-05 3.1992018105372807e-05 0.061300556617514941 9.5837604284650622e-06 4.1733896852276216e-05 3.1475950960515079e-05 0.071894230562733974 3.6776975281447373e-05 3.6384438780685813e-05 0.08257502197827804 2.1857876353481229e-05 8.7363194946177931e-06 3.9078560087624995e-05 -2.3376015292226335e-06 6.5968526791730263e-06 5.5181924071338152e-06 -4.2399503865210662e-07 4.0635284033771783e-05 4.498953937856308e-05 6.0471350401016238e-06 4.3881904258045133e-05 0.0933938051426806 4.7666858354642762e-05 3.779122400999254e-05 3.0087689072558492e-05 2.7746762888971113e-05 0.10346716292642462 4.4527763669322158e-05 3.6099947824878304e-05 -9.4770383828766611e-06 4.7799560868757533e-05 4.6974676634181384e-05 3.1703096726221438e-05 -6.8453717908462716e-06 -2.1680744673399817e-05 -1.2837004544952657e-05 -1.805757275494475e-05 -1.1081580057777402e-05 -2.1054040502659663e-05 -2.2091172002487139e-05 -1.0305253235947569e-05 -1.6600696816274465e-05 -2.5379606497924422e-05 -1.5331313483823077e-05 -2.5063519910331665e-05 -1.6990823699080011e-05 -1.7640853958371221e-05 -1.8008196680924932e-05 -2.1734372109957511e-05 -1.9162748359340836e-05 -2.1390576243480291e-05 -1.9826146386522719e-05 -1.9345100417568451e-05 -2.3163383547581914e-05 -1.5872570778407923e-05 -1.8893966096977344e-05 -1.9445424428681858e-05 -1.0318040931164374e-05 -2.1621768577612132e-05 -1.959512274333144e-05 -8.5541236669129864e-06 -1.6503360527953236e-05 -2.3061857063119749e-05 -1.4811304169834601e-05 -1.6256085793606894e-05 -2.0385964176818777e-05 -1.44683999178154e-05 -1.9431566881993371e-05 -1.2034157273705791e-05 -1.5375301132716677e-05 -1.7892396868278892e-05 -1.5064005151837687e-05 -1.5276066267869821e-05 -4.0189936992380756e-06 -1.0105882106668904e-05 -1.0581479988408678e-05 -1.4623087512174223e-05 -4.385878326491148e-06 -1.12009200299579e-05 -1.1769059912829813e-05 -1.2768003691651392e-05 -1.2579657829867872e-05 -1.6601450951136119e-05 -1.6141738047542413e-05 1.6750871373826231e-05 0.03139767800263199 1.6831918276141895e-05 1.207993428292242e-05 7.5178864503977483e-06 -6.7445369573975876e-06 -2.6170008715445956e-06 -8.2724307206841132e-06 1.3963176965025263e-05 3.3190656756075304e-06 1.76394150144956e-06 -6.5062378732093384e-06 2.1384003554334341e-05 2.3103589375043357e-05 1.2907184128520743e-05 7.4269374503377071e-06 0.045624133800402471 1.938102836370869e-05 1.3990227314249096e-05 0.038222157362649486 2.0455829127619162e-05 0.053597941235775999 2.7764343496821265e-05 1.7367430063493042e-05 1.2967976691800149e-05 -2.0506397838854521e-06 -4.0804780653545033e-07 2.5778878940591055e-05 1.0550662741834975e-06 -1.2317591139349084e-05 2.6230955982169563e-05 2.711451277684926e-05 1.4078946984647503e-05 -9.615498961818784e-06 1.2994125933288487e-05 0.061132917010339308 2.5272399128806189e-05 1.7776200995105055e-05 -2.2585830771527406e-06 -4.1033148110326715e-06 -4.5599758423888912e-06 -3.291482695922613e-06 -1.1145587247389553e-05 -1.0430671548631665e-05 -2.6285265358871185e-06 -4.9887445627708557e-06 -6.6634811253277974e-06 -1.0335373058017842e-05 -6.3611469564797294e-06 -1.0313705628329931e-05 -5.150389857523207e-06 -4.1211131674579859e-06 -8.6989720927753249e-06 2.4845656978675357e-07 1.3181728364224099e-08 7.8680730990532016e-08 1.5998188582352565e-07 -2.9153437319582969e-06 -3.6870303518209309e-06 -1.0267258824104945e-06 -1.5182131985520964e-06 -4.5140679461459117e-06 -9.5577250890648436e-06 -1.2334890696093074e-05 -1.0360951852511797e-05 -4.7854327348175862e-06 -3.3853340094743033e-06 -4.0152362783466683e-06 -5.7341970558829735e-06 -9.7591789735085657e-07 -8.3152012458618304e-06 -3.8826681779641041e-06 -7.0736265268492998e-06 -1.2304407420170771e-05 -1.3264236691335829e-05 -5.0252565516808057e-06 -8.524231729141506e-06 -1.1695953265886626e-05 -1.5375554976308583e-05 -1.4778954410447171e-05 -8.9786950053623646e-06 -1.2822467639845474e-05 -1.2887608224673914e-05 -1.8336165197848113e-05 -1.3187318952689138e-05 -1.8058616949999601e-05 -1.2943757629431374e-05 -5.9070076530032137e-06 -7.3265304518100715e-06 4.1856353765498504e-07 -4.8774146429659323e-06 -9.7320347284500768e-06 -7.7999753738609541e-06 -7.8268951787642885e-06 -7.4675442211366225e-06 -9.6041728708897746e-06 -1.0058381779738754e-05 -9.797080374654958e-06 -4.2253421090466658e-06 -5.1387027700463845e-06 2.5921936023799415e-06 1.0819277574003082e-06 4.3153079174651412e-06 -1.4885386926446467e-06 2.6197398532846591e-06 3.2049007423094397e-06 -4.0386688055609994e-06 -2.9220040103600069e-06 -6.1976424326309594e-06 -9.6726722722777344e-06 -1.2334915790057232e-05 -5.6453458716799066e-06 -8.7206887053172064e-06 -6.0397777898572405e-06 -1.2105280979594077e-05 -9.0989968988748919e-06 3.9302446151100396e-06 7.4808608492966618e-06 5.2907244039201214e-06 -3.8802065430460636e-06 8.89524029709177e-07 -2.0538050887771711e-05 -2.7743531940908997e-05 -2.2181596243332359e-05 -2.4048831704307459e-05 -1.9121786637347257e-05 -1.6227016932943063e-05 -1.8416749087759373e-05 -1.3956703110729876e-05 -1.4022735206250625e-05 -1.5660521704955301e-05 -1.6093231243405727e-05 -1.4202539572387784e-05 -2.0166546165013626e-05 -2.1084738320299853e-05 -2.159101154130432e-05 -2.0039884838242027e-05 -2.9128651179515918e-05 -2.8031383516494905e-05 -2.9970017169808909e-05 -4.2537276486342979e-05 -3.5846193564212587e-05 -3.3048644342069513e-05 -2.7475159823901066e-05 -2.6262224814622038e-05 -1.7512687939703593e-05 -1.6881469696419511e-05 -1.3610000764347163e-05 -2.3378985710823598e-05 -2.1261844738566571e-05 -2.5876523546111121e-05 -2.5658735614744212e-05 -3.3170228374500445e-05 -3.2325054745033308e-05 -4.2469234963211569e-05 -6.5425227810904504e-07 1.4047616661962213e-05 -1.0583209514527814e-06 -5.5572985893080108e-06 -1.2177936042790305e-05 -8.8190760382716787e-06 -2.0238436210402711e-06 -7.4842172229714742e-06 -1.9505388088351125e-05 -1.4967707247442395e-05 -8.4490660378915179e-06 2.0508457732720245e-06 3.7225560675049245e-06 1.5718782926948507e-05 3.6467692810935643e-05 -2.3440955607442222e-05 5.2055505767725351e-05 0.0044908800963464196 1.2617716637495932e-05 1.4392889723538964e-05 0.0112862456460274 2.7749722186413354e-05 0.01582324066911971 1.7013316700628743e-05 1.1882275616941927e-05 -1.2617378614835126e-05 -1.3669983366715538e-05 -1.0233106799650905e-05 -2.3096083619995867e-05 -6.4922085695357114e-06 -1.6618012079107811e-05 4.0197927069895577e-06 -4.5660757569285674e-06 -9.0634784804882946e-06 2.7886900108865776e-07 -1.7786501572732833e-06 2.1771121365114578e-06 5.9804696908893309e-06 4.5830363124233577e-06 -2.0685459088968985e-07 -1.9672174046466567e-06 -3.8479601037282832e-06 -4.6815300124073534e-06 -6.5212013432224535e-06 -9.0219432592348741e-06 -6.5553252036643658e-06 -8.6233322858466401e-06 -9.7358995328151792e-06 -8.7758190368807532e-06 -9.2185379602763881e-06 -7.4138617334875101e-06 -6.7777631354248001e-06 -5.2576331383242874e-06 -7.6749826743167503e-06 -8.9155276016740215e-06 -7.1769253550204097e-06 -1.1358481453805611e-05 -1.0214012028127254e-05 -1.0504675531357249e-05 -8.0232535657277147e-06 -9.5344300758563373e-06 -9.3531652932336666e-06 -1.106158126775895e-05 -8.7138236694743508e-06 -6.3326387845314075e-06 -1.9875023757414908e-06 -5.1758603614040859e-06 -5.0851786715833841e-06 3.4050794142498602e-06 1.6257098374388812e-05 0.025522125651849647 5.8310134551727184e-06 1.2656527791024205e-05 1.3292924162517489e-05 1.7390347684096948e-05 -2.7713292288116843e-06 0.020427719960963264 1.512762811043246e-05 7.741922066434293e-06 1.9582572185414097e-05 -8.5486700774125633e-06 -9.5823578347247189e-06 -9.7713435353536998e-06 -3.2703985902494167e-06 
</DataArray>
</CellData>
</Piece>
</UnstructuredGrid>
</VTKFile>
