<?xml version="1.0"?>
<VTKFile type="UnstructuredGrid" version="0.1" byte_order="LittleEndian">
<UnstructuredGrid>
<Piece NumberOfPoints="3142" NumberOfCells="1054">
<Points>
<DataArray type="Float64" NumberOfComponents="3" format="ascii">
0 0 0 0.049999999999899652 0 0 0.02576622439977887 0.024532886826226379 0 0 0 0 0.02576622439977887 0.024532886826226379 0 0 0.050000000000207989 0 0.049999999999899652 0 0 0.053064897599215843 0.048131547304697528 0 0.02576622439977887 0.024532886826226379 0 0 0.050000000000207989 0 0.02576622439977887 0.024532886826226379 0 0.053064897599215843 0.048131547304697528 0 0 0.10000000000041601 0 0 0.050000000000207989 0 0.044310582753132287 0.101412518374475 0 0 0.15000000000062411 0 0 0.10000000000041601 0 0.044310582753132287 0.101412518374475 0 0.083411279318303222 0.089699755330707398 0 0.044310582753132287 0.101412518374475 0 0.053064897599215843 0.048131547304697528 0 0 0.050000000000207989 0 0.053064897599215843 0.048131547304697528 0 0.044310582753132287 0.101412518374475 0 0.083411279318303222 0.089699755330707398 0 0.065374659239632718 0.1448908038746782 0 0.044310582753132287 0.101412518374475 0 0.083411279318303222 0.089699755330707398 0 0.1053400320299198 0.12877248826361379 0 0.065374659239632718 0.1448908038746782 0 0.083411279318303222 0.089699755330707398 0 0.12372429750337779 0.095814237875728972 0 0.1053400320299198 0.12877248826361379 0 0.14332333627550789 0.14578431753966009 0 0.1053400320299198 0.12877248826361379 0 0.12372429750337779 0.095814237875728972 0 0.14618258501891079 0.062070108745602003 0 0.12372429750337779 0.095814237875728972 0 0.10266856499169109 0.044518360900210059 0 0.083411279318303222 0.089699755330707398 0 0.10266856499169109 0.044518360900210059 0 0.12372429750337779 0.095814237875728972 0 0.099999999999814668 0 0 0.14999999999970359 0 0 0.10266856499169109 0.044518360900210059 0 0.049999999999899652 0 0 0.099999999999814668 0 0 0.053064897599215843 0.048131547304697528 0 0.099999999999814668 0 0 0.10266856499169109 0.044518360900210059 0 0.053064897599215843 0.048131547304697528 0 0.083411279318303222 0.089699755330707398 0 0.053064897599215843 0.048131547304697528 0 0.10266856499169109 0.044518360900210059 0 0 0.25000000000104028 0 0 0.20000000000083221 0 0.044081577119474857 0.2271058242433576 0 0 0.20000000000083221 0 0.038512288486115001 0.1844147282893184 0 0.044081577119474857 0.2271058242433576 0 0.083105206071467416 0.20007701332709979 0 0.044081577119474857 0.2271058242433576 0 0.038512288486115001 0.1844147282893184 0 0 0.15000000000062411 0 0.065374659239632718 0.1448908038746782 0 0.038512288486115001 0.1844147282893184 0 0 0.15000000000062411 0 0.044310582753132287 0.101412518374475 0 0.065374659239632718 0.1448908038746782 0 0.083105206071467416 0.20007701332709979 0 0.038512288486115001 0.1844147282893184 0 0.065374659239632718 0.1448908038746782 0 0 0.20000000000083221 0 0 0.15000000000062411 0 0.038512288486115001 0.1844147282893184 0 0.065374659239632718 0.1448908038746782 0 0.1053400320299198 0.12877248826361379 0 0.106902708054812 0.16453234188234539 0 0.14332333627550789 0.14578431753966009 0 0.106902708054812 0.16453234188234539 0 0.1053400320299198 0.12877248826361379 0 0.083105206071467416 0.20007701332709979 0 0.065374659239632718 0.1448908038746782 0 0.106902708054812 0.16453234188234539 0 0.083105206071467416 0.20007701332709979 0 0.13737030665753211 0.20313708640667491 0 0.095326043202144745 0.24554465089224409 0 0.083105206071467416 0.20007701332709979 0 0.106902708054812 0.16453234188234539 0 0.13737030665753211 0.20313708640667491 0 0.083105206071467416 0.20007701332709979 0 0.095326043202144745 0.24554465089224409 0 0.044081577119474857 0.2271058242433576 0 0.049706944316556423 0.27522722923869108 0 0.044081577119474857 0.2271058242433576 0 0.095326043202144745 0.24554465089224409 0 0.13737030665753211 0.20313708640667491 0 0.14377654328998779 0.2442024734791064 0 0.095326043202144745 0.24554465089224409 0 0.17933913398461551 0.2350063570234002 0 0.14377654328998779 0.2442024734791064 0 0.13737030665753211 0.20313708640667491 0 0.17933913398461551 0.2350063570234002 0 0.13737030665753211 0.20313708640667491 0 0.18124454140915969 0.18790916706335251 0 0.14332333627550789 0.14578431753966009 0 0.18652628422869419 0.14162325200928061 0 0.18124454140915969 0.18790916706335251 0 0.14332333627550789 0.14578431753966009 0 0.13737030665753211 0.20313708640667491 0 0.106902708054812 0.16453234188234539 0 0.14332333627550789 0.14578431753966009 0 0.18124454140915969 0.18790916706335251 0 0.13737030665753211 0.20313708640667491 0 0.14332333627550789 0.14578431753966009 0 0.16141998738593399 0.10404039647458049 0 0.18652628422869419 0.14162325200928061 0 0.2185883431182947 0.18019736283949719 0 0.18652628422869419 0.14162325200928061 0 0.22985637510995899 0.1298347970200906 0 0.2185883431182947 0.18019736283949719 0 0.22985637510995899 0.1298347970200906 0 0.25557216766470708 0.15874861286892261 0 0.2185883431182947 0.18019736283949719 0 0.25557216766470708 0.15874861286892261 0 0.26429849586623999 0.19346700179430079 0 0.2185883431182947 0.18019736283949719 0 0.18124454140915969 0.18790916706335251 0 0.18652628422869419 0.14162325200928061 0 0.17933913398461551 0.2350063570234002 0 0.18124454140915969 0.18790916706335251 0 0.224700362040408 0.22206622194729711 0 0.2185883431182947 0.18019736283949719 0 0.224700362040408 0.22206622194729711 0 0.18124454140915969 0.18790916706335251 0 0.2185883431182947 0.18019736283949719 0 0.26429849586623999 0.19346700179430079 0 0.224700362040408 0.22206622194729711 0 0.25195515620380449 0.25883339815888678 0 0.21049769590865089 0.26857363548218488 0 0.224700362040408 0.22206622194729711 0 0.17933913398461551 0.2350063570234002 0 0.224700362040408 0.22206622194729711 0 0.21049769590865089 0.26857363548218488 0 0.14999999999970359 0 0 0.184418230509967 0.038773194583122873 0 0.14618258501891079 0.062070108745602003 0 0.19922788606653311 0.085920220746880993 0 0.14618258501891079 0.062070108745602003 0 0.184418230509967 0.038773194583122873 0 0.14999999999970359 0 0 0.19999999999955789 0 0 0.184418230509967 0.038773194583122873 0 0.14999999999970359 0 0 0.14618258501891079 0.062070108745602003 0 0.10266856499169109 0.044518360900210059 0 0.14618258501891079 0.062070108745602003 0 0.16141998738593399 0.10404039647458049 0 0.12372429750337779 0.095814237875728972 0 0.14332333627550789 0.14578431753966009 0 0.12372429750337779 0.095814237875728972 0 0.16141998738593399 0.10404039647458049 0 0.19922788606653311 0.085920220746880993 0 0.18652628422869419 0.14162325200928061 0 0.16141998738593399 0.10404039647458049 0 0.19922788606653311 0.085920220746880993 0 0.16141998738593399 0.10404039647458049 0 0.14618258501891079 0.062070108745602003 0 0.19922788606653311 0.085920220746880993 0 0.22985637510995899 0.1298347970200906 0 0.18652628422869419 0.14162325200928061 0 0.19922788606653311 0.085920220746880993 0 0.24218496799700481 0.089025544070598317 0 0.22985637510995899 0.1298347970200906 0 0.27474541102162192 0.11822029332053539 0 0.22985637510995899 0.1298347970200906 0 0.24218496799700481 0.089025544070598317 0 0.19922788606653311 0.085920220746880993 0 0.22668068146512929 0.045875643423131329 0 0.24218496799700481 0.089025544070598317 0 0.27499999999933927 0.060310814194988557 0 0.24218496799700481 0.089025544070598317 0 0.22668068146512929 0.045875643423131329 0 0.19922788606653311 0.085920220746880993 0 0.184418230509967 0.038773194583122873 0 0.22668068146512929 0.045875643423131329 0 0.19999999999955789 0 0 0.22668068146512929 0.045875643423131329 0 0.184418230509967 0.038773194583122873 0 0.19999999999955789 0 0 0.24999999999941211 0 0 0.22668068146512929 0.045875643423131329 0 0.24999999999941211 0 0 0.29999999999926641 0 0 0.27499999999933927 0.060310814194988557 0 0.24999999999941211 0 0 0.27499999999933927 0.060310814194988557 0 0.22668068146512929 0.045875643423131329 0 0.29999999999926641 0 0 0.32541448401678508 0.046215317981507749 0 0.27499999999933927 0.060310814194988557 0 0.29999999999926641 0 0 0.34999999999912063 0 0 0.32541448401678508 0.046215317981507749 0 0.35312867752657662 0.084946736076730367 0 0.32541448401678508 0.046215317981507749 0 0.3615861437013822 0.03582617922508851 0 0.35312867752657662 0.084946736076730367 0 0.3615861437013822 0.03582617922508851 0 0.39591832466117061 0.056982757562006353 0 0.34999999999912063 0 0 0.3615861437013822 0.03582617922508851 0 0.32541448401678508 0.046215317981507749 0 0.34999999999912063 0 0 0.3999999999989749 0 0 0.3615861437013822 0.03582617922508851 0 0.35312867752657662 0.084946736076730367 0 0.39823268594401579 0.1116623613130045 0 0.36246644853392812 0.1399454205365751 0 0.35312867752657662 0.084946736076730367 0 0.36246644853392812 0.1399454205365751 0 0.32215584939770009 0.1218492143506909 0 0.35312867752657662 0.084946736076730367 0 0.3096713403101819 0.085471541595262421 0 0.32541448401678508 0.046215317981507749 0 0.35312867752657662 0.084946736076730367 0 0.32215584939770009 0.1218492143506909 0 0.3096713403101819 0.085471541595262421 0 0.27474541102162192 0.11822029332053539 0 0.3096713403101819 0.085471541595262421 0 0.32215584939770009 0.1218492143506909 0 0.27499999999933927 0.060310814194988557 0 0.32541448401678508 0.046215317981507749 0 0.3096713403101819 0.085471541595262421 0 0.3096713403101819 0.085471541595262421 0 0.27474541102162192 0.11822029332053539 0 0.27499999999933927 0.060310814194988557 0 0.27499999999933927 0.060310814194988557 0 0.27474541102162192 0.11822029332053539 0 0.24218496799700481 0.089025544070598317 0 0.27474541102162192 0.11822029332053539 0 0.25557216766470708 0.15874861286892261 0 0.22985637510995899 0.1298347970200906 0 0.27474541102162192 0.11822029332053539 0 0.29336099386129338 0.15892013001050981 0 0.25557216766470708 0.15874861286892261 0 0.26429849586623999 0.19346700179430079 0 0.25557216766470708 0.15874861286892261 0 0.29336099386129338 0.15892013001050981 0 0.33084213324567391 0.16272720141332131 0 0.31255190597181792 0.19850845631528771 0 0.29336099386129338 0.15892013001050981 0 0.26429849586623999 0.19346700179430079 0 0.29336099386129338 0.15892013001050981 0 0.31255190597181792 0.19850845631528771 0 0.27474541102162192 0.11822029332053539 0 0.32215584939770009 0.1218492143506909 0 0.29336099386129338 0.15892013001050981 0 0.28040350263641872 0.23054717217092141 0 0.25195515620380449 0.25883339815888678 0 0.224700362040408 0.22206622194729711 0 0.26429849586623999 0.19346700179430079 0 0.28040350263641872 0.23054717217092141 0 0.224700362040408 0.22206622194729711 0 0.26429849586623999 0.19346700179430079 0 0.31255190597181792 0.19850845631528771 0 0.28040350263641872 0.23054717217092141 0 0.33758650185219202 0.23837101504325639 0 0.29132859388405002 0.27203693976649962 0 0.28040350263641872 0.23054717217092141 0 0.33758650185219202 0.23837101504325639 0 0.28040350263641872 0.23054717217092141 0 0.31255190597181792 0.19850845631528771 0 0.33758650185219202 0.23837101504325639 0 0.31255190597181792 0.19850845631528771 0 0.3572130504031617 0.1874703368446563 0 0.33758650185219202 0.23837101504325639 0 0.3572130504031617 0.1874703368446563 0 0.38831533174504851 0.2189834941785925 0 0.33758650185219202 0.23837101504325639 0 0.38831533174504851 0.2189834941785925 0 0.3786248352540974 0.27082301512024259 0 0.33084213324567391 0.16272720141332131 0 0.29336099386129338 0.15892013001050981 0 0.32215584939770009 0.1218492143506909 0 0.33084213324567391 0.16272720141332131 0 0.32215584939770009 0.1218492143506909 0 0.36246644853392812 0.1399454205365751 0 0.33084213324567391 0.16272720141332131 0 0.3572130504031617 0.1874703368446563 0 0.31255190597181792 0.19850845631528771 0 0.39801143831225599 0.16651381068160659 0 0.3572130504031617 0.1874703368446563 0 0.36246644853392812 0.1399454205365751 0 0.33084213324567391 0.16272720141332131 0 0.36246644853392812 0.1399454205365751 0 0.3572130504031617 0.1874703368446563 0 0.39801143831225599 0.16651381068160659 0 0.36246644853392812 0.1399454205365751 0 0.39823268594401579 0.1116623613130045 0 0.39801143831225599 0.16651381068160659 0 0.44288491854585582 0.14116182884956319 0 0.42905200079338551 0.19982395548231649 0 0.39801143831225599 0.16651381068160659 0 0.39823268594401579 0.1116623613130045 0 0.44288491854585582 0.14116182884956319 0 0.42377727103934271 0.25099357235810238 0 0.3786248352540974 0.27082301512024259 0 0.38831533174504851 0.2189834941785925 0 0.39801143831225599 0.16651381068160659 0 0.38831533174504851 0.2189834941785925 0 0.3572130504031617 0.1874703368446563 0 0.39801143831225599 0.16651381068160659 0 0.42905200079338551 0.19982395548231649 0 0.38831533174504851 0.2189834941785925 0 0.42377727103934271 0.25099357235810238 0 0.38831533174504851 0.2189834941785925 0 0.42905200079338551 0.19982395548231649 0 0.42377727103934271 0.25099357235810238 0 0.42905200079338551 0.19982395548231649 0 0.46429753744194407 0.22870891180733599 0 0.47357141910802508 0.1873585799078378 0 0.46429753744194407 0.22870891180733599 0 0.42905200079338551 0.19982395548231649 0 0.47357141910802508 0.1873585799078378 0 0.51729576145820033 0.1683240575987815 0 0.50760557329222289 0.20700468884612061 0 0.47357141910802508 0.1873585799078378 0 0.50760557329222289 0.20700468884612061 0 0.46429753744194407 0.22870891180733599 0 0.49695729691142171 0.25014895411178018 0 0.46429753744194407 0.22870891180733599 0 0.50760557329222289 0.20700468884612061 0 0.47357141910802508 0.1873585799078378 0 0.44288491854585582 0.14116182884956319 0 0.48466639505193998 0.1421439844745814 0 0.47357141910802508 0.1873585799078378 0 0.42905200079338551 0.19982395548231649 0 0.44288491854585582 0.14116182884956319 0 0.47357141910802508 0.1873585799078378 0 0.48466639505193998 0.1421439844745814 0 0.51729576145820033 0.1683240575987815 0 0.44288491854585582 0.14116182884956319 0 0.47881186583059909 0.093591717165689425 0 0.48466639505193998 0.1421439844745814 0 0.51076801031701946 0.1202837388510348 0 0.48466639505193998 0.1421439844745814 0 0.47881186583059909 0.093591717165689425 0 0.43698630808430822 0.080423614171545449 0 0.47881186583059909 0.093591717165689425 0 0.44288491854585582 0.14116182884956319 0 0.43698630808430822 0.080423614171545449 0 0.47040171442036788 0.044141676406503738 0 0.47881186583059909 0.093591717165689425 0 0.52375890611712683 0.059318771819432882 0 0.47881186583059909 0.093591717165689425 0 0.47040171442036788 0.044141676406503738 0 0.49999999999869432 0 0 0.52375890611712683 0.059318771819432882 0 0.47040171442036788 0.044141676406503738 0 0.44999999999882923 0 0 0.49999999999869432 0 0 0.47040171442036788 0.044141676406503738 0 0.44999999999882923 0 0 0.47040171442036788 0.044141676406503738 0 0.4320097814748517 0.037406712692169303 0 0.43698630808430822 0.080423614171545449 0 0.4320097814748517 0.037406712692169303 0 0.47040171442036788 0.044141676406503738 0 0.3999999999989749 0 0 0.4320097814748517 0.037406712692169303 0 0.39591832466117061 0.056982757562006353 0 0.43698630808430822 0.080423614171545449 0 0.39591832466117061 0.056982757562006353 0 0.4320097814748517 0.037406712692169303 0 0.3999999999989749 0 0 0.44999999999882923 0 0 0.4320097814748517 0.037406712692169303 0 0.3999999999989749 0 0 0.39591832466117061 0.056982757562006353 0 0.3615861437013822 0.03582617922508851 0 0.35312867752657662 0.084946736076730367 0 0.39591832466117061 0.056982757562006353 0 0.39823268594401579 0.1116623613130045 0 0.43698630808430822 0.080423614171545449 0 0.44288491854585582 0.14116182884956319 0 0.39823268594401579 0.1116623613130045 0 0.43698630808430822 0.080423614171545449 0 0.39823268594401579 0.1116623613130045 0 0.39591832466117061 0.056982757562006353 0 0.43249999999999988 0.43937499999999979 0 0.38707855792647411 0.42299362914874578 0 0.42161023666869668 0.39493916313643851 0 0.38083244760691543 0.38531983672244652 0 0.42161023666869668 0.39493916313643851 0 0.38707855792647411 0.42299362914874578 0 0.38083244760691543 0.38531983672244652 0 0.40076539126862748 0.34589349467022118 0 0.42161023666869668 0.39493916313643851 0 0.43249999999999988 0.43937499999999979 0 0.3908716102680424 0.47010282357248828 0 0.38707855792647411 0.42299362914874578 0 0.38244435121258652 0.51653317813019495 0 0.3908716102680424 0.47010282357248828 0 0.43507373378304309 0.49699695397193322 0 0.43249999999999988 0.43937499999999979 0 0.43507373378304309 0.49699695397193322 0 0.3908716102680424 0.47010282357248828 0 0.43249999999999988 0.43937499999999979 0 0.46111841286828259 0.46690301029591341 0 0.43507373378304309 0.49699695397193322 0 0.43249999999999988 0.43937499999999979 0 0.48858720058566618 0.43964267759203868 0 0.46111841286828259 0.46690301029591341 0 0.49102375406324739 0.49123754822244059 0 0.43507373378304309 0.49699695397193322 0 0.46111841286828259 0.46690301029591341 0 0.49102375406324739 0.49123754822244059 0 0.46111841286828259 0.46690301029591341 0 0.48858720058566618 0.43964267759203868 0 0.52289427570932567 0.3932284363388488 0 0.48858720058566618 0.43964267759203868 0 0.46655310992796922 0.39650496622958609 0 0.43249999999999988 0.43937499999999979 0 0.46655310992796922 0.39650496622958609 0 0.48858720058566618 0.43964267759203868 0 0.43249999999999988 0.43937499999999979 0 0.42161023666869668 0.39493916313643851 0 0.46655310992796922 0.39650496622958609 0 0.4409427642593301 0.35743108089689513 0 0.46655310992796922 0.39650496622958609 0 0.42161023666869668 0.39493916313643851 0 0.52289427570932567 0.3932284363388488 0 0.46655310992796922 0.39650496622958609 0 0.49077833859261139 0.35229981449445641 0 0.5 0.29999999999999999 0 0.49077833859261139 0.35229981449445641 0 0.46226845272279993 0.31901800744800313 0 0.4409427642593301 0.35743108089689513 0 0.46226845272279993 0.31901800744800313 0 0.49077833859261139 0.35229981449445641 0 0.4409427642593301 0.35743108089689513 0 0.41914690343363781 0.30688979866601612 0 0.46226845272279993 0.31901800744800313 0 0.4409427642593301 0.35743108089689513 0 0.49077833859261139 0.35229981449445641 0 0.46655310992796922 0.39650496622958609 0 0.5 0.29999999999999999 0 0.4604742573284204 0.27846934318264788 0 0.49695729691142171 0.25014895411178018 0 0.49695729691142171 0.25014895411178018 0 0.4604742573284204 0.27846934318264788 0 0.46429753744194407 0.22870891180733599 0 0.5 0.29999999999999999 0 0.46226845272279993 0.31901800744800313 0 0.4604742573284204 0.27846934318264788 0 0.41914690343363781 0.30688979866601612 0 0.4604742573284204 0.27846934318264788 0 0.46226845272279993 0.31901800744800313 0 0.42377727103934271 0.25099357235810238 0 0.46429753744194407 0.22870891180733599 0 0.4604742573284204 0.27846934318264788 0 0.42377727103934271 0.25099357235810238 0 0.4604742573284204 0.27846934318264788 0 0.41914690343363781 0.30688979866601612 0 0.42377727103934271 0.25099357235810238 0 0.41914690343363781 0.30688979866601612 0 0.3786248352540974 0.27082301512024259 0 0.36575549820117997 0.31677992835137742 0 0.3786248352540974 0.27082301512024259 0 0.41914690343363781 0.30688979866601612 0 0.4409427642593301 0.35743108089689513 0 0.42161023666869668 0.39493916313643851 0 0.40076539126862748 0.34589349467022118 0 0.4409427642593301 0.35743108089689513 0 0.40076539126862748 0.34589349467022118 0 0.41914690343363781 0.30688979866601612 0 0.36575549820117997 0.31677992835137742 0 0.41914690343363781 0.30688979866601612 0 0.40076539126862748 0.34589349467022118 0 0.40076539126862748 0.34589349467022118 0 0.33277555741076909 0.36432196682010132 0 0.36575549820117997 0.31677992835137742 0 0.38083244760691543 0.38531983672244652 0 0.33277555741076909 0.36432196682010132 0 0.40076539126862748 0.34589349467022118 0 0.36575549820117997 0.31677992835137742 0 0.33277555741076909 0.36432196682010132 0 0.32752639306529541 0.32610012995269699 0 0.33277555741076909 0.36432196682010132 0 0.29644548887253103 0.34914008784168082 0 0.32752639306529541 0.32610012995269699 0 0.33758650185219202 0.23837101504325639 0 0.3786248352540974 0.27082301512024259 0 0.33402499257867951 0.28911035184473982 0 0.36575549820117997 0.31677992835137742 0 0.33402499257867951 0.28911035184473982 0 0.3786248352540974 0.27082301512024259 0 0.36575549820117997 0.31677992835137742 0 0.32752639306529541 0.32610012995269699 0 0.33402499257867951 0.28911035184473982 0 0.29348325746214782 0.31350119524708198 0 0.33402499257867951 0.28911035184473982 0 0.32752639306529541 0.32610012995269699 0 0.33758650185219202 0.23837101504325639 0 0.33402499257867951 0.28911035184473982 0 0.29132859388405002 0.27203693976649962 0 0.29348325746214782 0.31350119524708198 0 0.29132859388405002 0.27203693976649962 0 0.33402499257867951 0.28911035184473982 0 0.29348325746214782 0.31350119524708198 0 0.24432083401701241 0.3006253385567515 0 0.29132859388405002 0.27203693976649962 0 0.25195515620380449 0.25883339815888678 0 0.29132859388405002 0.27203693976649962 0 0.24432083401701241 0.3006253385567515 0 0.25195515620380449 0.25883339815888678 0 0.28040350263641872 0.23054717217092141 0 0.29132859388405002 0.27203693976649962 0 0.27866744612395528 0.38416094670951489 0 0.29644548887253103 0.34914008784168082 0 0.33277555741076909 0.36432196682010132 0 0.29348325746214782 0.31350119524708198 0 0.32752639306529541 0.32610012995269699 0 0.29644548887253103 0.34914008784168082 0 0.29348325746214782 0.31350119524708198 0 0.29644548887253103 0.34914008784168082 0 0.25966125648670141 0.34351016742083729 0 0.29348325746214782 0.31350119524708198 0 0.25966125648670141 0.34351016742083729 0 0.24432083401701241 0.3006253385567515 0 0.27866744612395528 0.38416094670951489 0 0.25966125648670141 0.34351016742083729 0 0.29644548887253103 0.34914008784168082 0 0.27866744612395528 0.38416094670951489 0 0.22033343844674469 0.36963382230740238 0 0.25966125648670141 0.34351016742083729 0 0.27866744612395528 0.38416094670951489 0 0.29124338931648802 0.43334555462578611 0 0.24049127783545701 0.41270748208749802 0 0.29124338931648802 0.43334555462578611 0 0.25982634974572738 0.46097799597715272 0 0.24049127783545701 0.41270748208749802 0 0.27866744612395528 0.38416094670951489 0 0.31778888742534622 0.40581751814196781 0 0.29124338931648802 0.43334555462578611 0 0.27866744612395528 0.38416094670951489 0 0.33277555741076909 0.36432196682010132 0 0.31778888742534622 0.40581751814196781 0 0.33277555741076909 0.36432196682010132 0 0.35221190152536241 0.40457127605439203 0 0.31778888742534622 0.40581751814196781 0 0.34258405725730701 0.4444034294386992 0 0.31778888742534622 0.40581751814196781 0 0.35221190152536241 0.40457127605439203 0 0.34258405725730701 0.4444034294386992 0 0.29124338931648802 0.43334555462578611 0 0.31778888742534622 0.40581751814196781 0 0.34258405725730701 0.4444034294386992 0 0.35221190152536241 0.40457127605439203 0 0.38707855792647411 0.42299362914874578 0 0.38083244760691543 0.38531983672244652 0 0.38707855792647411 0.42299362914874578 0 0.35221190152536241 0.40457127605439203 0 0.38083244760691543 0.38531983672244652 0 0.35221190152536241 0.40457127605439203 0 0.33277555741076909 0.36432196682010132 0 0.38244435121258652 0.51653317813019495 0 0.35024835142131061 0.48654922671676981 0 0.3908716102680424 0.47010282357248828 0 0.34258405725730701 0.4444034294386992 0 0.3908716102680424 0.47010282357248828 0 0.35024835142131061 0.48654922671676981 0 0.34258405725730701 0.4444034294386992 0 0.38707855792647411 0.42299362914874578 0 0.3908716102680424 0.47010282357248828 0 0.34258405725730701 0.4444034294386992 0 0.31068898841644388 0.47541502461811092 0 0.29124338931648802 0.43334555462578611 0 0.35024835142131061 0.48654922671676981 0 0.33190227185843768 0.52715113583864037 0 0.31068898841644388 0.47541502461811092 0 0.34258405725730701 0.4444034294386992 0 0.35024835142131061 0.48654922671676981 0 0.31068898841644388 0.47541502461811092 0 0.28307294598219601 0.50789252727458634 0 0.25982634974572738 0.46097799597715272 0 0.31068898841644388 0.47541502461811092 0 0.29124338931648802 0.43334555462578611 0 0.31068898841644388 0.47541502461811092 0 0.25982634974572738 0.46097799597715272 0 0.28307294598219601 0.50789252727458634 0 0.23975172658309729 0.49475499200540818 0 0.25982634974572738 0.46097799597715272 0 0.22278230690790279 0.44824268025881547 0 0.23975172658309729 0.49475499200540818 0 0.19604738184454831 0.47787523520405789 0 0.22278230690790279 0.44824268025881547 0 0.19604738184454831 0.47787523520405789 0 0.191953871957803 0.42546416763755879 0 0.22278230690790279 0.44824268025881547 0 0.24049127783545701 0.41270748208749802 0 0.25982634974572738 0.46097799597715272 0 0.22278230690790279 0.44824268025881547 0 0.25982634974572738 0.46097799597715272 0 0.23975172658309729 0.49475499200540818 0 0.27866744612395528 0.38416094670951489 0 0.24049127783545701 0.41270748208749802 0 0.22033343844674469 0.36963382230740238 0 0.1650278706801647 0.38791388161335733 0 0.22033343844674469 0.36963382230740238 0 0.191953871957803 0.42546416763755879 0 0.22033343844674469 0.36963382230740238 0 0.24049127783545701 0.41270748208749802 0 0.191953871957803 0.42546416763755879 0 0.22278230690790279 0.44824268025881547 0 0.191953871957803 0.42546416763755879 0 0.24049127783545701 0.41270748208749802 0 0.15801167086041079 0.46008690540259539 0 0.13773355295499351 0.42497777642586831 0 0.191953871957803 0.42546416763755879 0 0.1650278706801647 0.38791388161335733 0 0.191953871957803 0.42546416763755879 0 0.13773355295499351 0.42497777642586831 0 0.1650278706801647 0.38791388161335733 0 0.13773355295499351 0.42497777642586831 0 0.1117088112799664 0.38831403004970022 0 0.15801167086041079 0.46008690540259539 0 0.113541300460994 0.46208784312094731 0 0.13773355295499351 0.42497777642586831 0 0.1216098864341134 0.50637075089503902 0 0.113541300460994 0.46208784312094731 0 0.15801167086041079 0.46008690540259539 0 0.1216098864341134 0.50637075089503902 0 0.15801167086041079 0.46008690540259539 0 0.16618607197337229 0.50652878253548905 0 0.15801167086041079 0.46008690540259539 0 0.19604738184454831 0.47787523520405789 0 0.16618607197337229 0.50652878253548905 0 0.15801167086041079 0.46008690540259539 0 0.191953871957803 0.42546416763755879 0 0.19604738184454831 0.47787523520405789 0 0.25195515620380449 0.25883339815888678 0 0.24432083401701241 0.3006253385567515 0 0.21049769590865089 0.26857363548218488 0 0.19670163708476801 0.31472518408333222 0 0.21049769590865089 0.26857363548218488 0 0.24432083401701241 0.3006253385567515 0 0.19670163708476801 0.31472518408333222 0 0.168349569971391 0.28054490850913671 0 0.21049769590865089 0.26857363548218488 0 0.19670163708476801 0.31472518408333222 0 0.22615676742807109 0.33458786033114157 0 0.18434624290945251 0.35208838264196463 0 0.19670163708476801 0.31472518408333222 0 0.24432083401701241 0.3006253385567515 0 0.22615676742807109 0.33458786033114157 0 0.24432083401701241 0.3006253385567515 0 0.25966125648670141 0.34351016742083729 0 0.22615676742807109 0.33458786033114157 0 0.22033343844674469 0.36963382230740238 0 0.22615676742807109 0.33458786033114157 0 0.25966125648670141 0.34351016742083729 0 0.22033343844674469 0.36963382230740238 0 0.18434624290945251 0.35208838264196463 0 0.22615676742807109 0.33458786033114157 0 0.1650278706801647 0.38791388161335733 0 0.18434624290945251 0.35208838264196463 0 0.22033343844674469 0.36963382230740238 0 0.1650278706801647 0.38791388161335733 0 0.14223753364722069 0.3341983344262433 0 0.18434624290945251 0.35208838264196463 0 0.1650278706801647 0.38791388161335733 0 0.1117088112799664 0.38831403004970022 0 0.14223753364722069 0.3341983344262433 0 0.19670163708476801 0.31472518408333222 0 0.18434624290945251 0.35208838264196463 0 0.14223753364722069 0.3341983344262433 0 0.19670163708476801 0.31472518408333222 0 0.14223753364722069 0.3341983344262433 0 0.168349569971391 0.28054490850913671 0 0.1247745017231483 0.27198077544791172 0 0.168349569971391 0.28054490850913671 0 0.14223753364722069 0.3341983344262433 0 0.1247745017231483 0.27198077544791172 0 0.14377654328998779 0.2442024734791064 0 0.168349569971391 0.28054490850913671 0 0.17933913398461551 0.2350063570234002 0 0.21049769590865089 0.26857363548218488 0 0.168349569971391 0.28054490850913671 0 0.17933913398461551 0.2350063570234002 0 0.168349569971391 0.28054490850913671 0 0.14377654328998779 0.2442024734791064 0 0.049706944316556423 0.27522722923869108 0 0.095326043202144745 0.24554465089224409 0 0.093851963071650835 0.30582068233324772 0 0.1247745017231483 0.27198077544791172 0 0.095326043202144745 0.24554465089224409 0 0.14377654328998779 0.2442024734791064 0 0.1247745017231483 0.27198077544791172 0 0.093851963071650835 0.30582068233324772 0 0.095326043202144745 0.24554465089224409 0 0.1247745017231483 0.27198077544791172 0 0.14223753364722069 0.3341983344262433 0 0.093851963071650835 0.30582068233324772 0 0.049706944316556423 0.27522722923869108 0 0.093851963071650835 0.30582068233324772 0 0.046389130980076937 0.32668781832131749 0 0.087545339447545459 0.35122518864182262 0 0.046389130980076937 0.32668781832131749 0 0.093851963071650835 0.30582068233324772 0 0.087545339447545459 0.35122518864182262 0 0.093851963071650835 0.30582068233324772 0 0.14223753364722069 0.3341983344262433 0 0.087545339447545459 0.35122518864182262 0 0.14223753364722069 0.3341983344262433 0 0.1117088112799664 0.38831403004970022 0 0.087545339447545459 0.35122518864182262 0 0.1117088112799664 0.38831403004970022 0 0.050583896093752537 0.38543522283434112 0 0.087545339447545459 0.35122518864182262 0 0.050583896093752537 0.38543522283434112 0 0.046389130980076937 0.32668781832131749 0 0 0.35000000000145642 0 0.046389130980076937 0.32668781832131749 0 0.050583896093752537 0.38543522283434112 0 0 0.35000000000145642 0 0 0.30000000000124832 0 0.046389130980076937 0.32668781832131749 0 0 0.30000000000124832 0 0.049706944316556423 0.27522722923869108 0 0.046389130980076937 0.32668781832131749 0 0 0.30000000000124832 0 0 0.25000000000104028 0 0.049706944316556423 0.27522722923869108 0 0 0.25000000000104028 0 0.044081577119474857 0.2271058242433576 0 0.049706944316556423 0.27522722923869108 0 0.078358742472063481 0.43365249433908948 0 0.113541300460994 0.46208784312094731 0 0.068743045408989428 0.48853989837882689 0 0.1216098864341134 0.50637075089503902 0 0.068743045408989428 0.48853989837882689 0 0.113541300460994 0.46208784312094731 0 0.113541300460994 0.46208784312094731 0 0.078358742472063481 0.43365249433908948 0 0.13773355295499351 0.42497777642586831 0 0.078358742472063481 0.43365249433908948 0 0.1117088112799664 0.38831403004970022 0 0.13773355295499351 0.42497777642586831 0 0.078358742472063481 0.43365249433908948 0 0.050583896093752537 0.38543522283434112 0 0.1117088112799664 0.38831403004970022 0 0.078358742472063481 0.43365249433908948 0 0.035463093262830522 0.42673416072819947 0 0.050583896093752537 0.38543522283434112 0 0 0.40000000000166441 0 0 0.35000000000145642 0 0.050583896093752537 0.38543522283434112 0 0 0.40000000000166441 0 0.050583896093752537 0.38543522283434112 0 0.035463093262830522 0.42673416072819947 0 0 0.45000000000187229 0 0 0.40000000000166441 0 0.035463093262830522 0.42673416072819947 0 0 0.45000000000187229 0 0.035463093262830522 0.42673416072819947 0 0.033550201249889847 0.46247875832467239 0 0 0.50000000000205869 0 0.033550201249889847 0.46247875832467239 0 0.068743045408989428 0.48853989837882689 0 0.078358742472063481 0.43365249433908948 0 0.068743045408989428 0.48853989837882689 0 0.033550201249889847 0.46247875832467239 0 0.078358742472063481 0.43365249433908948 0 0.033550201249889847 0.46247875832467239 0 0.035463093262830522 0.42673416072819947 0 0 0.50000000000205869 0 0 0.45000000000187229 0 0.033550201249889847 0.46247875832467239 0 0 0.50000000000205869 0 0.068743045408989428 0.48853989837882689 0 0.044576108720083309 0.53509043209532614 0 0 0.55000000000173355 0 0 0.50000000000205869 0 0.044576108720083309 0.53509043209532614 0 0 0.55000000000173355 0 0.044576108720083309 0.53509043209532614 0 0.034381862692950467 0.57372682250960894 0 0.077693244765132896 0.56932317963405099 0 0.034381862692950467 0.57372682250960894 0 0.044576108720083309 0.53509043209532614 0 0.068743045408989428 0.48853989837882689 0 0.085622222639554768 0.53333248912060549 0 0.044576108720083309 0.53509043209532614 0 0.1216098864341134 0.50637075089503902 0 0.085622222639554768 0.53333248912060549 0 0.068743045408989428 0.48853989837882689 0 0.077693244765132896 0.56932317963405099 0 0.044576108720083309 0.53509043209532614 0 0.085622222639554768 0.53333248912060549 0 0.077693244765132896 0.56932317963405099 0 0.085622222639554768 0.53333248912060549 0 0.1154888278694548 0.56733818459978413 0 0.085622222639554768 0.53333248912060549 0 0.1216098864341134 0.50637075089503902 0 0.1154888278694548 0.56733818459978413 0 0.077693244765132896 0.56932317963405099 0 0.1154888278694548 0.56733818459978413 0 0.1024350934457823 0.60772393977513839 0 0.086179601630648681 0.64647209519980475 0 0.050069554451969707 0.61308520079857043 0 0.1024350934457823 0.60772393977513839 0 0.077693244765132896 0.56932317963405099 0 0.1024350934457823 0.60772393977513839 0 0.050069554451969707 0.61308520079857043 0 0.077693244765132896 0.56932317963405099 0 0.050069554451969707 0.61308520079857043 0 0.034381862692950467 0.57372682250960894 0 0 0.60000000000138687 0 0 0.55000000000173355 0 0.034381862692950467 0.57372682250960894 0 0 0.65000000000104008 0 0 0.60000000000138687 0 0.050069554451969707 0.61308520079857043 0 0 0.60000000000138687 0 0.034381862692950467 0.57372682250960894 0 0.050069554451969707 0.61308520079857043 0 0 0.7000000000006934 0 0 0.65000000000104008 0 0.046634677244967337 0.671418230738282 0 0.086179601630648681 0.64647209519980475 0 0.046634677244967337 0.671418230738282 0 0.050069554451969707 0.61308520079857043 0 0 0.65000000000104008 0 0.050069554451969707 0.61308520079857043 0 0.046634677244967337 0.671418230738282 0 0 0.75000000000034661 0 0 0.7000000000006934 0 0.049706944316475897 0.72477277076253799 0 0 0.7000000000006934 0 0.046634677244967337 0.671418230738282 0 0.049706944316475897 0.72477277076253799 0 0 0.75000000000034661 0 0.049706944316475897 0.72477277076253799 0 0.04408157711937423 0.7728941757575627 0 0.049706944316475897 0.72477277076253799 0 0.1020579365089687 0.69352219419301997 0 0.090953281884486245 0.7564451946902494 0 0.1215415378367805 0.72939333680004137 0 0.090953281884486245 0.7564451946902494 0 0.1020579365089687 0.69352219419301997 0 0.049706944316475897 0.72477277076253799 0 0.046634677244967337 0.671418230738282 0 0.1020579365089687 0.69352219419301997 0 0.1215415378367805 0.72939333680004137 0 0.14335651144331049 0.75565258250209677 0 0.090953281884486245 0.7564451946902494 0 0.086179601630648681 0.64647209519980475 0 0.1020579365089687 0.69352219419301997 0 0.046634677244967337 0.671418230738282 0 0.086179601630648681 0.64647209519980475 0 0.1241190223511371 0.64391885572885044 0 0.1020579365089687 0.69352219419301997 0 0.086179601630648681 0.64647209519980475 0 0.1024350934457823 0.60772393977513839 0 0.1241190223511371 0.64391885572885044 0 0.16500388252850301 0.66612077714085194 0 0.1020579365089687 0.69352219419301997 0 0.1241190223511371 0.64391885572885044 0 0.15720202157091859 0.60665697304410315 0 0.16500388252850301 0.66612077714085194 0 0.1241190223511371 0.64391885572885044 0 0.15720202157091859 0.60665697304410315 0 0.19914261668318661 0.62286739485272158 0 0.16500388252850301 0.66612077714085194 0 0.16500388252850301 0.66612077714085194 0 0.15332765547575641 0.71200081858233666 0 0.1020579365089687 0.69352219419301997 0 0.1215415378367805 0.72939333680004137 0 0.15332765547575641 0.71200081858233666 0 0.14335651144331049 0.75565258250209677 0 0.1215415378367805 0.72939333680004137 0 0.1020579365089687 0.69352219419301997 0 0.15332765547575641 0.71200081858233666 0 0.16500388252850301 0.66612077714085194 0 0.19068556247388771 0.71028988922845504 0 0.15332765547575641 0.71200081858233666 0 0.18269480424590959 0.75905448272264375 0 0.14335651144331049 0.75565258250209677 0 0.15332765547575641 0.71200081858233666 0 0.18269480424590959 0.75905448272264375 0 0.15332765547575641 0.71200081858233666 0 0.19068556247388771 0.71028988922845504 0 0.18269480424590959 0.75905448272264375 0 0.19068556247388771 0.71028988922845504 0 0.2248999640082178 0.72584299459689172 0 0.2236846579037573 0.67380363126050236 0 0.2248999640082178 0.72584299459689172 0 0.19068556247388771 0.71028988922845504 0 0.2236846579037573 0.67380363126050236 0 0.26439878998046262 0.7048065392091396 0 0.2248999640082178 0.72584299459689172 0 0.25676291524611189 0.7436741304886243 0 0.22556077506376701 0.77837424984191617 0 0.2248999640082178 0.72584299459689172 0 0.25676291524611189 0.7436741304886243 0 0.2248999640082178 0.72584299459689172 0 0.26439878998046262 0.7048065392091396 0 0.2236846579037573 0.67380363126050236 0 0.16500388252850301 0.66612077714085194 0 0.19914261668318661 0.62286739485272158 0 0.2236846579037573 0.67380363126050236 0 0.19068556247388771 0.71028988922845504 0 0.16500388252850301 0.66612077714085194 0 0.2236846579037573 0.67380363126050236 0 0.19914261668318661 0.62286739485272158 0 0.2459498854893499 0.63248470766216769 0 0.2236846579037573 0.67380363126050236 0 0.2459498854893499 0.63248470766216769 0 0.27820712747429932 0.65530134213254643 0 0.22549374774072969 0.58452645269293457 0 0.2459498854893499 0.63248470766216769 0 0.19914261668318661 0.62286739485272158 0 0.26573297623774761 0.59828298563722948 0 0.2459498854893499 0.63248470766216769 0 0.22549374774072969 0.58452645269293457 0 0.22549374774072969 0.58452645269293457 0 0.19914261668318661 0.62286739485272158 0 0.18381867841758909 0.57774125163628387 0 0.20050006573841939 0.53248514016039872 0 0.22549374774072969 0.58452645269293457 0 0.18381867841758909 0.57774125163628387 0 0.26573297623774761 0.59828298563722948 0 0.22549374774072969 0.58452645269293457 0 0.25115337790845271 0.54719303014923271 0 0.20050006573841939 0.53248514016039872 0 0.25115337790845271 0.54719303014923271 0 0.22549374774072969 0.58452645269293457 0 0.20050006573841939 0.53248514016039872 0 0.23975172658309729 0.49475499200540818 0 0.25115337790845271 0.54719303014923271 0 0.20050006573841939 0.53248514016039872 0 0.16618607197337229 0.50652878253548905 0 0.19604738184454831 0.47787523520405789 0 0.20050006573841939 0.53248514016039872 0 0.19604738184454831 0.47787523520405789 0 0.23975172658309729 0.49475499200540818 0 0.20050006573841939 0.53248514016039872 0 0.18381867841758909 0.57774125163628387 0 0.14934928745814749 0.55042914607228977 0 0.20050006573841939 0.53248514016039872 0 0.14934928745814749 0.55042914607228977 0 0.16618607197337229 0.50652878253548905 0 0.1216098864341134 0.50637075089503902 0 0.16618607197337229 0.50652878253548905 0 0.14934928745814749 0.55042914607228977 0 0.1154888278694548 0.56733818459978413 0 0.1216098864341134 0.50637075089503902 0 0.14934928745814749 0.55042914607228977 0 0.15720202157091859 0.60665697304410315 0 0.1154888278694548 0.56733818459978413 0 0.14934928745814749 0.55042914607228977 0 0.15720202157091859 0.60665697304410315 0 0.1024350934457823 0.60772393977513839 0 0.1154888278694548 0.56733818459978413 0 0.15720202157091859 0.60665697304410315 0 0.1241190223511371 0.64391885572885044 0 0.1024350934457823 0.60772393977513839 0 0.18381867841758909 0.57774125163628387 0 0.19914261668318661 0.62286739485272158 0 0.15720202157091859 0.60665697304410315 0 0.15720202157091859 0.60665697304410315 0 0.14934928745814749 0.55042914607228977 0 0.18381867841758909 0.57774125163628387 0 0.15000000000062411 1 0 0.10000000000041601 1 0 0.10266856499240549 0.95548163909968886 0 0.083411279318375747 0.91030024466934134 0 0.10266856499240549 0.95548163909968886 0 0.053064897599294662 0.95186845269532028 0 0.050000000000207989 1 0 0.053064897599294662 0.95186845269532028 0 0.10000000000041601 1 0 0.10000000000041601 1 0 0.053064897599294662 0.95186845269532028 0 0.10266856499240549 0.95548163909968886 0 0.050000000000207989 1 0 0.025766224399875661 0.97546711317377799 0 0.053064897599294662 0.95186845269532028 0 0 1 0 0.025766224399875661 0.97546711317377799 0 0.050000000000207989 1 0 0 1 0 0 0.94999999999979179 0 0.025766224399875661 0.97546711317377799 0 0 0.94999999999979179 0 0.053064897599294662 0.95186845269532028 0 0.025766224399875661 0.97546711317377799 0 0 0.94999999999979179 0 0.0443105827531413 0.89858748162559932 0 0.053064897599294662 0.95186845269532028 0 0.083411279318375747 0.91030024466934134 0 0.053064897599294662 0.95186845269532028 0 0.0443105827531413 0.89858748162559932 0 0 0.94999999999979179 0 0 0.89999999999958358 0 0.0443105827531413 0.89858748162559932 0 0 0.89999999999958358 0 0 0.84999999999965292 0 0.0443105827531413 0.89858748162559932 0 0.083411279318375747 0.91030024466934134 0 0.0443105827531413 0.89858748162559932 0 0.065374659239661639 0.8551091961254178 0 0.083411279318375747 0.91030024466934134 0 0.065374659239661639 0.8551091961254178 0 0.10562472963403439 0.87143394428979881 0 0.083411279318375747 0.91030024466934134 0 0.1241151115713819 0.9045666525468371 0 0.10266856499240549 0.95548163909968886 0 0.14617343800780541 0.93808063414349496 0 0.10266856499240549 0.95548163909968886 0 0.1241151115713819 0.9045666525468371 0 0.14474682429600511 0.85524784522713515 0 0.1241151115713819 0.9045666525468371 0 0.10562472963403439 0.87143394428979881 0 0.083411279318375747 0.91030024466934134 0 0.10562472963403439 0.87143394428979881 0 0.1241151115713819 0.9045666525468371 0 0.14474682429600511 0.85524784522713515 0 0.10562472963403439 0.87143394428979881 0 0.1074251789111534 0.83564394292147814 0 0.083105206071452636 0.79992298667296435 0 0.1074251789111534 0.83564394292147814 0 0.065374659239661639 0.8551091961254178 0 0.065374659239661639 0.8551091961254178 0 0.1074251789111534 0.83564394292147814 0 0.10562472963403439 0.87143394428979881 0 0 0.84999999999965292 0 0.038512288486097702 0.8155852717111195 0 0.065374659239661639 0.8551091961254178 0 0 0.84999999999965292 0 0.065374659239661639 0.8551091961254178 0 0.0443105827531413 0.89858748162559932 0 0 0.84999999999965292 0 0 0.79999999999999982 0 0.038512288486097702 0.8155852717111195 0 0.083105206071452636 0.79992298667296435 0 0.065374659239661639 0.8551091961254178 0 0.038512288486097702 0.8155852717111195 0 0.083105206071452636 0.79992298667296435 0 0.038512288486097702 0.8155852717111195 0 0.04408157711937423 0.7728941757575627 0 0 0.79999999999999982 0 0.04408157711937423 0.7728941757575627 0 0.038512288486097702 0.8155852717111195 0 0 0.79999999999999982 0 0 0.75000000000034661 0 0.04408157711937423 0.7728941757575627 0 0.049706944316475897 0.72477277076253799 0 0.090953281884486245 0.7564451946902494 0 0.04408157711937423 0.7728941757575627 0 0.083105206071452636 0.79992298667296435 0 0.04408157711937423 0.7728941757575627 0 0.090953281884486245 0.7564451946902494 0 0.083105206071452636 0.79992298667296435 0 0.1382744753146134 0.79650574229207483 0 0.1074251789111534 0.83564394292147814 0 0.083105206071452636 0.79992298667296435 0 0.090953281884486245 0.7564451946902494 0 0.1382744753146134 0.79650574229207483 0 0.1382744753146134 0.79650574229207483 0 0.090953281884486245 0.7564451946902494 0 0.14335651144331049 0.75565258250209677 0 0.18269480424590959 0.75905448272264375 0 0.1382744753146134 0.79650574229207483 0 0.14335651144331049 0.75565258250209677 0 0.18269480424590959 0.75905448272264375 0 0.17777405986036951 0.81832336108265358 0 0.1382744753146134 0.79650574229207483 0 0.18269480424590959 0.75905448272264375 0 0.2248999640082178 0.72584299459689172 0 0.22556077506376701 0.77837424984191617 0 0.21858834311891909 0.81980263716112767 0 0.22556077506376701 0.77837424984191617 0 0.26104540868854792 0.81401944968719064 0 0.21858834311891909 0.81980263716112767 0 0.17777405986036951 0.81832336108265358 0 0.22556077506376701 0.77837424984191617 0 0.18269480424590959 0.75905448272264375 0 0.22556077506376701 0.77837424984191617 0 0.17777405986036951 0.81832336108265358 0 0.21858834311891909 0.81980263716112767 0 0.19741632902693801 0.86755867406447229 0 0.17777405986036951 0.81832336108265358 0 0.21858834311891909 0.81980263716112767 0 0.26104540868854792 0.81401944968719064 0 0.2401283238295133 0.85648409884788523 0 0.21858834311891909 0.81980263716112767 0 0.2401283238295133 0.85648409884788523 0 0.19741632902693801 0.86755867406447229 0 0.14474682429600511 0.85524784522713515 0 0.17777405986036951 0.81832336108265358 0 0.19741632902693801 0.86755867406447229 0 0.14474682429600511 0.85524784522713515 0 0.19741632902693801 0.86755867406447229 0 0.16206583317966519 0.89685560785156404 0 0.14474682429600511 0.85524784522713515 0 0.1382744753146134 0.79650574229207483 0 0.17777405986036951 0.81832336108265358 0 0.14474682429600511 0.85524784522713515 0 0.1074251789111534 0.83564394292147814 0 0.1382744753146134 0.79650574229207483 0 0.14474682429600511 0.85524784522713515 0 0.16206583317966519 0.89685560785156404 0 0.1241151115713819 0.9045666525468371 0 0.14617343800780541 0.93808063414349496 0 0.1241151115713819 0.9045666525468371 0 0.16206583317966519 0.89685560785156404 0 0.19901705110390991 0.9175543425573498 0 0.14617343800780541 0.93808063414349496 0 0.16206583317966519 0.89685560785156404 0 0.19901705110390991 0.9175543425573498 0 0.16206583317966519 0.89685560785156404 0 0.19741632902693801 0.86755867406447229 0 0.19901705110390991 0.9175543425573498 0 0.19741632902693801 0.86755867406447229 0 0.24536017905392571 0.90704567837671446 0 0.19741632902693801 0.86755867406447229 0 0.2401283238295133 0.85648409884788523 0 0.24536017905392571 0.90704567837671446 0 0.19901705110390991 0.9175543425573498 0 0.24536017905392571 0.90704567837671446 0 0.22850979588452081 0.95594428570238643 0 0.19901705110390991 0.9175543425573498 0 0.22850979588452081 0.95594428570238643 0 0.18474005699953849 0.96231585248064622 0 0.27609987656793722 0.94991445621608572 0 0.22850979588452081 0.95594428570238643 0 0.24536017905392571 0.90704567837671446 0 0.25000000000104028 1 0 0.20000000000083221 1 0 0.22850979588452081 0.95594428570238643 0 0.20000000000083221 1 0 0.18474005699953849 0.96231585248064622 0 0.22850979588452081 0.95594428570238643 0 0.20000000000083221 1 0 0.15000000000062411 1 0 0.18474005699953849 0.96231585248064622 0 0.19901705110390991 0.9175543425573498 0 0.18474005699953849 0.96231585248064622 0 0.14617343800780541 0.93808063414349496 0 0.15000000000062411 1 0 0.14617343800780541 0.93808063414349496 0 0.18474005699953849 0.96231585248064622 0 0.15000000000062411 1 0 0.10266856499240549 0.95548163909968886 0 0.14617343800780541 0.93808063414349496 0 0.35000000000145642 1 0 0.32544832635163229 0.95485394099568932 0 0.36184234618600131 0.96443954459096326 0 0.40000000000166441 1 0 0.35000000000145642 1 0 0.36184234618600131 0.96443954459096326 0 0.35752321586431363 0.9185439911803448 0 0.36184234618600131 0.96443954459096326 0 0.32544832635163229 0.95485394099568932 0 0.35752321586431363 0.9185439911803448 0 0.39641108128798319 0.94356127926187128 0 0.36184234618600131 0.96443954459096326 0 0.35000000000145642 1 0 0.30000000000124832 1 0 0.32544832635163229 0.95485394099568932 0 0.30000000000124832 1 0 0.25000000000104028 1 0 0.27609987656793722 0.94991445621608572 0 0.25000000000104028 1 0 0.22850979588452081 0.95594428570238643 0 0.27609987656793722 0.94991445621608572 0 0.30000000000124832 1 0 0.27609987656793722 0.94991445621608572 0 0.32544832635163229 0.95485394099568932 0 0.27609987656793722 0.94991445621608572 0 0.30864387279288652 0.89906554525974958 0 0.32544832635163229 0.95485394099568932 0 0.27270076654418179 0.87751467830216623 0 0.30864387279288652 0.89906554525974958 0 0.24536017905392571 0.90704567837671446 0 0.27609987656793722 0.94991445621608572 0 0.24536017905392571 0.90704567837671446 0 0.30864387279288652 0.89906554525974958 0 0.27270076654418179 0.87751467830216623 0 0.24536017905392571 0.90704567837671446 0 0.2401283238295133 0.85648409884788523 0 0.35752321586431363 0.9185439911803448 0 0.30864387279288652 0.89906554525974958 0 0.35864759629805099 0.87963482415279515 0 0.35752321586431363 0.9185439911803448 0 0.32544832635163229 0.95485394099568932 0 0.30864387279288652 0.89906554525974958 0 0.35752321586431363 0.9185439911803448 0 0.35864759629805099 0.87963482415279515 0 0.39767323751400468 0.89584229130535065 0 0.35864759629805099 0.87963482415279515 0 0.33403534827021109 0.84402799729020661 0 0.39536230704883951 0.84069429572832477 0 0.33403534827021109 0.84402799729020661 0 0.35642984951668422 0.80994399665655703 0 0.39536230704883951 0.84069429572832477 0 0.33403534827021109 0.84402799729020661 0 0.30857225866488791 0.81101973481716805 0 0.35642984951668422 0.80994399665655703 0 0.33403534827021109 0.84402799729020661 0 0.35864759629805099 0.87963482415279515 0 0.30864387279288652 0.89906554525974958 0 0.33403534827021109 0.84402799729020661 0 0.30864387279288652 0.89906554525974958 0 0.29209212897034281 0.84715728365233667 0 0.27270076654418179 0.87751467830216623 0 0.29209212897034281 0.84715728365233667 0 0.30864387279288652 0.89906554525974958 0 0.27270076654418179 0.87751467830216623 0 0.2401283238295133 0.85648409884788523 0 0.29209212897034281 0.84715728365233667 0 0.26104540868854792 0.81401944968719064 0 0.29209212897034281 0.84715728365233667 0 0.2401283238295133 0.85648409884788523 0 0.26104540868854792 0.81401944968719064 0 0.30857225866488791 0.81101973481716805 0 0.29209212897034281 0.84715728365233667 0 0.33403534827021109 0.84402799729020661 0 0.29209212897034281 0.84715728365233667 0 0.30857225866488791 0.81101973481716805 0 0.26104540868854792 0.81401944968719064 0 0.2792923945214143 0.77665808831789485 0 0.30857225866488791 0.81101973481716805 0 0.33123028043633618 0.77629643437932982 0 0.30857225866488791 0.81101973481716805 0 0.2792923945214143 0.77665808831789485 0 0.26104540868854792 0.81401944968719064 0 0.22556077506376701 0.77837424984191617 0 0.2792923945214143 0.77665808831789485 0 0.25676291524611189 0.7436741304886243 0 0.29904318922293632 0.74132814928635593 0 0.2792923945214143 0.77665808831789485 0 0.25676291524611189 0.7436741304886243 0 0.2792923945214143 0.77665808831789485 0 0.22556077506376701 0.77837424984191617 0 0.33123028043633618 0.77629643437932982 0 0.2792923945214143 0.77665808831789485 0 0.29904318922293632 0.74132814928635593 0 0.33123028043633618 0.77629643437932982 0 0.29904318922293632 0.74132814928635593 0 0.35415581127540569 0.73730480045900215 0 0.33123028043633618 0.77629643437932982 0 0.35642984951668422 0.80994399665655703 0 0.30857225866488791 0.81101973481716805 0 0.33123028043633618 0.77629643437932982 0 0.38586766253264881 0.78219501014812498 0 0.35642984951668422 0.80994399665655703 0 0.33123028043633618 0.77629643437932982 0 0.35415581127540569 0.73730480045900215 0 0.38586766253264881 0.78219501014812498 0 0.40326160981139969 0.73346192995102844 0 0.42676259796334498 0.76772545931379299 0 0.38586766253264881 0.78219501014812498 0 0.40326160981139969 0.73346192995102844 0 0.38586766253264881 0.78219501014812498 0 0.35415581127540569 0.73730480045900215 0 0.39536230704883951 0.84069429572832477 0 0.38586766253264881 0.78219501014812498 0 0.42609163930740518 0.80361684430568059 0 0.39536230704883951 0.84069429572832477 0 0.35642984951668422 0.80994399665655703 0 0.38586766253264881 0.78219501014812498 0 0.38586766253264881 0.78219501014812498 0 0.42676259796334498 0.76772545931379299 0 0.42609163930740518 0.80361684430568059 0 0.4656888918609538 0.78493261229743638 0 0.42676259796334498 0.76772545931379299 0 0.45582236402875981 0.73896743678908217 0 0.4656888918609538 0.78493261229743638 0 0.45582236402875981 0.73896743678908217 0 0.50945740445113552 0.75476055527778108 0 0.4656888918609538 0.78493261229743638 0 0.50945740445113552 0.75476055527778108 0 0.50731287292894423 0.78963574450233831 0 0.4656888918609538 0.78493261229743638 0 0.50731287292894423 0.78963574450233831 0 0.50627822638148745 0.8263979829520941 0 0.4656888918609538 0.78493261229743638 0 0.45677673713123867 0.84253684404072415 0 0.42609163930740518 0.80361684430568059 0 0.4656888918609538 0.78493261229743638 0 0.42609163930740518 0.80361684430568059 0 0.42676259796334498 0.76772545931379299 0 0.4656888918609538 0.78493261229743638 0 0.50627822638148745 0.8263979829520941 0 0.45677673713123867 0.84253684404072415 0 0.50202631463681879 0.87892870825713787 0 0.45677673713123867 0.84253684404072415 0 0.50627822638148745 0.8263979829520941 0 0.50202631463681879 0.87892870825713787 0 0.44003836461056539 0.88093474584252718 0 0.45677673713123867 0.84253684404072415 0 0.39536230704883951 0.84069429572832477 0 0.45677673713123867 0.84253684404072415 0 0.44003836461056539 0.88093474584252718 0 0.39536230704883951 0.84069429572832477 0 0.44003836461056539 0.88093474584252718 0 0.39767323751400468 0.89584229130535065 0 0.39536230704883951 0.84069429572832477 0 0.42609163930740518 0.80361684430568059 0 0.45677673713123867 0.84253684404072415 0 0.39536230704883951 0.84069429572832477 0 0.39767323751400468 0.89584229130535065 0 0.35864759629805099 0.87963482415279515 0 0.35752321586431363 0.9185439911803448 0 0.39767323751400468 0.89584229130535065 0 0.39641108128798319 0.94356127926187128 0 0.4367309254023824 0.92065556789053882 0 0.39641108128798319 0.94356127926187128 0 0.39767323751400468 0.89584229130535065 0 0.4367309254023824 0.92065556789053882 0 0.39767323751400468 0.89584229130535065 0 0.44003836461056539 0.88093474584252718 0 0.4367309254023824 0.92065556789053882 0 0.44003836461056539 0.88093474584252718 0 0.47401147028110507 0.91529957330468115 0 0.50202631463681879 0.87892870825713787 0 0.47401147028110507 0.91529957330468115 0 0.44003836461056539 0.88093474584252718 0 0.52122150208832174 0.94089974453840242 0 0.47135117303824892 0.95556877749289892 0 0.47401147028110507 0.91529957330468115 0 0.50202631463681879 0.87892870825713787 0 0.52122150208832174 0.94089974453840242 0 0.47401147028110507 0.91529957330468115 0 0.4367309254023824 0.92065556789053882 0 0.47401147028110507 0.91529957330468115 0 0.47135117303824892 0.95556877749289892 0 0.4367309254023824 0.92065556789053882 0 0.47135117303824892 0.95556877749289892 0 0.4308986359464303 0.96395712492906194 0 0.50000000000205869 1 0 0.47135117303824892 0.95556877749289892 0 0.52122150208832174 0.94089974453840242 0 0.50000000000205869 1 0 0.45000000000187229 1 0 0.47135117303824892 0.95556877749289892 0 0.45000000000187229 1 0 0.4308986359464303 0.96395712492906194 0 0.47135117303824892 0.95556877749289892 0 0.45000000000187229 1 0 0.40000000000166441 1 0 0.4308986359464303 0.96395712492906194 0 0.40000000000166441 1 0 0.39641108128798319 0.94356127926187128 0 0.4308986359464303 0.96395712492906194 0 0.4367309254023824 0.92065556789053882 0 0.4308986359464303 0.96395712492906194 0 0.39641108128798319 0.94356127926187128 0 0.40000000000166441 1 0 0.36184234618600131 0.96443954459096326 0 0.39641108128798319 0.94356127926187128 0 0.33122374654748771 0.57588941099433744 0 0.35765792684946668 0.6000687869219653 0 0.31502927232353312 0.6134992213375432 0 0.35864735590330371 0.63903383440414463 0 0.31502927232353312 0.6134992213375432 0 0.35765792684946668 0.6000687869219653 0 0.35864735590330371 0.63903383440414463 0 0.35765792684946668 0.6000687869219653 0 0.39743091024207589 0.6239520004230239 0 0.33122374654748771 0.57588941099433744 0 0.37272913873093971 0.56192925302619479 0 0.35765792684946668 0.6000687869219653 0 0.38244435121258652 0.51653317813019495 0 0.37272913873093971 0.56192925302619479 0 0.33190227185843768 0.52715113583864037 0 0.33122374654748771 0.57588941099433744 0 0.33190227185843768 0.52715113583864037 0 0.37272913873093971 0.56192925302619479 0 0.38244435121258652 0.51653317813019495 0 0.33190227185843768 0.52715113583864037 0 0.35024835142131061 0.48654922671676981 0 0.33122374654748771 0.57588941099433744 0 0.29110487519241501 0.56588143995431495 0 0.33190227185843768 0.52715113583864037 0 0.28307294598219601 0.50789252727458634 0 0.33190227185843768 0.52715113583864037 0 0.29110487519241501 0.56588143995431495 0 0.31068898841644388 0.47541502461811092 0 0.33190227185843768 0.52715113583864037 0 0.28307294598219601 0.50789252727458634 0 0.28307294598219601 0.50789252727458634 0 0.25115337790845271 0.54719303014923271 0 0.23975172658309729 0.49475499200540818 0 0.28307294598219601 0.50789252727458634 0 0.29110487519241501 0.56588143995431495 0 0.25115337790845271 0.54719303014923271 0 0.26573297623774761 0.59828298563722948 0 0.25115337790845271 0.54719303014923271 0 0.29110487519241501 0.56588143995431495 0 0.33122374654748771 0.57588941099433744 0 0.31502927232353312 0.6134992213375432 0 0.29110487519241501 0.56588143995431495 0 0.26573297623774761 0.59828298563722948 0 0.29110487519241501 0.56588143995431495 0 0.31502927232353312 0.6134992213375432 0 0.26573297623774761 0.59828298563722948 0 0.31502927232353312 0.6134992213375432 0 0.27820712747429932 0.65530134213254643 0 0.26573297623774761 0.59828298563722948 0 0.27820712747429932 0.65530134213254643 0 0.2459498854893499 0.63248470766216769 0 0.2236846579037573 0.67380363126050236 0 0.27820712747429932 0.65530134213254643 0 0.26439878998046262 0.7048065392091396 0 0.31378396441836959 0.70157213313026345 0 0.27820712747429932 0.65530134213254643 0 0.32263089806001177 0.66003674931826484 0 0.31378396441836959 0.70157213313026345 0 0.26439878998046262 0.7048065392091396 0 0.27820712747429932 0.65530134213254643 0 0.27820712747429932 0.65530134213254643 0 0.31502927232353312 0.6134992213375432 0 0.32263089806001177 0.66003674931826484 0 0.25676291524611189 0.7436741304886243 0 0.26439878998046262 0.7048065392091396 0 0.29904318922293632 0.74132814928635593 0 0.31378396441836959 0.70157213313026345 0 0.29904318922293632 0.74132814928635593 0 0.26439878998046262 0.7048065392091396 0 0.31378396441836959 0.70157213313026345 0 0.35415581127540569 0.73730480045900215 0 0.29904318922293632 0.74132814928635593 0 0.31378396441836959 0.70157213313026345 0 0.36622285152418499 0.69092437780804039 0 0.35415581127540569 0.73730480045900215 0 0.40326160981139969 0.73346192995102844 0 0.35415581127540569 0.73730480045900215 0 0.36622285152418499 0.69092437780804039 0 0.35864735590330371 0.63903383440414463 0 0.32263089806001177 0.66003674931826484 0 0.31502927232353312 0.6134992213375432 0 0.31378396441836959 0.70157213313026345 0 0.32263089806001177 0.66003674931826484 0 0.36622285152418499 0.69092437780804039 0 0.35864735590330371 0.63903383440414463 0 0.36622285152418499 0.69092437780804039 0 0.32263089806001177 0.66003674931826484 0 0.35864735590330371 0.63903383440414463 0 0.3977710372045391 0.65868194622830212 0 0.36622285152418499 0.69092437780804039 0 0.35864735590330371 0.63903383440414463 0 0.39743091024207589 0.6239520004230239 0 0.3977710372045391 0.65868194622830212 0 0.36622285152418499 0.69092437780804039 0 0.3977710372045391 0.65868194622830212 0 0.43323420005758778 0.6913544522562407 0 0.43846182030517877 0.64845797726506715 0 0.43323420005758778 0.6913544522562407 0 0.3977710372045391 0.65868194622830212 0 0.43846182030517877 0.64845797726506715 0 0.39743091024207589 0.6239520004230239 0 0.43545892161006339 0.61093128915313821 0 0.43846182030517877 0.64845797726506715 0 0.3977710372045391 0.65868194622830212 0 0.39743091024207589 0.6239520004230239 0 0.40326160981139969 0.73346192995102844 0 0.36622285152418499 0.69092437780804039 0 0.43323420005758778 0.6913544522562407 0 0.40326160981139969 0.73346192995102844 0 0.43323420005758778 0.6913544522562407 0 0.45582236402875981 0.73896743678908217 0 0.40326160981139969 0.73346192995102844 0 0.45582236402875981 0.73896743678908217 0 0.42676259796334498 0.76772545931379299 0 0.5 0.69999999999999996 0 0.45582236402875981 0.73896743678908217 0 0.43323420005758778 0.6913544522562407 0 0.5 0.69999999999999996 0 0.50945740445113552 0.75476055527778108 0 0.45582236402875981 0.73896743678908217 0 0.5 0.69999999999999996 0 0.43323420005758778 0.6913544522562407 0 0.47913475093885149 0.66010775372412711 0 0.43846182030517877 0.64845797726506715 0 0.47095389620662098 0.61892551373708504 0 0.47913475093885149 0.66010775372412711 0 0.43846182030517877 0.64845797726506715 0 0.43545892161006339 0.61093128915313821 0 0.47095389620662098 0.61892551373708504 0 0.43846182030517877 0.64845797726506715 0 0.47913475093885149 0.66010775372412711 0 0.43323420005758778 0.6913544522562407 0 0.50715858906372158 0.63295939104129484 0 0.47913475093885149 0.66010775372412711 0 0.47095389620662098 0.61892551373708504 0 0.50715858906372158 0.63295939104129484 0 0.47095389620662098 0.61892551373708504 0 0.5166924242153631 0.59825134841919447 0 0.46666084890304671 0.57634471035397938 0 0.5166924242153631 0.59825134841919447 0 0.47095389620662098 0.61892551373708504 0 0.46666084890304671 0.57634471035397938 0 0.47095389620662098 0.61892551373708504 0 0.43545892161006339 0.61093128915313821 0 0.4089290844030305 0.58728915500154233 0 0.43545892161006339 0.61093128915313821 0 0.39743091024207589 0.6239520004230239 0 0.43545892161006339 0.61093128915313821 0 0.4089290844030305 0.58728915500154233 0 0.46666084890304671 0.57634471035397938 0 0.4089290844030305 0.58728915500154233 0 0.42644501560315817 0.54603747078095544 0 0.46666084890304671 0.57634471035397938 0 0.4089290844030305 0.58728915500154233 0 0.37272913873093971 0.56192925302619479 0 0.42644501560315817 0.54603747078095544 0 0.4089290844030305 0.58728915500154233 0 0.35765792684946668 0.6000687869219653 0 0.37272913873093971 0.56192925302619479 0 0.4089290844030305 0.58728915500154233 0 0.39743091024207589 0.6239520004230239 0 0.35765792684946668 0.6000687869219653 0 0.38244435121258652 0.51653317813019495 0 0.42644501560315817 0.54603747078095544 0 0.37272913873093971 0.56192925302619479 0 0.38244435121258652 0.51653317813019495 0 0.43507373378304309 0.49699695397193322 0 0.42644501560315817 0.54603747078095544 0 0.46666084890304671 0.57634471035397938 0 0.47793794143994173 0.52940715638744962 0 0.53245488764484505 0.55078124999999989 0 0.49102375406324739 0.49123754822244059 0 0.47793794143994173 0.52940715638744962 0 0.43507373378304309 0.49699695397193322 0 0.43507373378304309 0.49699695397193322 0 0.47793794143994173 0.52940715638744962 0 0.42644501560315817 0.54603747078095544 0 0.46666084890304671 0.57634471035397938 0 0.42644501560315817 0.54603747078095544 0 0.47793794143994173 0.52940715638744962 0 0.49102375406324739 0.49123754822244059 0 0.53330375813596242 0.50827942741749099 0 0.47793794143994173 0.52940715638744962 0 0.53245488764484505 0.55078124999999989 0 0.47793794143994173 0.52940715638744962 0 0.53330375813596242 0.50827942741749099 0 0.53245488764484505 0.55078124999999989 0 0.53330375813596242 0.50827942741749099 0 0.57435499076887508 0.54267261987897775 0 0.57412547362576272 0.58273804879550706 0 0.53245488764484505 0.55078124999999989 0 0.57435499076887508 0.54267261987897775 0 0.57611405284611883 0.50165903596042916 0 0.57435499076887508 0.54267261987897775 0 0.53330375813596242 0.50827942741749099 0 0.57611405284611883 0.50165903596042916 0 0.62042975506801734 0.54295974692364424 0 0.57435499076887508 0.54267261987897775 0 0.57412547362576272 0.58273804879550706 0 0.57435499076887508 0.54267261987897775 0 0.62042975506801734 0.54295974692364424 0 0.57611405284611883 0.50165903596042916 0 0.61547661924074692 0.48539576058873962 0 0.62042975506801734 0.54295974692364424 0 0.6405463747586706 0.63290524857395714 0 0.5991018319127801 0.62925360607495295 0 0.63065402604362242 0.59661356661633302 0 0.57412547362576272 0.58273804879550706 0 0.63065402604362242 0.59661356661633302 0 0.5991018319127801 0.62925360607495295 0 0.57412547362576272 0.58273804879550706 0 0.62042975506801734 0.54295974692364424 0 0.63065402604362242 0.59661356661633302 0 0.57412547362576272 0.58273804879550706 0 0.5991018319127801 0.62925360607495295 0 0.5498280205245758 0.6290146943450976 0 0.46666084890304671 0.57634471035397938 0 0.53245488764484505 0.55078124999999989 0 0.5166924242153631 0.59825134841919447 0 0.57412547362576272 0.58273804879550706 0 0.5498280205245758 0.6290146943450976 0 0.5166924242153631 0.59825134841919447 0 0.57412547362576272 0.58273804879550706 0 0.5166924242153631 0.59825134841919447 0 0.53245488764484505 0.55078124999999989 0 0.50715858906372158 0.63295939104129484 0 0.5166924242153631 0.59825134841919447 0 0.5498280205245758 0.6290146943450976 0 0.50715858906372158 0.63295939104129484 0 0.52584555706968406 0.66664215091846768 0 0.47913475093885149 0.66010775372412711 0 0.50715858906372158 0.63295939104129484 0 0.5498280205245758 0.6290146943450976 0 0.52584555706968406 0.66664215091846768 0 0.5 0.69999999999999996 0 0.47913475093885149 0.66010775372412711 0 0.52584555706968406 0.66664215091846768 0 0.54999999999999993 0.69999999999999996 0 0.52584555706968406 0.66664215091846768 0 0.57484956128872922 0.66573805030881994 0 0.57484956128872922 0.66573805030881994 0 0.52584555706968406 0.66664215091846768 0 0.5498280205245758 0.6290146943450976 0 0.50945740445113552 0.75476055527778108 0 0.5 0.69999999999999996 0 0.55363780716230748 0.74348740161571747 0 0.5 0.69999999999999996 0 0.52584555706968406 0.66664215091846768 0 0.54999999999999993 0.69999999999999996 0 0.5 0.69999999999999996 0 0.54999999999999993 0.69999999999999996 0 0.5 0.69999999999999996 0 0.54999999999999993 0.69999999999999996 0 0.55363780716230748 0.74348740161571747 0 0.59999999999999976 0.69999999999999996 0 0.59636844454254345 0.75937156204589151 0 0.55363780716230748 0.74348740161571747 0 0.54999999999999993 0.69999999999999996 0 0.59999999999999976 0.69999999999999996 0 0.54999999999999993 0.69999999999999996 0 0.57484956128872922 0.66573805030881994 0 0.59999999999999976 0.69999999999999996 0 0.54999999999999993 0.69999999999999996 0 0.59999999999999976 0.69999999999999996 0 0.55363780716230748 0.74348740161571747 0 0.59999999999999976 0.69999999999999996 0 0.6499999999999998 0.69999999999999996 0 0.59999999999999976 0.69999999999999996 0 0.62460753523532009 0.66851202781000296 0 0.6499999999999998 0.69999999999999996 0 0.59999999999999976 0.69999999999999996 0 0.63221990677827677 0.73442891067859706 0 0.59636844454254345 0.75937156204589151 0 0.57484956128872922 0.66573805030881994 0 0.5498280205245758 0.6290146943450976 0 0.5991018319127801 0.62925360607495295 0 0.59999999999999976 0.69999999999999996 0 0.57484956128872922 0.66573805030881994 0 0.62460753523532009 0.66851202781000296 0 0.57484956128872922 0.66573805030881994 0 0.5991018319127801 0.62925360607495295 0 0.62460753523532009 0.66851202781000296 0 0.6405463747586706 0.63290524857395714 0 0.62460753523532009 0.66851202781000296 0 0.5991018319127801 0.62925360607495295 0 0.6405463747586706 0.63290524857395714 0 0.675261390228442 0.65996937624687813 0 0.62460753523532009 0.66851202781000296 0 0.6499999999999998 0.69999999999999996 0 0.62460753523532009 0.66851202781000296 0 0.675261390228442 0.65996937624687813 0 0.6499999999999998 0.69999999999999996 0 0.675261390228442 0.65996937624687813 0 0.69999999999999984 0.69999999999999996 0 0.6405463747586706 0.63290524857395714 0 0.67529834988829951 0.61613270668143583 0 0.675261390228442 0.65996937624687813 0 0.64753070846764316 0.77332939069435502 0 0.63221990677827677 0.73442891067859706 0 0.66427993341343905 0.73232764502436276 0 0.6499999999999998 0.69999999999999996 0 0.66427993341343905 0.73232764502436276 0 0.63221990677827677 0.73442891067859706 0 0.59999999999999976 0.69999999999999996 0 0.6499999999999998 0.69999999999999996 0 0.63221990677827677 0.73442891067859706 0 0.6499999999999998 0.69999999999999996 0 0.69999999999999984 0.69999999999999996 0 0.6499999999999998 0.69999999999999996 0 0.69999999999999984 0.69999999999999996 0 0.66427993341343905 0.73232764502436276 0 0.69999999999999984 0.69999999999999996 0 0.6916490518212759 0.75387992374886192 0 0.66427993341343905 0.73232764502436276 0 0.69999999999999984 0.69999999999999996 0 0.72501250972655151 0.74067302935308721 0 0.6916490518212759 0.75387992374886192 0 0.69999999999999984 0.69999999999999996 0 0.74999999999999989 0.69999999999999996 0 0.72501250972655151 0.74067302935308721 0 0.69999999999999984 0.69999999999999996 0 0.72500000000000064 0.67022701834392062 0 0.74999999999999989 0.69999999999999996 0 0.69999999999999984 0.69999999999999996 0 0.74999999999999989 0.69999999999999996 0 0.74999999999999989 0.69999999999999996 0 0.75841349681148107 0.75422312624214749 0 0.72501250972655151 0.74067302935308721 0 0.71406021706547751 0.63292083137662503 0 0.72500000000000064 0.67022701834392062 0 0.675261390228442 0.65996937624687813 0 0.71406021706547751 0.63292083137662503 0 0.675261390228442 0.65996937624687813 0 0.67529834988829951 0.61613270668143583 0 0.69999999999999984 0.69999999999999996 0 0.675261390228442 0.65996937624687813 0 0.72500000000000064 0.67022701834392062 0 0.71406021706547751 0.63292083137662503 0 0.74994237037456724 0.62775548192980357 0 0.72500000000000064 0.67022701834392062 0 0.7750489929959945 0.66593931409600093 0 0.72500000000000064 0.67022701834392062 0 0.74994237037456724 0.62775548192980357 0 0.71406021706547751 0.63292083137662503 0 0.71809016091162536 0.58185040402320831 0 0.74994237037456724 0.62775548192980357 0 0.77293540622714185 0.59448302402785813 0 0.74994237037456724 0.62775548192980357 0 0.71809016091162536 0.58185040402320831 0 0.71406021706547751 0.63292083137662503 0 0.67529834988829951 0.61613270668143583 0 0.71809016091162536 0.58185040402320831 0 0.67323294229744413 0.57556450033612505 0 0.67569444444444449 0.53500863336860327 0 0.71809016091162536 0.58185040402320831 0 0.67323294229744413 0.57556450033612505 0 0.71809016091162536 0.58185040402320831 0 0.67529834988829951 0.61613270668143583 0 0.7152569930854884 0.5237994455134295 0 0.77151014687832564 0.54436834383023036 0 0.71809016091162536 0.58185040402320831 0 0.7152569930854884 0.5237994455134295 0 0.73947346780852752 0.49062440112282169 0 0.77151014687832564 0.54436834383023036 0 0.7152569930854884 0.5237994455134295 0 0.67569444444444449 0.53500863336860327 0 0.69385896817107129 0.48377516041410151 0 0.7152569930854884 0.5237994455134295 0 0.71809016091162536 0.58185040402320831 0 0.67569444444444449 0.53500863336860327 0 0.67323294229744413 0.57556450033612505 0 0.62042975506801734 0.54295974692364424 0 0.67569444444444449 0.53500863336860327 0 0.6541250972820879 0.49999999999999989 0 0.69385896817107129 0.48377516041410151 0 0.67569444444444449 0.53500863336860327 0 0.6541250972820879 0.49999999999999989 0 0.67569444444444449 0.53500863336860327 0 0.62042975506801734 0.54295974692364424 0 0.6541250972820879 0.49999999999999989 0 0.62042975506801734 0.54295974692364424 0 0.61547661924074692 0.48539576058873962 0 0.67323294229744413 0.57556450033612505 0 0.63065402604362242 0.59661356661633302 0 0.62042975506801734 0.54295974692364424 0 0.6405463747586706 0.63290524857395714 0 0.63065402604362242 0.59661356661633302 0 0.67529834988829951 0.61613270668143583 0 0.67323294229744413 0.57556450033612505 0 0.67529834988829951 0.61613270668143583 0 0.63065402604362242 0.59661356661633302 0 0.60000000000138687 1 0 0.57382506491224949 0.9629411906298494 0 0.62065498684670595 0.95224934003983619 0 0.65000000000104008 1 0 0.60000000000138687 1 0 0.62065498684670595 0.95224934003983619 0 0.57724883562309992 0.92155686857100794 0 0.62065498684670595 0.95224934003983619 0 0.57382506491224949 0.9629411906298494 0 0.60000000000138687 1 0 0.55000000000173355 1 0 0.57382506491224949 0.9629411906298494 0 0.55000000000173355 1 0 0.50000000000205869 1 0 0.52122150208832174 0.94089974453840242 0 0.57724883562309992 0.92155686857100794 0 0.57382506491224949 0.9629411906298494 0 0.52122150208832174 0.94089974453840242 0 0.55000000000173355 1 0 0.52122150208832174 0.94089974453840242 0 0.57382506491224949 0.9629411906298494 0 0.57724883562309992 0.92155686857100794 0 0.52122150208832174 0.94089974453840242 0 0.54783390826260769 0.89287767010860219 0 0.50202631463681879 0.87892870825713787 0 0.54783390826260769 0.89287767010860219 0 0.52122150208832174 0.94089974453840242 0 0.55899371797446828 0.85003102233514438 0 0.5832743223239254 0.88483152652961872 0 0.54783390826260769 0.89287767010860219 0 0.57724883562309992 0.92155686857100794 0 0.54783390826260769 0.89287767010860219 0 0.5832743223239254 0.88483152652961872 0 0.57724883562309992 0.92155686857100794 0 0.5832743223239254 0.88483152652961872 0 0.61885627562261258 0.90282959257498208 0 0.57724883562309992 0.92155686857100794 0 0.61885627562261258 0.90282959257498208 0 0.62065498684670595 0.95224934003983619 0 0.61343887413683884 0.856862479058357 0 0.61885627562261258 0.90282959257498208 0 0.5832743223239254 0.88483152652961872 0 0.61343887413683884 0.856862479058357 0 0.60294066490120068 0.80851322453934582 0 0.65005442820240822 0.82644988530054031 0 0.61343887413683884 0.856862479058357 0 0.55899371797446828 0.85003102233514438 0 0.60294066490120068 0.80851322453934582 0 0.54782696902220018 0.79245182748204157 0 0.60294066490120068 0.80851322453934582 0 0.55899371797446828 0.85003102233514438 0 0.61343887413683884 0.856862479058357 0 0.5832743223239254 0.88483152652961872 0 0.55899371797446828 0.85003102233514438 0 0.50202631463681879 0.87892870825713787 0 0.55899371797446828 0.85003102233514438 0 0.54783390826260769 0.89287767010860219 0 0.50202631463681879 0.87892870825713787 0 0.50627822638148745 0.8263979829520941 0 0.55899371797446828 0.85003102233514438 0 0.54782696902220018 0.79245182748204157 0 0.55899371797446828 0.85003102233514438 0 0.50627822638148745 0.8263979829520941 0 0.54782696902220018 0.79245182748204157 0 0.50627822638148745 0.8263979829520941 0 0.50731287292894423 0.78963574450233831 0 0.54782696902220018 0.79245182748204157 0 0.50731287292894423 0.78963574450233831 0 0.50945740445113552 0.75476055527778108 0 0.54782696902220018 0.79245182748204157 0 0.50945740445113552 0.75476055527778108 0 0.55363780716230748 0.74348740161571747 0 0.54782696902220018 0.79245182748204157 0 0.55363780716230748 0.74348740161571747 0 0.59636844454254345 0.75937156204589151 0 0.54782696902220018 0.79245182748204157 0 0.59636844454254345 0.75937156204589151 0 0.60294066490120068 0.80851322453934582 0 0.64753070846764316 0.77332939069435502 0 0.60294066490120068 0.80851322453934582 0 0.59636844454254345 0.75937156204589151 0 0.64753070846764316 0.77332939069435502 0 0.59636844454254345 0.75937156204589151 0 0.63221990677827677 0.73442891067859706 0 0.64753070846764316 0.77332939069435502 0 0.65005442820240822 0.82644988530054031 0 0.60294066490120068 0.80851322453934582 0 0.64753070846764316 0.77332939069435502 0 0.68024162096458085 0.79868546898116533 0 0.65005442820240822 0.82644988530054031 0 0.64753070846764316 0.77332939069435502 0 0.6916490518212759 0.75387992374886192 0 0.68024162096458085 0.79868546898116533 0 0.64753070846764316 0.77332939069435502 0 0.66427993341343905 0.73232764502436276 0 0.6916490518212759 0.75387992374886192 0 0.6916490518212759 0.75387992374886192 0 0.72501250972655151 0.74067302935308721 0 0.72500000000000064 0.7952620967744265 0 0.72501250972655151 0.74067302935308721 0 0.75841349681148107 0.75422312624214749 0 0.72500000000000064 0.7952620967744265 0 0.72500000000000064 0.7952620967744265 0 0.68024162096458085 0.79868546898116533 0 0.6916490518212759 0.75387992374886192 0 0.72500000000000064 0.7952620967744265 0 0.68697391633157634 0.84450604838764298 0 0.68024162096458085 0.79868546898116533 0 0.72500000000000064 0.7952620967744265 0 0.72863726579783861 0.85390518901155588 0 0.68697391633157634 0.84450604838764298 0 0.72500000000000064 0.7952620967744265 0 0.76901770135486491 0.84293557325473656 0 0.72863726579783861 0.85390518901155588 0 0.7250000000005199 0.89375000000045834 0 0.68697391633157634 0.84450604838764298 0 0.72863726579783861 0.85390518901155588 0 0.7250000000005199 0.89375000000045834 0 0.66412543161245952 0.88015090885499059 0 0.68697391633157634 0.84450604838764298 0 0.68697391633157634 0.84450604838764298 0 0.66412543161245952 0.88015090885499059 0 0.65005442820240822 0.82644988530054031 0 0.68697391633157634 0.84450604838764298 0 0.65005442820240822 0.82644988530054031 0 0.68024162096458085 0.79868546898116533 0 0.61343887413683884 0.856862479058357 0 0.65005442820240822 0.82644988530054031 0 0.66412543161245952 0.88015090885499059 0 0.61343887413683884 0.856862479058357 0 0.66412543161245952 0.88015090885499059 0 0.61885627562261258 0.90282959257498208 0 0.65507451745379841 0.92229208810758578 0 0.61885627562261258 0.90282959257498208 0 0.66412543161245952 0.88015090885499059 0 0.65507451745379841 0.92229208810758578 0 0.62065498684670595 0.95224934003983619 0 0.61885627562261258 0.90282959257498208 0 0.65507451745379841 0.92229208810758578 0 0.68987011941058407 0.92105047536677087 0 0.68015064798562208 0.95924320340003011 0 0.65507451745379841 0.92229208810758578 0 0.66412543161245952 0.88015090885499059 0 0.68987011941058407 0.92105047536677087 0 0.7250000000005199 0.89375000000045834 0 0.68987011941058407 0.92105047536677087 0 0.66412543161245952 0.88015090885499059 0 0.7250000000005199 0.89375000000045834 0 0.72863726579783861 0.85390518901155588 0 0.76891166905518427 0.88835469571185499 0 0.7250000000005199 0.89375000000045834 0 0.75729602384198635 0.92353652857884294 0 0.7250000000005199 0.94981617647078953 0 0.7250000000005199 0.89375000000045834 0 0.7250000000005199 0.94981617647078953 0 0.68987011941058407 0.92105047536677087 0 0.7250000000005199 0.94981617647078953 0 0.68015064798562208 0.95924320340003011 0 0.68987011941058407 0.92105047536677087 0 0.75000000000034661 1 0 0.7000000000006934 1 0 0.7250000000005199 0.94981617647078953 0 0.75000000000034661 1 0 0.7250000000005199 0.94981617647078953 0 0.770759834363826 0.95919399014344442 0 0.7000000000006934 1 0 0.68015064798562208 0.95924320340003011 0 0.7250000000005199 0.94981617647078953 0 0.7000000000006934 1 0 0.65000000000104008 1 0 0.68015064798562208 0.95924320340003011 0 0.65507451745379841 0.92229208810758578 0 0.68015064798562208 0.95924320340003011 0 0.62065498684670595 0.95224934003983619 0 0.65000000000104008 1 0 0.62065498684670595 0.95224934003983619 0 0.68015064798562208 0.95924320340003011 0 0.84999999999965292 1 0 0.85170973911348691 0.93569607295217616 0 0.89898474358632463 0.95391965591118966 0 0.84999999999965292 1 0 0.81486180804382891 0.96321394949790495 0 0.85170973911348691 0.93569607295217616 0 0.79680861578988083 0.92656778056766709 0 0.85170973911348691 0.93569607295217616 0 0.81486180804382891 0.96321394949790495 0 0.84999999999965292 1 0 0.79999999999999982 1 0 0.81486180804382891 0.96321394949790495 0 0.79999999999999982 1 0 0.770759834363826 0.95919399014344442 0 0.81486180804382891 0.96321394949790495 0 0.79999999999999982 1 0 0.75000000000034661 1 0 0.770759834363826 0.95919399014344442 0 0.7250000000005199 0.94981617647078953 0 0.75729602384198635 0.92353652857884294 0 0.770759834363826 0.95919399014344442 0 0.79680861578988083 0.92656778056766709 0 0.81486180804382891 0.96321394949790495 0 0.770759834363826 0.95919399014344442 0 0.79680861578988083 0.92656778056766709 0 0.75729602384198635 0.92353652857884294 0 0.76891166905518427 0.88835469571185499 0 0.79680861578988083 0.92656778056766709 0 0.770759834363826 0.95919399014344442 0 0.75729602384198635 0.92353652857884294 0 0.7250000000005199 0.89375000000045834 0 0.76891166905518427 0.88835469571185499 0 0.75729602384198635 0.92353652857884294 0 0.79680861578988083 0.92656778056766709 0 0.76891166905518427 0.88835469571185499 0 0.81159157511211755 0.88795995483179491 0 0.85170973911348691 0.93569607295217616 0 0.81159157511211755 0.88795995483179491 0 0.85600844944837662 0.88483418979512773 0 0.79680861578988083 0.92656778056766709 0 0.81159157511211755 0.88795995483179491 0 0.85170973911348691 0.93569607295217616 0 0.90416666666660628 0.9041666666666166 0 0.85170973911348691 0.93569607295217616 0 0.85600844944837662 0.88483418979512773 0 0.82709327591091286 0.84937141670920724 0 0.88088768115933802 0.84674609810493673 0 0.85600844944837662 0.88483418979512773 0 0.82709327591091286 0.84937141670920724 0 0.84725310900444062 0.80779732082917555 0 0.88088768115933802 0.84674609810493673 0 0.82709327591091286 0.84937141670920724 0 0.80041942726660109 0.81543261647703358 0 0.84725310900444062 0.80779732082917555 0 0.82709327591091286 0.84937141670920724 0 0.85600844944837662 0.88483418979512773 0 0.81159157511211755 0.88795995483179491 0 0.76901770135486491 0.84293557325473656 0 0.81159157511211755 0.88795995483179491 0 0.76891166905518427 0.88835469571185499 0 0.82709327591091286 0.84937141670920724 0 0.81159157511211755 0.88795995483179491 0 0.76901770135486491 0.84293557325473656 0 0.76901770135486491 0.84293557325473656 0 0.76891166905518427 0.88835469571185499 0 0.72863726579783861 0.85390518901155588 0 0.76901770135486491 0.84293557325473656 0 0.77094201086366854 0.79647480515688507 0 0.80041942726660109 0.81543261647703358 0 0.82709327591091286 0.84937141670920724 0 0.76901770135486491 0.84293557325473656 0 0.80041942726660109 0.81543261647703358 0 0.80185942888539485 0.77452061303608133 0 0.80041942726660109 0.81543261647703358 0 0.77094201086366854 0.79647480515688507 0 0.72500000000000064 0.7952620967744265 0 0.75841349681148107 0.75422312624214749 0 0.77094201086366854 0.79647480515688507 0 0.72500000000000064 0.7952620967744265 0 0.77094201086366854 0.79647480515688507 0 0.76901770135486491 0.84293557325473656 0 0.80185942888539485 0.77452061303608133 0 0.77094201086366854 0.79647480515688507 0 0.75841349681148107 0.75422312624214749 0 0.80185942888539485 0.77452061303608133 0 0.75841349681148107 0.75422312624214749 0 0.78578450296893509 0.73292684821144505 0 0.80185942888539485 0.77452061303608133 0 0.85491058998424563 0.76004753345552634 0 0.84725310900444062 0.80779732082917555 0 0.80185942888539485 0.77452061303608133 0 0.81864958914779962 0.73589050177899629 0 0.85491058998424563 0.76004753345552634 0 0.80185942888539485 0.77452061303608133 0 0.84725310900444062 0.80779732082917555 0 0.80041942726660109 0.81543261647703358 0 0.90299850604011456 0.79563452813489832 0 0.84725310900444062 0.80779732082917555 0 0.85491058998424563 0.76004753345552634 0 0.90299850604011456 0.79563452813489832 0 0.85491058998424563 0.76004753345552634 0 0.89999166460796554 0.74528934923809909 0 0.90299850604011456 0.79563452813489832 0 0.94399509803918602 0.75600490196082126 0 0.95386563387742829 0.80414874155775029 0 0.90299850604011456 0.79563452813489832 0 0.89999166460796554 0.74528934923809909 0 0.94399509803918602 0.75600490196082126 0 0.94399509803918602 0.75600490196082126 0 0.97435614836745565 0.77499999999987745 0 0.95386563387742829 0.80414874155775029 0 0.94399509803918602 0.75600490196082126 0 0.97166519676947294 0.73337114490064459 0 0.97435614836745565 0.77499999999987745 0 1 0.74999999999993494 0 0.97435614836745565 0.77499999999987745 0 0.97166519676947294 0.73337114490064459 0 1 0.74999999999993494 0 1 0.7999999999998193 0 0.97435614836745565 0.77499999999987745 0 1 0.7999999999998193 0 0.95386563387742829 0.80414874155775029 0 0.97435614836745565 0.77499999999987745 0 1 0.84999999999982645 0 0.95391631417670719 0.89584263333814784 0 0.93677536231884972 0.85000000000000286 0 1 0.84999999999982645 0 0.93677536231884972 0.85000000000000286 0 0.95386563387742829 0.80414874155775029 0 1 0.7999999999998193 0 1 0.84999999999982645 0 0.95386563387742829 0.80414874155775029 0 0.90416666666660628 0.9041666666666166 0 0.88088768115933802 0.84674609810493673 0 0.93677536231884972 0.85000000000000286 0 0.90299850604011456 0.79563452813489832 0 0.95386563387742829 0.80414874155775029 0 0.93677536231884972 0.85000000000000286 0 0.90299850604011456 0.79563452813489832 0 0.93677536231884972 0.85000000000000286 0 0.88088768115933802 0.84674609810493673 0 0.90299850604011456 0.79563452813489832 0 0.88088768115933802 0.84674609810493673 0 0.84725310900444062 0.80779732082917555 0 0.90416666666660628 0.9041666666666166 0 0.85600844944837662 0.88483418979512773 0 0.88088768115933802 0.84674609810493673 0 0.90416666666660628 0.9041666666666166 0 0.89898474358632463 0.95391965591118966 0 0.85170973911348691 0.93569607295217616 0 0.90416666666660628 0.9041666666666166 0 0.95391631417670719 0.89584263333814784 0 0.94399509803919068 0.9439950980391687 0 0.90416666666660628 0.9041666666666166 0 0.94399509803919068 0.9439950980391687 0 0.89898474358632463 0.95391965591118966 0 0.90416666666660628 0.9041666666666166 0 0.93677536231884972 0.85000000000000286 0 0.95391631417670719 0.89584263333814784 0 1 0.84999999999982645 0 1 0.8999999999998336 0 0.95391631417670719 0.89584263333814784 0 1 0.8999999999998336 0 1 0.94999999999997109 0 0.97435614836744289 0.92499999999990257 0 1 0.8999999999998336 0 0.97435614836744289 0.92499999999990257 0 0.95391631417670719 0.89584263333814784 0 0.94399509803919068 0.9439950980391687 0 0.95391631417670719 0.89584263333814784 0 0.97435614836744289 0.92499999999990257 0 0.94399509803919068 0.9439950980391687 0 0.97435614836744289 0.92499999999990257 0 0.97166519676946206 0.96662885509935492 0 1 0.94999999999997109 0 0.97166519676946206 0.96662885509935492 0 0.97435614836744289 0.92499999999990257 0 1 1 0 0.97166519676946206 0.96662885509935492 0 1 0.94999999999997109 0 1 1 0 0.94999999999979179 1 0 0.97166519676946206 0.96662885509935492 0 0.94999999999979179 1 0 0.94399509803919068 0.9439950980391687 0 0.97166519676946206 0.96662885509935492 0 0.94999999999979179 1 0 0.89999999999958358 1 0 0.89898474358632463 0.95391965591118966 0 0.94999999999979179 1 0 0.89898474358632463 0.95391965591118966 0 0.94399509803919068 0.9439950980391687 0 0.89999999999958358 1 0 0.84999999999965292 1 0 0.89898474358632463 0.95391965591118966 0 0.86956835336234861 0.571283299838105 0 0.81723410853263523 0.59419663659258926 0 0.82862096804812391 0.55037090955459045 0 0.83758014339878906 0.63222013025741819 0 0.81723410853263523 0.59419663659258926 0 0.87159648282691515 0.61285406320581504 0 0.83758014339878906 0.63222013025741819 0 0.79884539758237771 0.62875045078114233 0 0.81723410853263523 0.59419663659258926 0 0.86956835336234861 0.571283299838105 0 0.87159648282691515 0.61285406320581504 0 0.81723410853263523 0.59419663659258926 0 0.86956835336234861 0.571283299838105 0 0.82862096804812391 0.55037090955459045 0 0.86907294890112186 0.52008116128001669 0 0.82862096804812391 0.55037090955459045 0 0.81441713509985358 0.51161854125224959 0 0.86907294890112186 0.52008116128001669 0 0.84723782639812573 0.48638347960178252 0 0.86907294890112186 0.52008116128001669 0 0.81441713509985358 0.51161854125224959 0 0.82862096804812391 0.55037090955459045 0 0.77151014687832564 0.54436834383023036 0 0.81441713509985358 0.51161854125224959 0 0.77846603114747959 0.49850927265137401 0 0.81441713509985358 0.51161854125224959 0 0.77151014687832564 0.54436834383023036 0 0.77846603114747959 0.49850927265137401 0 0.77151014687832564 0.54436834383023036 0 0.73947346780852752 0.49062440112282169 0 0.77293540622714185 0.59448302402785813 0 0.71809016091162536 0.58185040402320831 0 0.77151014687832564 0.54436834383023036 0 0.81723410853263523 0.59419663659258926 0 0.77293540622714185 0.59448302402785813 0 0.77151014687832564 0.54436834383023036 0 0.82862096804812391 0.55037090955459045 0 0.81723410853263523 0.59419663659258926 0 0.77151014687832564 0.54436834383023036 0 0.77293540622714185 0.59448302402785813 0 0.81723410853263523 0.59419663659258926 0 0.79884539758237771 0.62875045078114233 0 0.77293540622714185 0.59448302402785813 0 0.79884539758237771 0.62875045078114233 0 0.74994237037456724 0.62775548192980357 0 0.7750489929959945 0.66593931409600093 0 0.74994237037456724 0.62775548192980357 0 0.79884539758237771 0.62875045078114233 0 0.74999999999999989 0.69999999999999996 0 0.72500000000000064 0.67022701834392062 0 0.7750489929959945 0.66593931409600093 0 0.79999999999999982 0.69999999999999996 0 0.7750489929959945 0.66593931409600093 0 0.82457059160610424 0.66831947184359608 0 0.7750489929959945 0.66593931409600093 0 0.79884539758237771 0.62875045078114233 0 0.82457059160610424 0.66831947184359608 0 0.74999999999999989 0.69999999999999996 0 0.78578450296893509 0.73292684821144505 0 0.75841349681148107 0.75422312624214749 0 0.74999999999999989 0.69999999999999996 0 0.79999999999999982 0.69999999999999996 0 0.78578450296893509 0.73292684821144505 0 0.74999999999999989 0.69999999999999996 0 0.7750489929959945 0.66593931409600093 0 0.79999999999999982 0.69999999999999996 0 0.74999999999999989 0.69999999999999996 0 0.79999999999999982 0.69999999999999996 0 0.80185942888539485 0.77452061303608133 0 0.78578450296893509 0.73292684821144505 0 0.81864958914779962 0.73589050177899629 0 0.79999999999999982 0.69999999999999996 0 0.81864958914779962 0.73589050177899629 0 0.78578450296893509 0.73292684821144505 0 0.84999999999999987 0.69999999999999996 0 0.85491058998424563 0.76004753345552634 0 0.81864958914779962 0.73589050177899629 0 0.79999999999999982 0.69999999999999996 0 0.84999999999999987 0.69999999999999996 0 0.79999999999999982 0.69999999999999996 0 0.82457059160610424 0.66831947184359608 0 0.84999999999999987 0.69999999999999996 0 0.79999999999999982 0.69999999999999996 0 0.84999999999999987 0.69999999999999996 0 0.81864958914779962 0.73589050177899629 0 0.84999999999999987 0.69999999999999996 0 0.89999999999999991 0.69999999999999996 0 0.84999999999999987 0.69999999999999996 0 0.89999166460796554 0.74528934923809909 0 0.85491058998424563 0.76004753345552634 0 0.83758014339878906 0.63222013025741819 0 0.82457059160610424 0.66831947184359608 0 0.79884539758237771 0.62875045078114233 0 0.84999999999999987 0.69999999999999996 0 0.82457059160610424 0.66831947184359608 0 0.87712158428786946 0.65709029563313581 0 0.83758014339878906 0.63222013025741819 0 0.87159648282691515 0.61285406320581504 0 0.87712158428786946 0.65709029563313581 0 0.83758014339878906 0.63222013025741819 0 0.87712158428786946 0.65709029563313581 0 0.82457059160610424 0.66831947184359608 0 0.91750694127105259 0.63017627779935648 0 0.92057473616084773 0.66770436535372446 0 0.87712158428786946 0.65709029563313581 0 0.91750694127105259 0.63017627779935648 0 0.87712158428786946 0.65709029563313581 0 0.87159648282691515 0.61285406320581504 0 0.84999999999999987 0.69999999999999996 0 0.87712158428786946 0.65709029563313581 0 0.89999999999999991 0.69999999999999996 0 0.89999999999999991 0.69999999999999996 0 0.87712158428786946 0.65709029563313581 0 0.92057473616084773 0.66770436535372446 0 0.91750694127105259 0.63017627779935648 0 0.9578014258160763 0.65787212321113708 0 0.92057473616084773 0.66770436535372446 0 0.84999999999999987 0.69999999999999996 0 0.89999999999999991 0.69999999999999996 0 0.89999166460796554 0.74528934923809909 0 0.89999999999999991 0.69999999999999996 0 0.94999999999999996 0.69999999999999996 0 0.89999999999999991 0.69999999999999996 0 0.92057473616084773 0.66770436535372446 0 0.94999999999999996 0.69999999999999996 0 0.89999999999999991 0.69999999999999996 0 0.94999999999999996 0.69999999999999996 0 0.89999166460796554 0.74528934923809909 0 0.94999999999999996 0.69999999999999996 0 0.94399509803918602 0.75600490196082126 0 0.89999166460796554 0.74528934923809909 0 0.94999999999999996 0.69999999999999996 0 0.97166519676947294 0.73337114490064459 0 0.94399509803918602 0.75600490196082126 0 0.94999999999999996 0.69999999999999996 0 1 0.69999999999999996 0 1 0.69999999999999996 0 0.97166519676947294 0.73337114490064459 0 0.94999999999999996 0.69999999999999996 0 1 0.69999999999999996 0 1 0.74999999999993494 0 0.97166519676947294 0.73337114490064459 0 0.91750694127105259 0.63017627779935648 0 0.95867599106212187 0.60011091146651041 0 0.9578014258160763 0.65787212321113708 0 0.94999999999999996 0.69999999999999996 0 0.92057473616084773 0.66770436535372446 0 0.9578014258160763 0.65787212321113708 0 1 0.69999999999999996 0 0.94999999999999996 0.69999999999999996 0 0.9578014258160763 0.65787212321113708 0 1 0.69999999999999996 0 0.9578014258160763 0.65787212321113708 0 1 0.64999999999986979 0 1 0.64999999999986979 0 0.9578014258160763 0.65787212321113708 0 0.95867599106212187 0.60011091146651041 0 1 0.54999999999963112 0 0.95867599106212187 0.60011091146651041 0 0.93732437411268477 0.55911392101136159 0 1 0.59999999999973963 0 1 0.64999999999986979 0 0.95867599106212187 0.60011091146651041 0 1 0.54999999999963112 0 1 0.59999999999973963 0 0.95867599106212187 0.60011091146651041 0 0.91750694127105259 0.63017627779935648 0 0.91143117093204207 0.58709913730335972 0 0.95867599106212187 0.60011091146651041 0 0.93732437411268477 0.55911392101136159 0 0.95867599106212187 0.60011091146651041 0 0.91143117093204207 0.58709913730335972 0 0.86956835336234861 0.571283299838105 0 0.90900154012161016 0.53607784105648792 0 0.91143117093204207 0.58709913730335972 0 0.86956835336234861 0.571283299838105 0 0.91143117093204207 0.58709913730335972 0 0.87159648282691515 0.61285406320581504 0 0.91750694127105259 0.63017627779935648 0 0.87159648282691515 0.61285406320581504 0 0.91143117093204207 0.58709913730335972 0 0.91696753777131557 0.497780560203536 0 0.90900154012161016 0.53607784105648792 0 0.86907294890112186 0.52008116128001669 0 0.86956835336234861 0.571283299838105 0 0.86907294890112186 0.52008116128001669 0 0.90900154012161016 0.53607784105648792 0 0.93732437411268477 0.55911392101136159 0 0.90900154012161016 0.53607784105648792 0 0.95631871884947484 0.51827533208233789 0 0.93732437411268477 0.55911392101136159 0 0.91143117093204207 0.58709913730335972 0 0.90900154012161016 0.53607784105648792 0 0.91696753777131557 0.497780560203536 0 0.95631871884947484 0.51827533208233789 0 0.90900154012161016 0.53607784105648792 0 1 0.54999999999963112 0 0.93732437411268477 0.55911392101136159 0 0.95631871884947484 0.51827533208233789 0 1 0.49999999999950101 0 1 0.54999999999963112 0 0.95631871884947484 0.51827533208233789 0 1 0.49999999999950101 0 0.95631871884947484 0.51827533208233789 0 0.96228564064454991 0.48206450662049471 0 1 0.44999999999963131 0 1 0.49999999999950101 0 0.96228564064454991 0.48206450662049471 0 1 0.44999999999963131 0 0.96228564064454991 0.48206450662049471 0 0.93814194660195893 0.44426664081746747 0 0.91696753777131557 0.497780560203536 0 0.93814194660195893 0.44426664081746747 0 0.96228564064454991 0.48206450662049471 0 0.91696753777131557 0.497780560203536 0 0.96228564064454991 0.48206450662049471 0 0.95631871884947484 0.51827533208233789 0 1 0.34999999999993492 0 1 0.39999999999978308 0 0.95871855522754235 0.40006508612975411 0 1 0.39999999999978308 0 1 0.44999999999963131 0 0.95871855522754235 0.40006508612975411 0 1 0.44999999999963131 0 0.93814194660195893 0.44426664081746747 0 0.95871855522754235 0.40006508612975411 0 0.91750694127107502 0.36982372220068471 0 0.95871855522754235 0.40006508612975411 0 0.90594285160987287 0.4141265964174129 0 0.93814194660195893 0.44426664081746747 0 0.90594285160987287 0.4141265964174129 0 0.95871855522754235 0.40006508612975411 0 0.90594285160987287 0.4141265964174129 0 0.88594198078881503 0.46167788676578442 0 0.86411095495256451 0.42388805655111889 0 0.86411095495256451 0.42388805655111889 0 0.86844634540301924 0.38530937474099819 0 0.90594285160987287 0.4141265964174129 0 0.91750694127107502 0.36982372220068471 0 0.90594285160987287 0.4141265964174129 0 0.86844634540301924 0.38530937474099819 0 0.91696753777131557 0.497780560203536 0 0.88594198078881503 0.46167788676578442 0 0.93814194660195893 0.44426664081746747 0 0.93814194660195893 0.44426664081746747 0 0.88594198078881503 0.46167788676578442 0 0.90594285160987287 0.4141265964174129 0 0.91696753777131557 0.497780560203536 0 0.86907294890112186 0.52008116128001669 0 0.88594198078881503 0.46167788676578442 0 0.84723782639812573 0.48638347960178252 0 0.88594198078881503 0.46167788676578442 0 0.86907294890112186 0.52008116128001669 0 0.84723782639812573 0.48638347960178252 0 0.81441713509985358 0.51161854125224959 0 0.81400510706333218 0.47357325943904899 0 0.84723782639812573 0.48638347960178252 0 0.81400510706333218 0.47357325943904899 0 0.84925632466077294 0.45359738909549091 0 0.81973119833356312 0.43505687159469048 0 0.84925632466077294 0.45359738909549091 0 0.81400510706333218 0.47357325943904899 0 0.84723782639812573 0.48638347960178252 0 0.84925632466077294 0.45359738909549091 0 0.88594198078881503 0.46167788676578442 0 0.86411095495256451 0.42388805655111889 0 0.84925632466077294 0.45359738909549091 0 0.81973119833356312 0.43505687159469048 0 0.86411095495256451 0.42388805655111889 0 0.88594198078881503 0.46167788676578442 0 0.84925632466077294 0.45359738909549091 0 0.86411095495256451 0.42388805655111889 0 0.81308179852519835 0.39754945808726527 0 0.86844634540301924 0.38530937474099819 0 0.83573492347052902 0.36590755630746369 0 0.86844634540301924 0.38530937474099819 0 0.81308179852519835 0.39754945808726527 0 0.86411095495256451 0.42388805655111889 0 0.81973119833356312 0.43505687159469048 0 0.81308179852519835 0.39754945808726527 0 0.77354604466818633 0.40378688774472771 0 0.81973119833356312 0.43505687159469048 0 0.77972660463949339 0.45529290596363098 0 0.77354604466818633 0.40378688774472771 0 0.81308179852519835 0.39754945808726527 0 0.81973119833356312 0.43505687159469048 0 0.77354604466818633 0.40378688774472771 0 0.78145581580700685 0.34881365920033602 0 0.81308179852519835 0.39754945808726527 0 0.77354604466818633 0.40378688774472771 0 0.77972660463949339 0.45529290596363098 0 0.73483647259922602 0.44789725365921768 0 0.73483647259922602 0.44789725365921768 0 0.77972660463949339 0.45529290596363098 0 0.73947346780852752 0.49062440112282169 0 0.77846603114747959 0.49850927265137401 0 0.73947346780852752 0.49062440112282169 0 0.77972660463949339 0.45529290596363098 0 0.77846603114747959 0.49850927265137401 0 0.77972660463949339 0.45529290596363098 0 0.81400510706333218 0.47357325943904899 0 0.77846603114747959 0.49850927265137401 0 0.81400510706333218 0.47357325943904899 0 0.81441713509985358 0.51161854125224959 0 0.81973119833356312 0.43505687159469048 0 0.81400510706333218 0.47357325943904899 0 0.77972660463949339 0.45529290596363098 0 0.79999999999999982 0.29999999999999999 0 0.77075983436335049 0.25919399014334171 0 0.81486180804364938 0.26321394949780091 0 0.74999999999999989 0.29999999999999999 0 0.79999999999999982 0.29999999999999999 0 0.74999999999999989 0.29999999999999999 0 0.77075983436335049 0.25919399014334171 0 0.79999999999999982 0.29999999999999999 0 0.74999999999999989 0.29999999999999999 0 0.79999999999999982 0.29999999999999999 0 0.78145581580700685 0.34881365920033602 0 0.74999999999999989 0.29999999999999999 0 0.78145581580700685 0.34881365920033602 0 0.73090396928863699 0.33699297293167962 0 0.77354604466818633 0.40378688774472771 0 0.74764719760526988 0.3719647154012321 0 0.78145581580700685 0.34881365920033602 0 0.78145581580700685 0.34881365920033602 0 0.74764719760526988 0.3719647154012321 0 0.73090396928863699 0.33699297293167962 0 0.83573492347052902 0.36590755630746369 0 0.81308179852519835 0.39754945808726527 0 0.78145581580700685 0.34881365920033602 0 0.79999999999999982 0.29999999999999999 0 0.82500000000000062 0.33010209762754811 0 0.78145581580700685 0.34881365920033602 0 0.83573492347052902 0.36590755630746369 0 0.78145581580700685 0.34881365920033602 0 0.82500000000000062 0.33010209762754811 0 0.83573492347052902 0.36590755630746369 0 0.82500000000000062 0.33010209762754811 0 0.87430060258887643 0.34056085888204451 0 0.83573492347052902 0.36590755630746369 0 0.87430060258887643 0.34056085888204451 0 0.86844634540301924 0.38530937474099819 0 0.84999999999999987 0.29999999999999999 0 0.87430060258887643 0.34056085888204451 0 0.82500000000000062 0.33010209762754811 0 0.84999999999999987 0.29999999999999999 0 0.89999999999999991 0.29999999999999999 0 0.87430060258887643 0.34056085888204451 0 0.84999999999999987 0.29999999999999999 0 0.81486180804364938 0.26321394949780091 0 0.8517097391133297 0.2356960729520409 0 0.84999999999999987 0.29999999999999999 0 0.8517097391133297 0.2356960729520409 0 0.89898474358614167 0.25391965591104898 0 0.84999999999999987 0.29999999999999999 0 0.89999999999999991 0.29999999999999999 0 0.79999999999999982 0.29999999999999999 0 0.84999999999999987 0.29999999999999999 0 0.82500000000000062 0.33010209762754811 0 0.79999999999999982 0.29999999999999999 0 0.81486180804364938 0.26321394949780091 0 0.84999999999999987 0.29999999999999999 0 0.79999999999999982 0.29999999999999999 0 0.84999999999999987 0.29999999999999999 0 0.84999999999999987 0.29999999999999999 0 0.89898474358614167 0.25391965591104898 0 0.89999999999999991 0.29999999999999999 0 0.89999999999999991 0.29999999999999999 0 0.94999999999999996 0.29999999999999999 0 0.89999999999999991 0.29999999999999999 0 0.94999999999999996 0.29999999999999999 0 0.92012390126144183 0.33123581297173937 0 0.89999999999999991 0.29999999999999999 0 0.89898474358614167 0.25391965591104898 0 0.94999999999999996 0.29999999999999999 0 0.94999999999999996 0.29999999999999999 0 0.89898474358614167 0.25391965591104898 0 0.94399509803921056 0.24399509803922639 0 0.91750694127107502 0.36982372220068471 0 0.86844634540301924 0.38530937474099819 0 0.87430060258887643 0.34056085888204451 0 0.91750694127107502 0.36982372220068471 0 0.87430060258887643 0.34056085888204451 0 0.92012390126144183 0.33123581297173937 0 0.89999999999999991 0.29999999999999999 0 0.92012390126144183 0.33123581297173937 0 0.87430060258887643 0.34056085888204451 0 0.91750694127107502 0.36982372220068471 0 0.92012390126144183 0.33123581297173937 0 0.95780851984364423 0.34215720972155339 0 0.91750694127107502 0.36982372220068471 0 0.95780851984364423 0.34215720972155339 0 0.95871855522754235 0.40006508612975411 0 0.94999999999999996 0.29999999999999999 0 0.95780851984364423 0.34215720972155339 0 0.92012390126144183 0.33123581297173937 0 1 0.29999999999999999 0 0.95780851984364423 0.34215720972155339 0 0.94999999999999996 0.29999999999999999 0 1 0.29999999999999999 0 1 0.34999999999993492 0 0.95780851984364423 0.34215720972155339 0 1 0.34999999999993492 0 0.95871855522754235 0.40006508612975411 0 0.95780851984364423 0.34215720972155339 0 0.94999999999999996 0.29999999999999999 0 0.94399509803921056 0.24399509803922639 0 0.97166519676951801 0.26662885509932011 0 0.94999999999999996 0.29999999999999999 0 1 0.29999999999999999 0 1 0.29999999999999999 0 0.94999999999999996 0.29999999999999999 0 0.97166519676951801 0.26662885509932011 0 1 0.29999999999999999 0 0.97166519676951801 0.26662885509932011 0 1 0.24999999999987299 0 1 0.24999999999987299 0 0.97166519676951801 0.26662885509932011 0 0.97435614836740092 0.22499999999981049 0 1 0.19999999999974799 0 1 0.24999999999987299 0 0.97435614836740092 0.22499999999981049 0 0.94399509803921056 0.24399509803922639 0 0.95391631417672862 0.19584263333809451 0 0.97435614836740092 0.22499999999981049 0 0.94399509803921056 0.24399509803922639 0 0.97435614836740092 0.22499999999981049 0 0.97166519676951801 0.26662885509932011 0 1 0.19999999999974799 0 0.97435614836740092 0.22499999999981049 0 0.95391631417672862 0.19584263333809451 0 1 0.14999999999961891 0 0.95391631417672862 0.19584263333809451 0 0.93677536231883773 0.14999999999999089 0 1 0.14999999999961891 0 0.93677536231883773 0.14999999999999089 0 0.95386563387744361 0.1041487415577465 0 1 0.14999999999961891 0 1 0.19999999999974799 0 0.95391631417672862 0.19584263333809451 0 0.90416666666668166 0.20416666666667119 0 0.93677536231883773 0.14999999999999089 0 0.95391631417672862 0.19584263333809451 0 0.90416666666668166 0.20416666666667119 0 0.88088768115941807 0.14674609810479519 0 0.93677536231883773 0.14999999999999089 0 0.90299850604006393 0.09563452813493091 0 0.93677536231883773 0.14999999999999089 0 0.88088768115941807 0.14674609810479519 0 0.90416666666668166 0.20416666666667119 0 0.85600844944842547 0.1848341897950983 0 0.88088768115941807 0.14674609810479519 0 0.90416666666668166 0.20416666666667119 0 0.89898474358614167 0.25391965591104898 0 0.8517097391133297 0.2356960729520409 0 0.90416666666668166 0.20416666666667119 0 0.94399509803921056 0.24399509803922639 0 0.89898474358614167 0.25391965591104898 0 0.90416666666668166 0.20416666666667119 0 0.95391631417672862 0.19584263333809451 0 0.94399509803921056 0.24399509803922639 0 0.94999999999986839 0 0 0.97166519676946894 0.033371144900598393 0 0.94399509803922566 0.056004901960802607 0 1 0 0 0.97166519676946894 0.033371144900598393 0 0.94999999999986839 0 0 1 0 0 1 0.049999999999896842 0 0.97166519676946894 0.033371144900598393 0 1 0.049999999999896842 0 0.97435614836748241 0.074999999999825387 0 0.97166519676946894 0.033371144900598393 0 0.94399509803922566 0.056004901960802607 0 0.97166519676946894 0.033371144900598393 0 0.97435614836748241 0.074999999999825387 0 0.94399509803922566 0.056004901960802607 0 0.97435614836748241 0.074999999999825387 0 0.95386563387744361 0.1041487415577465 0 1 0.099999999999753911 0 0.95386563387744361 0.1041487415577465 0 0.97435614836748241 0.074999999999825387 0 1 0.049999999999896842 0 1 0.099999999999753911 0 0.97435614836748241 0.074999999999825387 0 1 0.099999999999753911 0 1 0.14999999999961891 0 0.95386563387744361 0.1041487415577465 0 0.90299850604006393 0.09563452813493091 0 0.95386563387744361 0.1041487415577465 0 0.93677536231883773 0.14999999999999089 0 0.90299850604006393 0.09563452813493091 0 0.88088768115941807 0.14674609810479519 0 0.84725310900442086 0.10779732082922661 0 0.90299850604006393 0.09563452813493091 0 0.85491058998398861 0.060047533455626502 0 0.899991664607802 0.045289349238254978 0 0.90299850604006393 0.09563452813493091 0 0.94399509803922566 0.056004901960802607 0 0.95386563387744361 0.1041487415577465 0 0.90299850604006393 0.09563452813493091 0 0.899991664607802 0.045289349238254978 0 0.94399509803922566 0.056004901960802607 0 0.94999999999986839 0 0 0.94399509803922566 0.056004901960802607 0 0.899991664607802 0.045289349238254978 0 0.84999999999960507 0 0 0.89999999999973679 0 0 0.899991664607802 0.045289349238254978 0 0.89999999999973679 0 0 0.94999999999986839 0 0 0.899991664607802 0.045289349238254978 0 0.79999999999947335 0 0 0.84999999999960507 0 0 0.81864958914740749 0.035890501779055867 0 0.84999999999960507 0 0 0.899991664607802 0.045289349238254978 0 0.85491058998398861 0.060047533455626502 0 0.80185942888501827 0.074520613036224564 0 0.81864958914740749 0.035890501779055867 0 0.85491058998398861 0.060047533455626502 0 0.84999999999960507 0 0 0.85491058998398861 0.060047533455626502 0 0.81864958914740749 0.035890501779055867 0 0.80185942888501827 0.074520613036224564 0 0.85491058998398861 0.060047533455626502 0 0.84725310900442086 0.10779732082922661 0 0.90299850604006393 0.09563452813493091 0 0.84725310900442086 0.10779732082922661 0 0.85491058998398861 0.060047533455626502 0 0.80185942888501827 0.074520613036224564 0 0.84725310900442086 0.10779732082922661 0 0.80076557130237269 0.1154587552654202 0 0.82709327591102189 0.14937141670914489 0 0.80076557130237269 0.1154587552654202 0 0.84725310900442086 0.10779732082922661 0 0.80185942888501827 0.074520613036224564 0 0.80076557130237269 0.1154587552654202 0 0.76878382444651716 0.097147941686331368 0 0.72525833953073282 0.1032114801687094 0 0.76878382444651716 0.097147941686331368 0 0.77144070960558853 0.14311854477243749 0 0.77144070960558853 0.14311854477243749 0 0.76878382444651716 0.097147941686331368 0 0.80076557130237269 0.1154587552654202 0 0.80185942888501827 0.074520613036224564 0 0.76878382444651716 0.097147941686331368 0 0.7527966693318906 0.053051678021508272 0 0.80185942888501827 0.074520613036224564 0 0.78393852574753176 0.032039079577822822 0 0.81864958914740749 0.035890501779055867 0 0.80185942888501827 0.074520613036224564 0 0.7527966693318906 0.053051678021508272 0 0.78393852574753176 0.032039079577822822 0 0.74999999999934175 0 0 0.78393852574753176 0.032039079577822822 0 0.7527966693318906 0.053051678021508272 0 0.74999999999934175 0 0 0.79999999999947335 0 0 0.78393852574753176 0.032039079577822822 0 0.79999999999947335 0 0 0.81864958914740749 0.035890501779055867 0 0.78393852574753176 0.032039079577822822 0 0.79680861578956375 0.22656778056752541 0 0.81283102246527783 0.1881007222486438 0 0.8517097391133297 0.2356960729520409 0 0.8517097391133297 0.2356960729520409 0 0.81283102246527783 0.1881007222486438 0 0.85600844944842547 0.1848341897950983 0 0.79680861578956375 0.22656778056752541 0 0.8517097391133297 0.2356960729520409 0 0.81486180804364938 0.26321394949780091 0 0.90416666666668166 0.20416666666667119 0 0.8517097391133297 0.2356960729520409 0 0.85600844944842547 0.1848341897950983 0 0.82709327591102189 0.14937141670914489 0 0.88088768115941807 0.14674609810479519 0 0.85600844944842547 0.1848341897950983 0 0.82709327591102189 0.14937141670914489 0 0.84725310900442086 0.10779732082922661 0 0.88088768115941807 0.14674609810479519 0 0.82709327591102189 0.14937141670914489 0 0.85600844944842547 0.1848341897950983 0 0.81283102246527783 0.1881007222486438 0 0.77144070960558853 0.14311854477243749 0 0.81283102246527783 0.1881007222486438 0 0.76587607630038135 0.18880039518954719 0 0.82709327591102189 0.14937141670914489 0 0.81283102246527783 0.1881007222486438 0 0.77144070960558853 0.14311854477243749 0 0.82709327591102189 0.14937141670914489 0 0.77144070960558853 0.14311854477243749 0 0.80076557130237269 0.1154587552654202 0 0.77144070960558853 0.14311854477243749 0 0.76587607630038135 0.18880039518954719 0 0.72634814642510737 0.16106886917518889 0 0.79680861578956375 0.22656778056752541 0 0.75668890529066124 0.2244279804069782 0 0.76587607630038135 0.18880039518954719 0 0.79680861578956375 0.22656778056752541 0 0.76587607630038135 0.18880039518954719 0 0.81283102246527783 0.1881007222486438 0 0.79680861578956375 0.22656778056752541 0 0.81486180804364938 0.26321394949780091 0 0.77075983436335049 0.25919399014334171 0 0.79680861578956375 0.22656778056752541 0 0.77075983436335049 0.25919399014334171 0 0.75668890529066124 0.2244279804069782 0 0.72500000000000064 0.2498161764706 0 0.75668890529066124 0.2244279804069782 0 0.77075983436335049 0.25919399014334171 0 0.72500000000001008 0.19776155966387679 0 0.75668890529066124 0.2244279804069782 0 0.72500000000000064 0.2498161764706 0 0.72500000000001008 0.19776155966387679 0 0.72500000000000064 0.2498161764706 0 0.69397719155551807 0.2245125647000914 0 0.72500000000000064 0.2498161764706 0 0.67933712972090698 0.25920070958121938 0 0.69397719155551807 0.2245125647000914 0 0.72500000000001008 0.19776155966387679 0 0.69397719155551807 0.2245125647000914 0 0.6865991819015953 0.189116534044597 0 0.72500000000001008 0.19776155966387679 0 0.76587607630038135 0.18880039518954719 0 0.75668890529066124 0.2244279804069782 0 0.72500000000001008 0.19776155966387679 0 0.72634814642510737 0.16106886917518889 0 0.76587607630038135 0.18880039518954719 0 0.72525833953073282 0.1032114801687094 0 0.77144070960558853 0.14311854477243749 0 0.72634814642510737 0.16106886917518889 0 0.72525833953073282 0.1032114801687094 0 0.72634814642510737 0.16106886917518889 0 0.68391457121233579 0.14440470121196541 0 0.72500000000001008 0.19776155966387679 0 0.6865991819015953 0.189116534044597 0 0.72634814642510737 0.16106886917518889 0 0.68391457121233579 0.14440470121196541 0 0.72634814642510737 0.16106886917518889 0 0.6865991819015953 0.189116534044597 0 0.68391457121233579 0.14440470121196541 0 0.6865991819015953 0.189116534044597 0 0.64011864159029941 0.18789607982138171 0 0.6236733212988993 0.14864538214901801 0 0.65290632656860115 0.11434202593454081 0 0.68391457121233579 0.14440470121196541 0 0.6236733212988993 0.14864538214901801 0 0.68391457121233579 0.14440470121196541 0 0.64011864159029941 0.18789607982138171 0 0.65394964615507722 0.22666784374016369 0 0.59814117807200873 0.23398510860739519 0 0.64011864159029941 0.18789607982138171 0 0.65394964615507722 0.22666784374016369 0 0.62657463266645097 0.26524202571255862 0 0.59814117807200873 0.23398510860739519 0 0.65394964615507722 0.22666784374016369 0 0.69397719155551807 0.2245125647000914 0 0.67933712972090698 0.25920070958121938 0 0.65394964615507722 0.22666784374016369 0 0.64011864159029941 0.18789607982138171 0 0.6865991819015953 0.189116534044597 0 0.65394964615507722 0.22666784374016369 0 0.6865991819015953 0.189116534044597 0 0.69397719155551807 0.2245125647000914 0 0.69999999999921003 0 0 0.72683645290270404 0.027797073151180601 0 0.7010294155333181 0.056779085686491267 0 0.69999999999921003 0 0 0.7010294155333181 0.056779085686491267 0 0.66369801598854572 0.036327466368102787 0 0.74999999999934175 0 0 0.7527966693318906 0.053051678021508272 0 0.72683645290270404 0.027797073151180601 0 0.69999999999921003 0 0 0.74999999999934175 0 0 0.72683645290270404 0.027797073151180601 0 0.7527966693318906 0.053051678021508272 0 0.7010294155333181 0.056779085686491267 0 0.72683645290270404 0.027797073151180601 0 0.72525833953073282 0.1032114801687094 0 0.68330259535470161 0.10038702501083881 0 0.7010294155333181 0.056779085686491267 0 0.72525833953073282 0.1032114801687094 0 0.7010294155333181 0.056779085686491267 0 0.7527966693318906 0.053051678021508272 0 0.72525833953073282 0.1032114801687094 0 0.7527966693318906 0.053051678021508272 0 0.76878382444651716 0.097147941686331368 0 0.72525833953073282 0.1032114801687094 0 0.68391457121233579 0.14440470121196541 0 0.68330259535470161 0.10038702501083881 0 0.65408113592120842 0.073941773121567966 0 0.68330259535470161 0.10038702501083881 0 0.65290632656860115 0.11434202593454081 0 0.68391457121233579 0.14440470121196541 0 0.65290632656860115 0.11434202593454081 0 0.68330259535470161 0.10038702501083881 0 0.6236733212988993 0.14864538214901801 0 0.61956000905586006 0.1043312481793135 0 0.65290632656860115 0.11434202593454081 0 0.65408113592120842 0.073941773121567966 0 0.65290632656860115 0.11434202593454081 0 0.61956000905586006 0.1043312481793135 0 0.65408113592120842 0.073941773121567966 0 0.61956000905586006 0.1043312481793135 0 0.61940220174112337 0.047251958781050582 0 0.65408113592120842 0.073941773121567966 0 0.7010294155333181 0.056779085686491267 0 0.68330259535470161 0.10038702501083881 0 0.65408113592120842 0.073941773121567966 0 0.66369801598854572 0.036327466368102787 0 0.7010294155333181 0.056779085686491267 0 0.65408113592120842 0.073941773121567966 0 0.61940220174112337 0.047251958781050582 0 0.66369801598854572 0.036327466368102787 0 0.64999999999907843 0 0 0.66369801598854572 0.036327466368102787 0 0.61940220174112337 0.047251958781050582 0 0.64999999999907843 0 0 0.69999999999921003 0 0 0.66369801598854572 0.036327466368102787 0 0.5499999999988151 0 0 0.59999999999894682 0 0 0.57396793757665954 0.037011367187645222 0 0.59999999999894682 0 0 0.64999999999907843 0 0 0.61940220174112337 0.047251958781050582 0 0.59999999999894682 0 0 0.61940220174112337 0.047251958781050582 0 0.57396793757665954 0.037011367187645222 0 0.57667858002728545 0.078486105337742612 0 0.57396793757665954 0.037011367187645222 0 0.61940220174112337 0.047251958781050582 0 0.57667858002728545 0.078486105337742612 0 0.61940220174112337 0.047251958781050582 0 0.61956000905586006 0.1043312481793135 0 0.6236733212988993 0.14864538214901801 0 0.58516465772821369 0.11653801664834119 0 0.61956000905586006 0.1043312481793135 0 0.57667858002728545 0.078486105337742612 0 0.61956000905586006 0.1043312481793135 0 0.58516465772821369 0.11653801664834119 0 0.56202748619534593 0.15054058349222879 0 0.54979595918804436 0.1060565713905809 0 0.58516465772821369 0.11653801664834119 0 0.57667858002728545 0.078486105337742612 0 0.58516465772821369 0.11653801664834119 0 0.54979595918804436 0.1060565713905809 0 0.51076801031701946 0.1202837388510348 0 0.52375890611712683 0.059318771819432882 0 0.54979595918804436 0.1060565713905809 0 0.51076801031701946 0.1202837388510348 0 0.47881186583059909 0.093591717165689425 0 0.52375890611712683 0.059318771819432882 0 0.57667858002728545 0.078486105337742612 0 0.54979595918804436 0.1060565713905809 0 0.52375890611712683 0.059318771819432882 0 0.5499999999988151 0 0 0.57396793757665954 0.037011367187645222 0 0.52375890611712683 0.059318771819432882 0 0.57667858002728545 0.078486105337742612 0 0.52375890611712683 0.059318771819432882 0 0.57396793757665954 0.037011367187645222 0 0.49999999999869432 0 0 0.5499999999988151 0 0 0.52375890611712683 0.059318771819432882 0 0.55306006949600994 0.20198184231352201 0 0.59443395090188023 0.18455690917515069 0 0.59814117807200873 0.23398510860739519 0 0.55306006949600994 0.20198184231352201 0 0.59814117807200873 0.23398510860739519 0 0.54248833945060504 0.2520322959927106 0 0.59814117807200873 0.23398510860739519 0 0.59443395090188023 0.18455690917515069 0 0.64011864159029941 0.18789607982138171 0 0.6236733212988993 0.14864538214901801 0 0.64011864159029941 0.18789607982138171 0 0.59443395090188023 0.18455690917515069 0 0.6236733212988993 0.14864538214901801 0 0.56202748619534593 0.15054058349222879 0 0.58516465772821369 0.11653801664834119 0 0.6236733212988993 0.14864538214901801 0 0.59443395090188023 0.18455690917515069 0 0.56202748619534593 0.15054058349222879 0 0.55306006949600994 0.20198184231352201 0 0.56202748619534593 0.15054058349222879 0 0.59443395090188023 0.18455690917515069 0 0.55306006949600994 0.20198184231352201 0 0.51729576145820033 0.1683240575987815 0 0.56202748619534593 0.15054058349222879 0 0.51076801031701946 0.1202837388510348 0 0.54979595918804436 0.1060565713905809 0 0.56202748619534593 0.15054058349222879 0 0.51076801031701946 0.1202837388510348 0 0.51729576145820033 0.1683240575987815 0 0.48466639505193998 0.1421439844745814 0 0.51076801031701946 0.1202837388510348 0 0.56202748619534593 0.15054058349222879 0 0.51729576145820033 0.1683240575987815 0 0.55306006949600994 0.20198184231352201 0 0.50760557329222289 0.20700468884612061 0 0.51729576145820033 0.1683240575987815 0 0.50760557329222289 0.20700468884612061 0 0.55306006949600994 0.20198184231352201 0 0.54248833945060504 0.2520322959927106 0 0.49695729691142171 0.25014895411178018 0 0.50760557329222289 0.20700468884612061 0 0.54248833945060504 0.2520322959927106 0 0.5 0.29999999999999999 0 0.49695729691142171 0.25014895411178018 0 0.54248833945060504 0.2520322959927106 0 0.5 0.29999999999999999 0 0.54999999999999993 0.29999999999999999 0 0.52752007115234678 0.33170632466418198 0 0.5 0.29999999999999999 0 0.54248833945060504 0.2520322959927106 0 0.54999999999999993 0.29999999999999999 0 0.5 0.29999999999999999 0 0.54999999999999993 0.29999999999999999 0 0.54999999999999993 0.29999999999999999 0 0.54248833945060504 0.2520322959927106 0 0.5794309697024993 0.27124795968204829 0 0.59814117807200873 0.23398510860739519 0 0.5794309697024993 0.27124795968204829 0 0.54248833945060504 0.2520322959927106 0 0.54999999999999993 0.29999999999999999 0 0.59999999999999976 0.29999999999999999 0 0.54999999999999993 0.29999999999999999 0 0.5794309697024993 0.27124795968204829 0 0.59999999999999976 0.29999999999999999 0 0.59999999999999976 0.29999999999999999 0 0.6499999999999998 0.29999999999999999 0 0.59999999999999976 0.29999999999999999 0 0.5794309697024993 0.27124795968204829 0 0.62657463266645097 0.26524202571255862 0 0.59814117807200873 0.23398510860739519 0 0.62657463266645097 0.26524202571255862 0 0.5794309697024993 0.27124795968204829 0 0.6084546825910605 0.37989672713932537 0 0.56836770495988642 0.3523062350852913 0 0.61959173890754571 0.33832250091341232 0 0.59999999999999976 0.29999999999999999 0 0.6499999999999998 0.29999999999999999 0 0.61959173890754571 0.33832250091341232 0 0.59999999999999976 0.29999999999999999 0 0.61959173890754571 0.33832250091341232 0 0.56836770495988642 0.3523062350852913 0 0.54999999999999993 0.29999999999999999 0 0.59999999999999976 0.29999999999999999 0 0.56836770495988642 0.3523062350852913 0 0.56836770495988642 0.3523062350852913 0 0.52289427570932567 0.3932284363388488 0 0.52752007115234678 0.33170632466418198 0 0.54999999999999993 0.29999999999999999 0 0.56836770495988642 0.3523062350852913 0 0.52752007115234678 0.33170632466418198 0 0.5 0.29999999999999999 0 0.52752007115234678 0.33170632466418198 0 0.49077833859261139 0.35229981449445641 0 0.52752007115234678 0.33170632466418198 0 0.52289427570932567 0.3932284363388488 0 0.49077833859261139 0.35229981449445641 0 0.52289427570932567 0.3932284363388488 0 0.56836770495988642 0.3523062350852913 0 0.57744073070774993 0.41535148636609359 0 0.52289427570932567 0.3932284363388488 0 0.57744073070774993 0.41535148636609359 0 0.53823865529665704 0.45873898050322898 0 0.52289427570932567 0.3932284363388488 0 0.53823865529665704 0.45873898050322898 0 0.48858720058566618 0.43964267759203868 0 0.49102375406324739 0.49123754822244059 0 0.53823865529665704 0.45873898050322898 0 0.53330375813596242 0.50827942741749099 0 0.49102375406324739 0.49123754822244059 0 0.48858720058566618 0.43964267759203868 0 0.53823865529665704 0.45873898050322898 0 0.57611405284611883 0.50165903596042916 0 0.53330375813596242 0.50827942741749099 0 0.53823865529665704 0.45873898050322898 0 0.57611405284611883 0.50165903596042916 0 0.57975577671020095 0.46172033326338591 0 0.61547661924074692 0.48539576058873962 0 0.57611405284611883 0.50165903596042916 0 0.53823865529665704 0.45873898050322898 0 0.57975577671020095 0.46172033326338591 0 0.61209567303293111 0.44669033081290321 0 0.57975577671020095 0.46172033326338591 0 0.57744073070774993 0.41535148636609359 0 0.53823865529665704 0.45873898050322898 0 0.57744073070774993 0.41535148636609359 0 0.57975577671020095 0.46172033326338591 0 0.61209567303293111 0.44669033081290321 0 0.61547661924074692 0.48539576058873962 0 0.57975577671020095 0.46172033326338591 0 0.6084546825910605 0.37989672713932537 0 0.57744073070774993 0.41535148636609359 0 0.56836770495988642 0.3523062350852913 0 0.61209567303293111 0.44669033081290321 0 0.57744073070774993 0.41535148636609359 0 0.63912439215427275 0.41063340167983359 0 0.6084546825910605 0.37989672713932537 0 0.63912439215427275 0.41063340167983359 0 0.57744073070774993 0.41535148636609359 0 0.6084546825910605 0.37989672713932537 0 0.65481233915350323 0.35652751921065562 0 0.63912439215427275 0.41063340167983359 0 0.6879972333610942 0.43038561374960838 0 0.65178832218679827 0.45929119821019959 0 0.63912439215427275 0.41063340167983359 0 0.6879972333610942 0.43038561374960838 0 0.63912439215427275 0.41063340167983359 0 0.68128176404677243 0.38629093627004979 0 0.65481233915350323 0.35652751921065562 0 0.68128176404677243 0.38629093627004979 0 0.63912439215427275 0.41063340167983359 0 0.6541250972820879 0.49999999999999989 0 0.61547661924074692 0.48539576058873962 0 0.65178832218679827 0.45929119821019959 0 0.61209567303293111 0.44669033081290321 0 0.65178832218679827 0.45929119821019959 0 0.61547661924074692 0.48539576058873962 0 0.61209567303293111 0.44669033081290321 0 0.63912439215427275 0.41063340167983359 0 0.65178832218679827 0.45929119821019959 0 0.6879972333610942 0.43038561374960838 0 0.69385896817107129 0.48377516041410151 0 0.65178832218679827 0.45929119821019959 0 0.6541250972820879 0.49999999999999989 0 0.65178832218679827 0.45929119821019959 0 0.69385896817107129 0.48377516041410151 0 0.7152569930854884 0.5237994455134295 0 0.69385896817107129 0.48377516041410151 0 0.73947346780852752 0.49062440112282169 0 0.6879972333610942 0.43038561374960838 0 0.73483647259922602 0.44789725365921768 0 0.69385896817107129 0.48377516041410151 0 0.73483647259922602 0.44789725365921768 0 0.73947346780852752 0.49062440112282169 0 0.69385896817107129 0.48377516041410151 0 0.71508799138962864 0.36622814920737751 0 0.72622533758026719 0.40265885511101601 0 0.68128176404677243 0.38629093627004979 0 0.6879972333610942 0.43038561374960838 0 0.72622533758026719 0.40265885511101601 0 0.73483647259922602 0.44789725365921768 0 0.6879972333610942 0.43038561374960838 0 0.68128176404677243 0.38629093627004979 0 0.72622533758026719 0.40265885511101601 0 0.77354604466818633 0.40378688774472771 0 0.73483647259922602 0.44789725365921768 0 0.72622533758026719 0.40265885511101601 0 0.71508799138962864 0.36622814920737751 0 0.74764719760526988 0.3719647154012321 0 0.72622533758026719 0.40265885511101601 0 0.77354604466818633 0.40378688774472771 0 0.72622533758026719 0.40265885511101601 0 0.74764719760526988 0.3719647154012321 0 0.71508799138962864 0.36622814920737751 0 0.73090396928863699 0.33699297293167962 0 0.74764719760526988 0.3719647154012321 0 0.71508799138962864 0.36622814920737751 0 0.68887083591306764 0.33632058575757479 0 0.73090396928863699 0.33699297293167962 0 0.71508799138962864 0.36622814920737751 0 0.68128176404677243 0.38629093627004979 0 0.68887083591306764 0.33632058575757479 0 0.69999999999999984 0.29999999999999999 0 0.73090396928863699 0.33699297293167962 0 0.68887083591306764 0.33632058575757479 0 0.69999999999999984 0.29999999999999999 0 0.72500000000000064 0.2498161764706 0 0.74999999999999989 0.29999999999999999 0 0.69999999999999984 0.29999999999999999 0 0.74999999999999989 0.29999999999999999 0 0.69999999999999984 0.29999999999999999 0 0.74999999999999989 0.29999999999999999 0 0.73090396928863699 0.33699297293167962 0 0.74999999999999989 0.29999999999999999 0 0.72500000000000064 0.2498161764706 0 0.77075983436335049 0.25919399014334171 0 0.69999999999999984 0.29999999999999999 0 0.67933712972090698 0.25920070958121938 0 0.72500000000000064 0.2498161764706 0 0.6499999999999998 0.29999999999999999 0 0.67933712972090698 0.25920070958121938 0 0.69999999999999984 0.29999999999999999 0 0.6499999999999998 0.29999999999999999 0 0.69999999999999984 0.29999999999999999 0 0.68887083591306764 0.33632058575757479 0 0.6499999999999998 0.29999999999999999 0 0.69999999999999984 0.29999999999999999 0 0.6499999999999998 0.29999999999999999 0 0.62657463266645097 0.26524202571255862 0 0.67933712972090698 0.25920070958121938 0 0.65394964615507722 0.22666784374016369 0 0.67933712972090698 0.25920070958121938 0 0.62657463266645097 0.26524202571255862 0 0.59999999999999976 0.29999999999999999 0 0.62657463266645097 0.26524202571255862 0 0.6499999999999998 0.29999999999999999 0 0.6499999999999998 0.29999999999999999 0 0.65481233915350323 0.35652751921065562 0 0.61959173890754571 0.33832250091341232 0 0.6084546825910605 0.37989672713932537 0 0.61959173890754571 0.33832250091341232 0 0.65481233915350323 0.35652751921065562 0 0.65481233915350323 0.35652751921065562 0 0.68887083591306764 0.33632058575757479 0 0.68128176404677243 0.38629093627004979 0 0.6499999999999998 0.29999999999999999 0 0.68887083591306764 0.33632058575757479 0 0.65481233915350323 0.35652751921065562 0 
</DataArray>
</Points>
<Cells>
<DataArray type="UInt32" Name="connectivity" format="ascii">
0 1 2 3 4 5 6 7 8 9 10 11 12 13 14 15 16 17 18 19 20 21 22 23 24 25 26 27 28 29 30 31 32 33 34 35 36 37 38 39 40 41 42 43 44 45 46 47 48 49 50 51 52 53 54 55 56 57 58 59 60 61 62 63 64 65 66 67 68 69 70 71 72 73 74 75 76 77 78 79 80 81 82 83 84 85 86 87 88 89 90 91 92 93 94 95 96 97 98 99 100 101 102 103 104 105 106 107 108 109 110 111 112 113 114 115 116 117 118 119 120 121 122 123 124 125 126 127 128 129 130 131 132 133 134 135 136 137 138 139 140 141 142 143 144 145 146 147 148 149 150 151 152 153 154 155 156 157 158 159 160 161 162 163 164 165 166 167 168 169 170 171 172 173 174 175 176 177 178 179 180 181 182 183 184 185 186 187 188 189 190 191 192 193 194 195 196 197 198 199 200 201 202 203 204 205 206 207 208 209 210 211 212 213 214 215 216 217 218 219 220 221 222 223 224 225 226 227 228 229 230 231 232 233 234 235 236 237 238 239 240 241 242 243 244 245 246 247 248 249 250 251 252 253 254 255 256 257 258 259 260 261 262 263 264 265 266 267 268 269 270 271 272 273 274 275 276 277 278 279 280 281 282 283 284 285 286 287 288 289 290 291 292 293 294 295 296 297 298 299 300 301 302 303 304 305 306 307 308 309 310 311 312 313 314 315 316 317 318 319 320 321 322 323 324 325 326 327 328 329 330 331 332 333 334 335 336 337 338 339 340 341 342 343 344 345 346 347 348 349 350 351 352 353 354 355 356 357 358 359 360 361 362 363 364 365 366 367 368 369 370 371 372 373 374 375 376 377 378 379 380 381 382 383 384 385 386 387 388 389 390 391 392 393 394 395 396 397 398 399 400 401 402 403 404 405 406 407 408 409 410 411 412 413 414 415 416 417 418 419 420 421 422 423 424 425 426 427 428 429 430 431 432 433 434 435 436 437 438 439 440 441 442 443 444 445 446 447 448 449 450 451 452 453 454 455 456 457 458 459 460 461 462 463 464 465 466 467 468 469 470 471 472 473 474 475 476 477 478 479 480 481 482 483 484 485 486 487 488 489 490 491 492 493 494 495 496 497 498 499 500 501 502 503 504 505 506 507 508 509 510 511 512 513 514 515 516 517 518 519 520 521 522 523 524 525 526 527 528 529 530 531 532 533 534 535 536 537 538 539 540 541 542 543 544 545 546 547 548 549 550 551 552 553 554 555 556 557 558 559 560 561 562 563 564 565 566 567 568 569 570 571 572 573 574 575 576 577 578 579 580 581 582 583 584 585 586 587 588 589 590 591 592 593 594 595 596 597 598 599 600 601 602 603 604 605 606 607 608 609 610 611 612 613 614 615 616 617 618 619 620 621 622 623 624 625 626 627 628 629 630 631 632 633 634 635 636 637 638 639 640 641 642 643 644 645 646 647 648 649 650 651 652 653 654 655 656 657 658 659 660 661 662 663 664 665 666 667 668 669 670 671 672 673 674 675 676 677 678 679 680 681 682 683 684 685 686 687 688 689 690 691 692 693 694 695 696 697 698 699 700 701 702 703 704 705 706 707 708 709 710 711 712 713 714 715 716 717 718 719 720 721 722 723 724 725 726 727 728 729 730 731 732 733 734 735 736 737 738 739 740 741 742 743 744 745 746 747 748 749 750 751 752 753 754 755 756 757 758 759 760 761 762 763 764 765 766 767 768 769 770 771 772 773 774 775 776 777 778 779 780 781 782 783 784 785 786 787 788 789 790 791 792 793 794 795 796 797 798 799 800 801 802 803 804 805 806 807 808 809 810 811 812 813 814 815 816 817 818 819 820 821 822 823 824 825 826 827 828 829 830 831 832 833 834 835 836 837 838 839 840 841 842 843 844 845 846 847 848 849 850 851 852 853 854 855 856 857 858 859 860 861 862 863 864 865 866 867 868 869 870 871 872 873 874 875 876 877 878 879 880 881 882 883 884 885 886 887 888 889 890 891 892 893 894 895 896 897 898 899 900 901 902 903 904 905 906 907 908 909 910 911 912 913 914 915 916 917 918 919 920 921 922 923 924 925 926 927 928 929 930 931 932 933 934 935 936 937 938 939 940 941 942 943 944 945 946 947 948 949 950 951 952 953 954 955 956 957 958 959 960 961 962 963 964 965 966 967 968 969 970 971 972 973 974 975 976 977 978 979 980 981 982 983 984 985 986 987 988 989 990 991 992 993 994 995 996 997 998 999 1000 1001 1002 1003 1004 1005 1006 1007 1008 1009 1010 1011 1012 1013 1014 1015 1016 1017 1018 1019 1020 1021 1022 1023 1024 1025 1026 1027 1028 1029 1030 1031 1032 1033 1034 1035 1036 1037 1038 1039 1040 1041 1042 1043 1044 1045 1046 1047 1048 1049 1050 1051 1052 1053 1054 1055 1056 1057 1058 1059 1060 1061 1062 1063 1064 1065 1066 1067 1068 1069 1070 1071 1072 1073 1074 1075 1076 1077 1078 1079 1080 1081 1082 1083 1084 1085 1086 1087 1088 1089 1090 1091 1092 1093 1094 1095 1096 1097 1098 1099 1100 1101 1102 1103 1104 1105 1106 1107 1108 1109 1110 1111 1112 1113 1114 1115 1116 1117 1118 1119 1120 1121 1122 1123 1124 1125 1126 1127 1128 1129 1130 1131 1132 1133 1134 1135 1136 1137 1138 1139 1140 1141 1142 1143 1144 1145 1146 1147 1148 1149 1150 1151 1152 1153 1154 1155 1156 1157 1158 1159 1160 1161 1162 1163 1164 1165 1166 1167 1168 1169 1170 1171 1172 1173 1174 1175 1176 1177 1178 1179 1180 1181 1182 1183 1184 1185 1186 1187 1188 1189 1190 1191 1192 1193 1194 1195 1196 1197 1198 1199 1200 1201 1202 1203 1204 1205 1206 1207 1208 1209 1210 1211 1212 1213 1214 1215 1216 1217 1218 1219 1220 1221 1222 1223 1224 1225 1226 1227 1228 1229 1230 1231 1232 1233 1234 1235 1236 1237 1238 1239 1240 1241 1242 1243 1244 1245 1246 1247 1248 1249 1250 1251 1252 1253 1254 1255 1256 1257 1258 1259 1260 1261 1262 1263 1264 1265 1266 1267 1268 1269 1270 1271 1272 1273 1274 1275 1276 1277 1278 1279 1280 1281 1282 1283 1284 1285 1286 1287 1288 1289 1290 1291 1292 1293 1294 1295 1296 1297 1298 1299 1300 1301 1302 1303 1304 1305 1306 1307 1308 1309 1310 1311 1312 1313 1314 1315 1316 1317 1318 1319 1320 1321 1322 1323 1324 1325 1326 1327 1328 1329 1330 1331 1332 1333 1334 1335 1336 1337 1338 1339 1340 1341 1342 1343 1344 1345 1346 1347 1348 1349 1350 1351 1352 1353 1354 1355 1356 1357 1358 1359 1360 1361 1362 1363 1364 1365 1366 1367 1368 1369 1370 1371 1372 1373 1374 1375 1376 1377 1378 1379 1380 1381 1382 1383 1384 1385 1386 1387 1388 1389 1390 1391 1392 1393 1394 1395 1396 1397 1398 1399 1400 1401 1402 1403 1404 1405 1406 1407 1408 1409 1410 1411 1412 1413 1414 1415 1416 1417 1418 1419 1420 1421 1422 1423 1424 1425 1426 1427 1428 1429 1430 1431 1432 1433 1434 1435 1436 1437 1438 1439 1440 1441 1442 1443 1444 1445 1446 1447 1448 1449 1450 1451 1452 1453 1454 1455 1456 1457 1458 1459 1460 1461 1462 1463 1464 1465 1466 1467 1468 1469 1470 1471 1472 1473 1474 1475 1476 1477 1478 1479 1480 1481 1482 1483 1484 1485 1486 1487 1488 1489 1490 1491 1492 1493 1494 1495 1496 1497 1498 1499 1500 1501 1502 1503 1504 1505 1506 1507 1508 1509 1510 1511 1512 1513 1514 1515 1516 1517 1518 1519 1520 1521 1522 1523 1524 1525 1526 1527 1528 1529 1530 1531 1532 1533 1534 1535 1536 1537 1538 1539 1540 1541 1542 1543 1544 1545 1546 1547 1548 1549 1550 1551 1552 1553 1554 1555 1556 1557 1558 1559 1560 1561 1562 1563 1564 1565 1566 1567 1568 1569 1570 1571 1572 1573 1574 1575 1576 1577 1578 1579 1580 1581 1582 1583 1584 1585 1586 1587 1588 1589 1590 1591 1592 1593 1594 1595 1596 1597 1598 1599 1600 1601 1602 1603 1604 1605 1606 1607 1608 1609 1610 1611 1612 1613 1614 1615 1616 1617 1618 1619 1620 1621 1622 1623 1624 1625 1626 1627 1628 1629 1630 1631 1632 1633 1634 1635 1636 1637 1638 1639 1640 1641 1642 1643 1644 1645 1646 1647 1648 1649 1650 1651 1652 1653 1654 1655 1656 1657 1658 1659 1660 1661 1662 1663 1664 1665 1666 1667 1668 1669 1670 1671 1672 1673 1674 1675 1676 1677 1678 1679 1680 1681 1682 1683 1684 1685 1686 1687 1688 1689 1690 1691 1692 1693 1694 1695 1696 1697 1698 1699 1700 1701 1702 1703 1704 1705 1706 1707 1708 1709 1710 1711 1712 1713 1714 1715 1716 1717 1718 1719 1720 1721 1722 1723 1724 1725 1726 1727 1728 1729 1730 1731 1732 1733 1734 1735 1736 1737 1738 1739 1740 1741 1742 1743 1744 1745 1746 1747 1748 1749 1750 1751 1752 1753 1754 1755 1756 1757 1758 1759 1760 1761 1762 1763 1764 1765 1766 1767 1768 1769 1770 1771 1772 1773 1774 1775 1776 1777 1778 1779 1780 1781 1782 1783 1784 1785 1786 1787 1788 1789 1790 1791 1792 1793 1794 1795 1796 1797 1798 1799 1800 1801 1802 1803 1804 1805 1806 1807 1808 1809 1810 1811 1812 1813 1814 1815 1816 1817 1818 1819 1820 1821 1822 1823 1824 1825 1826 1827 1828 1829 1830 1831 1832 1833 1834 1835 1836 1837 1838 1839 1840 1841 1842 1843 1844 1845 1846 1847 1848 1849 1850 1851 1852 1853 1854 1855 1856 1857 1858 1859 1860 1861 1862 1863 1864 1865 1866 1867 1868 1869 1870 1871 1872 1873 1874 1875 1876 1877 1878 1879 1880 1881 1882 1883 1884 1885 1886 1887 1888 1889 1890 1891 1892 1893 1894 1895 1896 1897 1898 1899 1900 1901 1902 1903 1904 1905 1906 1907 1908 1909 1910 1911 1912 1913 1914 1915 1916 1917 1918 1919 1920 1921 1922 1923 1924 1925 1926 1927 1928 1929 1930 1931 1932 1933 1934 1935 1936 1937 1938 1939 1940 1941 1942 1943 1944 1945 1946 1947 1948 1949 1950 1951 1952 1953 1954 1955 1956 1957 1958 1959 1960 1961 1962 1963 1964 1965 1966 1967 1968 1969 1970 1971 1972 1973 1974 1975 1976 1977 1978 1979 1980 1981 1982 1983 1984 1985 1986 1987 1988 1989 1990 1991 1992 1993 1994 1995 1996 1997 1998 1999 2000 2001 2002 2003 2004 2005 2006 2007 2008 2009 2010 2011 2012 2013 2014 2015 2016 2017 2018 2019 2020 2021 2022 2023 2024 2025 2026 2027 2028 2029 2030 2031 2032 2033 2034 2035 2036 2037 2038 2039 2040 2041 2042 2043 2044 2045 2046 2047 2048 2049 2050 2051 2052 2053 2054 2055 2056 2057 2058 2059 2060 2061 2062 2063 2064 2065 2066 2067 2068 2069 2070 2071 2072 2073 2074 2075 2076 2077 2078 2079 2080 2081 2082 2083 2084 2085 2086 2087 2088 2089 2090 2091 2092 2093 2094 2095 2096 2097 2098 2099 2100 2101 2102 2103 2104 2105 2106 2107 2108 2109 2110 2111 2112 2113 2114 2115 2116 2117 2118 2119 2120 2121 2122 2123 2124 2125 2126 2127 2128 2129 2130 2131 2132 2133 2134 2135 2136 2137 2138 2139 2140 2141 2142 2143 2144 2145 2146 2147 2148 2149 2150 2151 2152 2153 2154 2155 2156 2157 2158 2159 2160 2161 2162 2163 2164 2165 2166 2167 2168 2169 2170 2171 2172 2173 2174 2175 2176 2177 2178 2179 2180 2181 2182 2183 2184 2185 2186 2187 2188 2189 2190 2191 2192 2193 2194 2195 2196 2197 2198 2199 2200 2201 2202 2203 2204 2205 2206 2207 2208 2209 2210 2211 2212 2213 2214 2215 2216 2217 2218 2219 2220 2221 2222 2223 2224 2225 2226 2227 2228 2229 2230 2231 2232 2233 2234 2235 2236 2237 2238 2239 2240 2241 2242 2243 2244 2245 2246 2247 2248 2249 2250 2251 2252 2253 2254 2255 2256 2257 2258 2259 2260 2261 2262 2263 2264 2265 2266 2267 2268 2269 2270 2271 2272 2273 2274 2275 2276 2277 2278 2279 2280 2281 2282 2283 2284 2285 2286 2287 2288 2289 2290 2291 2292 2293 2294 2295 2296 2297 2298 2299 2300 2301 2302 2303 2304 2305 2306 2307 2308 2309 2310 2311 2312 2313 2314 2315 2316 2317 2318 2319 2320 2321 2322 2323 2324 2325 2326 2327 2328 2329 2330 2331 2332 2333 2334 2335 2336 2337 2338 2339 2340 2341 2342 2343 2344 2345 2346 2347 2348 2349 2350 2351 2352 2353 2354 2355 2356 2357 2358 2359 2360 2361 2362 2363 2364 2365 2366 2367 2368 2369 2370 2371 2372 2373 2374 2375 2376 2377 2378 2379 2380 2381 2382 2383 2384 2385 2386 2387 2388 2389 2390 2391 2392 2393 2394 2395 2396 2397 2398 2399 2400 2401 2402 2403 2404 2405 2406 2407 2408 2409 2410 2411 2412 2413 2414 2415 2416 2417 2418 2419 2420 2421 2422 2423 2424 2425 2426 2427 2428 2429 2430 2431 2432 2433 2434 2435 2436 2437 2438 2439 2440 2441 2442 2443 2444 2445 2446 2447 2448 2449 2450 2451 2452 2453 2454 2455 2456 2457 2458 2459 2460 2461 2462 2463 2464 2465 2466 2467 2468 2469 2470 2471 2472 2473 2474 2475 2476 2477 2478 2479 2480 2481 2482 2483 2484 2485 2486 2487 2488 2489 2490 2491 2492 2493 2494 2495 2496 2497 2498 2499 2500 2501 2502 2503 2504 2505 2506 2507 2508 2509 2510 2511 2512 2513 2514 2515 2516 2517 2518 2519 2520 2521 2522 2523 2524 2525 2526 2527 2528 2529 2530 2531 2532 2533 2534 2535 2536 2537 2538 2539 2540 2541 2542 2543 2544 2545 2546 2547 2548 2549 2550 2551 2552 2553 2554 2555 2556 2557 2558 2559 2560 2561 2562 2563 2564 2565 2566 2567 2568 2569 2570 2571 2572 2573 2574 2575 2576 2577 2578 2579 2580 2581 2582 2583 2584 2585 2586 2587 2588 2589 2590 2591 2592 2593 2594 2595 2596 2597 2598 2599 2600 2601 2602 2603 2604 2605 2606 2607 2608 2609 2610 2611 2612 2613 2614 2615 2616 2617 2618 2619 2620 2621 2622 2623 2624 2625 2626 2627 2628 2629 2630 2631 2632 2633 2634 2635 2636 2637 2638 2639 2640 2641 2642 2643 2644 2645 2646 2647 2648 2649 2650 2651 2652 2653 2654 2655 2656 2657 2658 2659 2660 2661 2662 2663 2664 2665 2666 2667 2668 2669 2670 2671 2672 2673 2674 2675 2676 2677 2678 2679 2680 2681 2682 2683 2684 2685 2686 2687 2688 2689 2690 2691 2692 2693 2694 2695 2696 2697 2698 2699 2700 2701 2702 2703 2704 2705 2706 2707 2708 2709 2710 2711 2712 2713 2714 2715 2716 2717 2718 2719 2720 2721 2722 2723 2724 2725 2726 2727 2728 2729 2730 2731 2732 2733 2734 2735 2736 2737 2738 2739 2740 2741 2742 2743 2744 2745 2746 2747 2748 2749 2750 2751 2752 2753 2754 2755 2756 2757 2758 2759 2760 2761 2762 2763 2764 2765 2766 2767 2768 2769 2770 2771 2772 2773 2774 2775 2776 2777 2778 2779 2780 2781 2782 2783 2784 2785 2786 2787 2788 2789 2790 2791 2792 2793 2794 2795 2796 2797 2798 2799 2800 2801 2802 2803 2804 2805 2806 2807 2808 2809 2810 2811 2812 2813 2814 2815 2816 2817 2818 2819 2820 2821 2822 2823 2824 2825 2826 2827 2828 2829 2830 2831 2832 2833 2834 2835 2836 2837 2838 2839 2840 2841 2842 2843 2844 2845 2846 2847 2848 2849 2850 2851 2852 2853 2854 2855 2856 2857 2858 2859 2860 2861 2862 2863 2864 2865 2866 2867 2868 2869 2870 2871 2872 2873 2874 2875 2876 2877 2878 2879 2880 2881 2882 2883 2884 2885 2886 2887 2888 2889 2890 2891 2892 2893 2894 2895 2896 2897 2898 2899 2900 2901 2902 2903 2904 2905 2906 2907 2908 2909 2910 2911 2912 2913 2914 2915 2916 2917 2918 2919 2920 2921 2922 2923 2924 2925 2926 2927 2928 2929 2930 2931 2932 2933 2934 2935 2936 2937 2938 2939 2940 2941 2942 2943 2944 2945 2946 2947 2948 2949 2950 2951 2952 2953 2954 2955 2956 2957 2958 2959 2960 2961 2962 2963 2964 2965 2966 2967 2968 2969 2970 2971 2972 2973 2974 2975 2976 2977 2978 2979 2980 2981 2982 2983 2984 2985 2986 2987 2988 2989 2990 2991 2992 2993 2994 2995 2996 2997 2998 2999 3000 3001 3002 3003 3004 3005 3006 3007 3008 3009 3010 3011 3012 3013 3014 3015 3016 3017 3018 3019 3020 3021 3022 3023 3024 3025 3026 3027 3028 3029 3030 3031 3032 3033 3034 3035 3036 3037 3038 3039 3040 3041 3042 3043 3044 3045 3046 3047 3048 3049 3050 3051 3052 3053 3054 3055 3056 3057 3058 3059 3060 3061 3062 3063 3064 3065 3066 3067 3068 3069 3070 3071 3072 3073 3074 3075 3076 3077 3078 3079 3080 3081 3082 3083 3084 3085 3086 3087 3088 3089 3090 3091 3092 3093 3094 3095 3096 3097 3098 3099 3100 3101 3102 3103 3104 3105 3106 3107 3108 3109 3110 3111 3112 3113 3114 3115 3116 3117 3118 3119 3120 3121 3122 3123 3124 3125 3126 3127 3128 3129 3130 3131 3132 3133 3134 3135 3136 3137 3138 3139 3140 3141 
</DataArray>
<DataArray type="UInt32" Name="offsets" format="ascii">
3 6 9 12 15 18 21 24 27 30 33 36 39 42 45 48 51 54 57 60 63 66 69 72 75 78 81 84 87 90 93 96 99 102 105 108 111 114 117 120 123 126 129 132 135 138 141 144 147 150 153 156 159 162 165 168 171 174 177 180 183 186 189 192 195 198 201 204 207 210 213 216 219 222 225 228 231 234 237 240 243 246 249 252 255 258 261 264 267 270 273 276 279 282 285 288 291 294 297 300 303 306 309 312 315 318 321 324 327 330 333 336 339 342 345 348 351 354 357 360 363 366 369 372 375 378 381 384 387 390 393 396 399 402 405 408 411 414 417 420 423 426 429 432 435 438 441 444 447 450 453 456 459 462 465 468 471 474 477 480 483 486 489 492 495 498 501 504 507 510 513 516 519 522 525 528 531 534 537 540 543 546 549 552 555 558 561 564 567 570 573 576 579 582 585 588 591 594 597 600 603 606 609 612 615 618 621 624 627 630 633 636 639 642 645 648 651 654 657 660 663 666 669 672 675 678 681 684 687 690 693 696 699 702 705 708 711 714 717 720 723 726 729 732 735 738 741 744 747 750 753 756 759 762 765 768 771 774 777 780 783 786 789 792 795 798 801 804 807 810 813 816 819 822 825 828 831 834 837 840 843 846 849 852 855 858 861 864 867 870 873 876 879 882 885 888 891 894 897 900 903 906 909 912 915 918 921 924 927 930 933 936 939 942 945 948 951 954 957 960 963 966 969 972 975 978 981 984 987 990 993 996 999 1002 1005 1008 1011 1014 1017 1020 1023 1026 1029 1032 1035 1038 1041 1044 1047 1050 1053 1056 1059 1062 1065 1068 1071 1074 1077 1080 1083 1086 1089 1092 1095 1098 1101 1104 1107 1110 1113 1116 1119 1122 1125 1128 1131 1134 1137 1140 1143 1146 1149 1152 1155 1158 1161 1164 1167 1170 1173 1176 1179 1182 1185 1188 1191 1194 1197 1200 1203 1206 1209 1212 1215 1218 1221 1224 1227 1230 1233 1236 1239 1242 1245 1248 1251 1254 1257 1260 1263 1266 1269 1272 1275 1278 1281 1284 1287 1290 1293 1296 1299 1302 1305 1308 1311 1314 1317 1320 1323 1326 1329 1332 1335 1338 1341 1344 1347 1350 1353 1356 1359 1362 1365 1368 1371 1374 1377 1380 1383 1386 1389 1392 1395 1398 1401 1404 1407 1410 1413 1416 1419 1422 1425 1428 1431 1434 1437 1440 1443 1446 1449 1452 1455 1458 1461 1464 1467 1470 1473 1476 1479 1482 1485 1488 1491 1494 1497 1500 1503 1506 1509 1512 1515 1518 1521 1524 1527 1530 1533 1536 1539 1542 1545 1548 1551 1554 1557 1560 1563 1566 1569 1572 1575 1578 1581 1584 1587 1590 1593 1596 1599 1602 1605 1608 1611 1614 1616 1619 1622 1624 1627 1630 1632 1635 1638 1641 1644 1647 1650 1653 1656 1659 1662 1665 1668 1671 1673 1676 1679 1682 1685 1688 1690 1693 1696 1699 1702 1705 1708 1711 1714 1717 1720 1723 1726 1729 1732 1735 1738 1741 1744 1747 1750 1753 1756 1759 1762 1765 1768 1771 1774 1777 1780 1783 1786 1789 1792 1795 1798 1801 1804 1807 1810 1813 1816 1819 1822 1825 1828 1831 1834 1837 1840 1843 1846 1849 1852 1855 1858 1861 1864 1867 1870 1873 1876 1879 1882 1885 1888 1891 1894 1897 1900 1903 1906 1909 1912 1915 1918 1921 1924 1927 1930 1933 1936 1939 1942 1945 1948 1951 1954 1957 1960 1963 1966 1969 1972 1975 1978 1981 1984 1987 1990 1993 1996 1999 2002 2005 2008 2011 2014 2017 2020 2023 2026 2029 2032 2035 2038 2041 2044 2047 2050 2053 2056 2059 2062 2065 2068 2071 2074 2077 2080 2083 2086 2089 2092 2095 2098 2101 2104 2107 2110 2113 2116 2119 2122 2125 2128 2131 2134 2137 2140 2143 2146 2149 2152 2155 2158 2161 2164 2167 2170 2173 2176 2179 2182 2185 2188 2191 2194 2196 2199 2202 2205 2207 2210 2213 2215 2218 2221 2224 2227 2230 2233 2236 2239 2242 2245 2248 2250 2253 2256 2259 2262 2264 2267 2270 2273 2276 2279 2282 2285 2288 2291 2294 2297 2300 2303 2306 2309 2312 2315 2318 2321 2324 2327 2330 2333 2336 2339 2342 2345 2348 2351 2354 2357 2360 2363 2366 2369 2372 2375 2378 2381 2384 2387 2390 2393 2396 2399 2402 2405 2408 2411 2414 2417 2420 2423 2426 2429 2432 2435 2438 2440 2443 2446 2449 2452 2455 2458 2461 2464 2467 2470 2473 2476 2479 2482 2484 2487 2490 2492 2495 2497 2500 2503 2506 2509 2512 2515 2518 2521 2524 2527 2530 2533 2536 2538 2541 2544 2547 2550 2553 2556 2559 2562 2565 2568 2571 2574 2577 2580 2583 2586 2589 2592 2595 2598 2601 2604 2607 2610 2613 2616 2619 2622 2625 2628 2631 2634 2637 2640 2643 2646 2649 2652 2655 2658 2661 2664 2667 2670 2673 2676 2679 2682 2685 2688 2691 2694 2697 2700 2703 2706 2709 2712 2715 2718 2721 2724 2727 2730 2733 2736 2739 2742 2745 2748 2751 2754 2757 2760 2763 2766 2769 2772 2775 2778 2781 2784 2787 2790 2793 2796 2799 2802 2805 2808 2811 2814 2817 2820 2823 2826 2829 2832 2835 2838 2841 2844 2847 2850 2853 2856 2859 2862 2865 2868 2871 2874 2877 2880 2883 2886 2889 2892 2895 2898 2901 2904 2907 2910 2913 2916 2919 2922 2925 2928 2931 2934 2937 2940 2943 2946 2948 2951 2954 2956 2959 2961 2964 2967 2970 2973 2976 2979 2982 2985 2988 2991 2994 2997 3000 3003 3006 3009 3012 3015 3018 3021 3024 3027 3030 3033 3036 3039 3042 3045 3048 3051 3054 3057 3060 3063 3066 3069 3072 3075 3078 3081 3084 3087 3090 3093 3096 3099 3102 3104 3107 3110 3113 3116 3119 3121 3124 3127 3130 3133 3136 3139 3142 
</DataArray>
<DataArray type="UInt32" Name="types" format="ascii">
5 5 5 5 5 5 5 5 5 5 5 5 5 5 5 5 5 5 5 5 5 5 5 5 5 5 5 5 5 5 5 5 5 5 5 5 5 5 5 5 5 5 5 5 5 5 5 5 5 5 5 5 5 5 5 5 5 5 5 5 5 5 5 5 5 5 5 5 5 5 5 5 5 5 5 5 5 5 5 5 5 5 5 5 5 5 5 5 5 5 5 5 5 5 5 5 5 5 5 5 5 5 5 5 5 5 5 5 5 5 5 5 5 5 5 5 5 5 5 5 5 5 5 5 5 5 5 5 5 5 5 5 5 5 5 5 5 5 5 5 5 5 5 5 5 5 5 5 5 5 5 5 5 5 5 5 5 5 5 5 5 5 5 5 5 5 5 5 5 5 5 5 5 5 5 5 5 5 5 5 5 5 5 5 5 5 5 5 5 5 5 5 5 5 5 5 5 5 5 5 5 5 5 5 5 5 5 5 5 5 5 5 5 5 5 5 5 5 5 5 5 5 5 5 5 5 5 5 5 5 5 5 5 5 5 5 5 5 5 5 5 5 5 5 5 5 5 5 5 5 5 5 5 5 5 5 5 5 5 5 5 5 5 5 5 5 5 5 5 5 5 5 5 5 5 5 5 5 5 5 5 5 5 5 5 5 5 5 5 5 5 5 5 5 5 5 5 5 5 5 5 5 5 5 5 5 5 5 5 5 5 5 5 5 5 5 5 5 5 5 5 5 5 5 5 5 5 5 5 5 5 5 5 5 5 5 5 5 5 5 5 5 5 5 5 5 5 5 5 5 5 5 5 5 5 5 5 5 5 5 5 5 5 5 5 5 5 5 5 5 5 5 5 5 5 5 5 5 5 5 5 5 5 5 5 5 5 5 5 5 5 5 5 5 5 5 5 5 5 5 5 5 5 5 5 5 5 5 5 5 5 5 5 5 5 5 5 5 5 5 5 5 5 5 5 5 5 5 5 5 5 5 5 5 5 5 5 5 5 5 5 5 5 5 5 5 5 5 5 5 5 5 5 5 5 5 5 5 5 5 5 5 5 5 5 5 5 5 5 5 5 5 5 5 5 5 5 5 5 5 5 5 5 5 5 5 5 5 5 5 5 5 5 5 5 5 5 5 5 5 5 5 5 5 5 5 5 5 5 5 5 5 5 5 5 5 5 5 5 5 5 5 5 5 5 5 5 5 5 5 5 5 5 5 5 5 5 5 3 5 5 3 5 5 3 5 5 5 5 5 5 5 5 5 5 5 5 5 3 5 5 5 5 5 3 5 5 5 5 5 5 5 5 5 5 5 5 5 5 5 5 5 5 5 5 5 5 5 5 5 5 5 5 5 5 5 5 5 5 5 5 5 5 5 5 5 5 5 5 5 5 5 5 5 5 5 5 5 5 5 5 5 5 5 5 5 5 5 5 5 5 5 5 5 5 5 5 5 5 5 5 5 5 5 5 5 5 5 5 5 5 5 5 5 5 5 5 5 5 5 5 5 5 5 5 5 5 5 5 5 5 5 5 5 5 5 5 5 5 5 5 5 5 5 5 5 5 5 5 5 5 5 5 5 5 5 5 5 5 5 5 5 5 5 5 5 5 5 5 5 5 5 5 5 5 5 5 5 5 5 5 5 5 5 5 5 5 5 5 5 5 5 5 3 5 5 5 3 5 5 3 5 5 5 5 5 5 5 5 5 5 5 3 5 5 5 5 3 5 5 5 5 5 5 5 5 5 5 5 5 5 5 5 5 5 5 5 5 5 5 5 5 5 5 5 5 5 5 5 5 5 5 5 5 5 5 5 5 5 5 5 5 5 5 5 5 5 5 5 5 5 5 5 5 5 5 3 5 5 5 5 5 5 5 5 5 5 5 5 5 5 3 5 5 3 5 3 5 5 5 5 5 5 5 5 5 5 5 5 5 3 5 5 5 5 5 5 5 5 5 5 5 5 5 5 5 5 5 5 5 5 5 5 5 5 5 5 5 5 5 5 5 5 5 5 5 5 5 5 5 5 5 5 5 5 5 5 5 5 5 5 5 5 5 5 5 5 5 5 5 5 5 5 5 5 5 5 5 5 5 5 5 5 5 5 5 5 5 5 5 5 5 5 5 5 5 5 5 5 5 5 5 5 5 5 5 5 5 5 5 5 5 5 5 5 5 5 5 5 5 5 5 5 5 5 5 5 5 5 5 5 5 5 5 5 5 5 5 5 5 5 5 5 5 5 5 5 3 5 5 3 5 3 5 5 5 5 5 5 5 5 5 5 5 5 5 5 5 5 5 5 5 5 5 5 5 5 5 5 5 5 5 5 5 5 5 5 5 5 5 5 5 5 5 5 5 5 5 5 5 3 5 5 5 5 5 3 5 5 5 5 5 5 5 
</DataArray>
</Cells>
<PointData Scalars="" Vectors="displacement," Tensors="">
<DataArray type="Float64" Name="displacement" NumberOfComponents="3" format="ascii">
-7.8530706420248021e-09 -3.3594292505887036e-09 0 -6.6649437746546007e-06 -3.7593893329804243e-06 0 -2.7685139259066648e-06 -1.2694928154751247e-06 0 -7.8530706420248021e-09 -3.3594292505887036e-09 0 -2.7685139259066652e-06 -1.2694928154751249e-06 0 -4.0394721243497618e-09 2.9511160340863793e-10 0 -6.6649437746546007e-06 -3.7593893329804243e-06 0 -5.3949234546660571e-06 -2.0542903349037544e-06 0 -2.7685139259066648e-06 -1.2694928154751247e-06 0 -4.0394721243497618e-09 2.9511160340863793e-10 0 -2.7685139259066648e-06 -1.2694928154751247e-06 0 -5.3949234546660571e-06 -2.0542903349037544e-06 0 -4.4949574462649275e-09 -5.9894074998502217e-10 0 -4.0394721243497618e-09 2.9511160340863793e-10 0 -3.7564409069606096e-06 -7.7816041442251231e-07 0 -3.3845809333300696e-09 3.5135721329565263e-10 0 -4.4949574462649275e-09 -5.9894074998502217e-10 0 -3.7564409069606096e-06 -7.7816041442251231e-07 0 -7.6773299128694669e-06 -2.0464235386934735e-06 0 -3.7564409069606096e-06 -7.7816041442251231e-07 0 -5.3949234546660571e-06 -2.0542903349037544e-06 0 -4.0394721243497618e-09 2.9511160340863793e-10 0 -5.3949234546660571e-06 -2.0542903349037544e-06 0 -3.7564409069606096e-06 -7.7816041442251231e-07 0 -7.6773299128694669e-06 -2.0464235386934735e-06 0 -5.1041018476444256e-06 -6.1844765688248144e-07 0 -3.7564409069606096e-06 -7.7816041442251231e-07 0 -7.6773299128694669e-06 -2.0464235386934735e-06 0 -8.8715581491156221e-06 -1.7822401213342369e-06 0 -5.1041018476444256e-06 -6.1844765688248144e-07 0 -7.6773299128694669e-06 -2.0464235386934735e-06 0 -1.1626857822460224e-05 -3.1625058092606215e-06 0 -8.8715581491156221e-06 -1.7822401213342369e-06 0 -1.167406227144378e-05 -2.4709066206164759e-06 0 -8.8715581491156221e-06 -1.7822401213342369e-06 0 -1.1626857822460223e-05 -3.162505809260621e-06 0 -1.5236650240591449e-05 -4.9817262964557941e-06 0 -1.1626857822460223e-05 -3.162505809260621e-06 0 -1.1090020033837733e-05 -4.1139854095666234e-06 0 -7.6773299128694669e-06 -2.0464235386934735e-06 0 -1.1090020033837733e-05 -4.1139854095666234e-06 0 -1.1626857822460223e-05 -3.162505809260621e-06 0 -1.2457361523274619e-05 -5.6604222624080121e-06 0 -1.8261104993860679e-05 -7.4160605666999977e-06 0 -1.1090020033837733e-05 -4.1139854095666234e-06 0 -6.6649437746546007e-06 -3.7593893329804243e-06 0 -1.2457361523274619e-05 -5.6604222624080121e-06 0 -5.3949234546660571e-06 -2.0542903349037544e-06 0 -1.2457361523274619e-05 -5.6604222624080121e-06 0 -1.1090020033837733e-05 -4.1139854095666234e-06 0 -5.3949234546660571e-06 -2.0542903349037544e-06 0 -7.6773299128694669e-06 -2.0464235386934735e-06 0 -5.3949234546660571e-06 -2.0542903349037544e-06 0 -1.1090020033837733e-05 -4.1139854095666234e-06 0 -2.7493790294093665e-09 2.5685979238441866e-10 0 -3.2372764562643082e-09 3.0466462592815774e-11 0 -2.6527603131139435e-06 2.0282671621317797e-07 0 -3.2372764562643082e-09 3.0466462592815774e-11 0 -2.6258912282072267e-06 -2.4387783173094826e-08 0 -2.6527603131139435e-06 2.0282671621317797e-07 0 -5.5759573102989569e-06 -2.8129399785935378e-07 0 -2.6527603131139435e-06 2.0282671621317797e-07 0 -2.6258912282072267e-06 -2.4387783173094826e-08 0 -3.3845809333300696e-09 3.5135721329565263e-10 0 -5.1041018476444256e-06 -6.1844765688248144e-07 0 -2.6258912282072267e-06 -2.4387783173094826e-08 0 -3.3845809333300696e-09 3.5135721329565263e-10 0 -3.7564409069606096e-06 -7.7816041442251231e-07 0 -5.1041018476444256e-06 -6.1844765688248144e-07 0 -5.5759573102989569e-06 -2.8129399785935378e-07 0 -2.6258912282072267e-06 -2.4387783173094826e-08 0 -5.1041018476444256e-06 -6.1844765688248144e-07 0 -3.2372764562643082e-09 3.0466462592815774e-11 0 -3.3845809333300696e-09 3.5135721329565263e-10 0 -2.6258912282072267e-06 -2.4387783173094826e-08 0 -5.1041018476444256e-06 -6.1844765688248144e-07 0 -8.8715581491156221e-06 -1.7822401213342371e-06 0 -8.0725206076240643e-06 -1.1550328895325609e-06 0 -1.167406227144378e-05 -2.4709066206164759e-06 0 -8.0725206076240643e-06 -1.1550328895325609e-06 0 -8.8715581491156221e-06 -1.7822401213342369e-06 0 -5.5759573102989569e-06 -2.8129399785935378e-07 0 -5.1041018476444256e-06 -6.1844765688248144e-07 0 -8.0725206076240643e-06 -1.1550328895325609e-06 0 -5.5759573102989569e-06 -2.8129399785935378e-07 0 -9.2744753951473588e-06 -1.221557167538047e-06 0 -5.5262716890446954e-06 -2.7038261702334947e-09 0 -5.5759573102989569e-06 -2.8129399785935378e-07 0 -8.0725206076240643e-06 -1.1550328895325609e-06 0 -9.2744753951473588e-06 -1.221557167538047e-06 0 -5.5759573102989569e-06 -2.8129399785935378e-07 0 -5.5262716890446954e-06 -2.7038261702334947e-09 0 -2.6527603131139435e-06 2.0282671621317797e-07 0 -2.5874162636951466e-06 3.7559316809172376e-07 0 -2.6527603131139435e-06 2.0282671621317797e-07 0 -5.5262716890446954e-06 -2.7038261702334947e-09 0 -9.2744753951473588e-06 -1.221557167538047e-06 0 -8.5857927152669771e-06 -8.5226229135193381e-07 0 -5.5262716890446954e-06 -2.7038261702334947e-09 0 -1.1110084479711972e-05 -1.8391163624950259e-06 0 -8.5857927152669754e-06 -8.522622913519337e-07 0 -9.2744753951473588e-06 -1.221557167538047e-06 0 -1.1110084479711972e-05 -1.8391163624950259e-06 0 -9.2744753951473588e-06 -1.221557167538047e-06 0 -1.3093883242242861e-05 -2.7550234821230973e-06 0 -1.167406227144378e-05 -2.4709066206164759e-06 0 -1.56220425576322e-05 -4.0302650757316897e-06 0 -1.3093883242242861e-05 -2.7550234821230973e-06 0 -1.167406227144378e-05 -2.4709066206164759e-06 0 -9.2744753951473572e-06 -1.2215571675380468e-06 0 -8.0725206076240643e-06 -1.1550328895325609e-06 0 -1.167406227144378e-05 -2.4709066206164759e-06 0 -1.3093883242242861e-05 -2.7550234821230973e-06 0 -9.2744753951473588e-06 -1.221557167538047e-06 0 -1.167406227144378e-05 -2.4709066206164759e-06 0 -1.5033334143474756e-05 -4.1799055729624428e-06 0 -1.5622042557632196e-05 -4.0302650757316889e-06 0 -1.6339027941721545e-05 -4.3158251901660679e-06 0 -1.5622042557632196e-05 -4.0302650757316889e-06 0 -2.0191715309653107e-05 -6.1437067311458126e-06 0 -1.6339027941721545e-05 -4.3158251901660679e-06 0 -2.0191715309653107e-05 -6.1437067311458126e-06 0 -2.060307703945907e-05 -6.6033866159579938e-06 0 -1.6339027941721545e-05 -4.3158251901660679e-06 0 -2.060307703945907e-05 -6.6033866159579938e-06 0 -1.90481012789401e-05 -6.1204486600527013e-06 0 -1.6339027941721545e-05 -4.3158251901660679e-06 0 -1.3093883242242861e-05 -2.7550234821230973e-06 0 -1.5622042557632196e-05 -4.0302650757316889e-06 0 -1.1110084479711972e-05 -1.8391163624950259e-06 0 -1.3093883242242861e-05 -2.7550234821230973e-06 0 -1.4676939008920407e-05 -3.6114675931195652e-06 0 -1.6339027941721545e-05 -4.3158251901660679e-06 0 -1.4676939008920407e-05 -3.6114675931195652e-06 0 -1.3093883242242861e-05 -2.7550234821230973e-06 0 -1.6339027941721545e-05 -4.3158251901660679e-06 0 -1.90481012789401e-05 -6.1204486600527013e-06 0 -1.4676939008920407e-05 -3.6114675931195652e-06 0 -1.4709626322937821e-05 -4.0375593721366998e-06 0 -1.1789219447353428e-05 -2.2392801643342285e-06 0 -1.4676939008920407e-05 -3.6114675931195652e-06 0 -1.1110084479711972e-05 -1.8391163624950259e-06 0 -1.4676939008920407e-05 -3.6114675931195652e-06 0 -1.1789219447353428e-05 -2.2392801643342285e-06 0 -1.8261104993860679e-05 -7.4160605666999977e-06 0 -2.0570019607932754e-05 -7.2485620758647699e-06 0 -1.5236650240591449e-05 -4.9817262964557941e-06 0 -1.9719919225789547e-05 -6.153933138356413e-06 0 -1.5236650240591448e-05 -4.9817262964557941e-06 0 -2.0570019607932758e-05 -7.2485620758647708e-06 0 -1.8261104993860679e-05 -7.4160605666999977e-06 0 -2.4357423039708032e-05 -9.4207865281274631e-06 0 -2.0570019607932758e-05 -7.2485620758647708e-06 0 -1.8261104993860679e-05 -7.4160605666999977e-06 0 -1.5236650240591451e-05 -4.9817262964557941e-06 0 -1.1090020033837733e-05 -4.1139854095666234e-06 0 -1.5236650240591449e-05 -4.9817262964557941e-06 0 -1.5033334143474756e-05 -4.1799055729624428e-06 0 -1.1626857822460223e-05 -3.162505809260621e-06 0 -1.167406227144378e-05 -2.4709066206164759e-06 0 -1.1626857822460223e-05 -3.162505809260621e-06 0 -1.5033334143474756e-05 -4.1799055729624428e-06 0 -1.9719919225789547e-05 -6.153933138356413e-06 0 -1.5622042557632196e-05 -4.0302650757316889e-06 0 -1.5033334143474756e-05 -4.1799055729624428e-06 0 -1.9719919225789547e-05 -6.153933138356413e-06 0 -1.5033334143474756e-05 -4.1799055729624428e-06 0 -1.5236650240591449e-05 -4.9817262964557941e-06 0 -1.9719919225789547e-05 -6.153933138356413e-06 0 -2.0191715309653107e-05 -6.1437067311458126e-06 0 -1.5622042557632196e-05 -4.0302650757316889e-06 0 -1.9719919225789547e-05 -6.153933138356413e-06 0 -2.3998661659355069e-05 -8.0465317552124325e-06 0 -2.0191715309653107e-05 -6.1437067311458126e-06 0 -2.5171807438148084e-05 -8.857687959425335e-06 0 -2.0191715309653107e-05 -6.1437067311458126e-06 0 -2.3998661659355069e-05 -8.0465317552124342e-06 0 -1.9719919225789547e-05 -6.153933138356413e-06 0 -2.5020124789564696e-05 -8.8266907833356163e-06 0 -2.3998661659355069e-05 -8.0465317552124342e-06 0 -2.963404284578133e-05 -1.091610999184003e-05 0 -2.3998661659355069e-05 -8.0465317552124342e-06 0 -2.5020124789564696e-05 -8.8266907833356163e-06 0 -1.9719919225789547e-05 -6.153933138356413e-06 0 -2.0570019607932758e-05 -7.2485620758647708e-06 0 -2.5020124789564696e-05 -8.8266907833356163e-06 0 -2.4357423039708028e-05 -9.4207865281274631e-06 0 -2.5020124789564696e-05 -8.8266907833356163e-06 0 -2.0570019607932758e-05 -7.2485620758647708e-06 0 -2.4357423039708028e-05 -9.4207865281274631e-06 0 -3.0745636879244449e-05 -1.1924018863665378e-05 0 -2.5020124789564696e-05 -8.8266907833356163e-06 0 -3.0745636879244449e-05 -1.1924018863665378e-05 0 -3.7294095051442729e-05 -1.5128066163719216e-05 0 -2.963404284578133e-05 -1.091610999184003e-05 0 -3.0745636879244449e-05 -1.1924018863665378e-05 0 -2.963404284578133e-05 -1.091610999184003e-05 0 -2.5020124789564696e-05 -8.8266907833356163e-06 0 -3.7294095051442729e-05 -1.5128066163719216e-05 0 -3.6778412737374686e-05 -1.5021186923559057e-05 0 -2.963404284578133e-05 -1.091610999184003e-05 0 -3.7294095051442729e-05 -1.5128066163719216e-05 0 -4.4328204003782949e-05 -1.9280410118708273e-05 0 -3.6778412737374686e-05 -1.5021186923559057e-05 0 -3.6056852616259992e-05 -1.5904305870997247e-05 0 -3.6778412737374686e-05 -1.5021186923559057e-05 0 -4.2296903575436528e-05 -1.8768379811763875e-05 0 -3.6056852616259992e-05 -1.5904305870997247e-05 0 -4.2296903575436528e-05 -1.8768379811763875e-05 0 -4.4059812463210918e-05 -2.1658490501907745e-05 0 -4.4328204003782949e-05 -1.9280410118708273e-05 0 -4.2296903575436528e-05 -1.8768379811763875e-05 0 -3.6778412737374686e-05 -1.5021186923559057e-05 0 -4.4328204003782949e-05 -1.9280410118708273e-05 0 -5.1704811790263596e-05 -2.4626397899686017e-05 0 -4.2296903575436528e-05 -1.8768379811763875e-05 0 -3.6056852616259992e-05 -1.5904305870997247e-05 0 -3.7663060580791755e-05 -1.9700875859989463e-05 0 -3.1234052846413158e-05 -1.481755711408065e-05 0 -3.6056852616259992e-05 -1.5904305870997247e-05 0 -3.1234052846413158e-05 -1.481755711408065e-05 0 -2.9327891183068837e-05 -1.1950380323728913e-05 0 -3.6056852616259992e-05 -1.5904305870997247e-05 0 -3.136874349919319e-05 -1.2312891140216832e-05 0 -3.6778412737374686e-05 -1.5021186923559057e-05 0 -3.6056852616259992e-05 -1.5904305870997247e-05 0 -2.9327891183068837e-05 -1.1950380323728913e-05 0 -3.136874349919319e-05 -1.2312891140216832e-05 0 -2.5171807438148084e-05 -8.857687959425335e-06 0 -3.136874349919319e-05 -1.2312891140216834e-05 0 -2.9327891183068837e-05 -1.1950380323728913e-05 0 -2.963404284578133e-05 -1.091610999184003e-05 0 -3.6778412737374686e-05 -1.5021186923559057e-05 0 -3.136874349919319e-05 -1.2312891140216832e-05 0 -3.136874349919319e-05 -1.2312891140216832e-05 0 -2.5171807438148084e-05 -8.857687959425335e-06 0 -2.963404284578133e-05 -1.091610999184003e-05 0 -2.963404284578133e-05 -1.091610999184003e-05 0 -2.5171807438148084e-05 -8.857687959425335e-06 0 -2.3998661659355069e-05 -8.0465317552124342e-06 0 -2.5171807438148084e-05 -8.857687959425335e-06 0 -2.060307703945907e-05 -6.6033866159579938e-06 0 -2.0191715309653107e-05 -6.1437067311458126e-06 0 -2.5171807438148084e-05 -8.857687959425335e-06 0 -2.3715329005436429e-05 -8.7770561615401528e-06 0 -2.060307703945907e-05 -6.6033866159579938e-06 0 -1.90481012789401e-05 -6.1204486600527013e-06 0 -2.0603077039459067e-05 -6.6033866159579938e-06 0 -2.3715329005436429e-05 -8.7770561615401528e-06 0 -2.6455602389964946e-05 -1.1335819668430769e-05 0 -2.2219432426095093e-05 -8.9144965790520785e-06 0 -2.3715329005436429e-05 -8.7770561615401528e-06 0 -1.90481012789401e-05 -6.1204486600527013e-06 0 -2.3715329005436429e-05 -8.7770561615401528e-06 0 -2.2219432426095093e-05 -8.9144965790520785e-06 0 -2.5171807438148084e-05 -8.857687959425335e-06 0 -2.9327891183068837e-05 -1.1950380323728913e-05 0 -2.3715329005436429e-05 -8.7770561615401528e-06 0 -1.7950229301967838e-05 -6.0608438485809573e-06 0 -1.4709626322937821e-05 -4.0375593721366998e-06 0 -1.4676939008920407e-05 -3.6114675931195652e-06 0 -1.90481012789401e-05 -6.1204486600527013e-06 0 -1.7950229301967838e-05 -6.0608438485809573e-06 0 -1.4676939008920407e-05 -3.6114675931195652e-06 0 -1.90481012789401e-05 -6.1204486600527013e-06 0 -2.2219432426095093e-05 -8.9144965790520785e-06 0 -1.7950229301967838e-05 -6.0608438485809573e-06 0 -2.1017517558968134e-05 -9.5138763600037391e-06 0 -1.6390872810489601e-05 -5.640277918273998e-06 0 -1.7950229301967838e-05 -6.0608438485809573e-06 0 -2.1017517558968134e-05 -9.5138763600037391e-06 0 -1.7950229301967838e-05 -6.0608438485809573e-06 0 -2.2219432426095093e-05 -8.9144965790520785e-06 0 -2.1017517558968134e-05 -9.5138763600037391e-06 0 -2.2219432426095093e-05 -8.9144965790520785e-06 0 -2.6240864243647245e-05 -1.2704250501863495e-05 0 -2.1017517558968134e-05 -9.5138763600037391e-06 0 -2.6240864243647245e-05 -1.2704250501863495e-05 0 -2.5519571117872742e-05 -1.450173968994949e-05 0 -2.1017517558968134e-05 -9.5138763600037391e-06 0 -2.5519571117872742e-05 -1.450173968994949e-05 0 -2.1316063804138412e-05 -1.1783944697248568e-05 0 -2.6455602389964946e-05 -1.1335819668430769e-05 0 -2.3715329005436429e-05 -8.7770561615401528e-06 0 -2.9327891183068837e-05 -1.1950380323728913e-05 0 -2.6455602389964946e-05 -1.1335819668430769e-05 0 -2.9327891183068837e-05 -1.1950380323728913e-05 0 -3.1234052846413158e-05 -1.481755711408065e-05 0 -2.6455602389964946e-05 -1.1335819668430769e-05 0 -2.6240864243647245e-05 -1.2704250501863495e-05 0 -2.2219432426095093e-05 -8.9144965790520785e-06 0 -3.1339100778396105e-05 -1.7525240925897568e-05 0 -2.6240864243647245e-05 -1.2704250501863495e-05 0 -3.1234052846413158e-05 -1.481755711408065e-05 0 -2.6455602389964946e-05 -1.1335819668430769e-05 0 -3.1234052846413158e-05 -1.481755711408065e-05 0 -2.6240864243647245e-05 -1.2704250501863495e-05 0 -3.1339100778396105e-05 -1.7525240925897568e-05 0 -3.1234052846413158e-05 -1.481755711408065e-05 0 -3.7663060580791755e-05 -1.9700875859989463e-05 0 -3.1339100778396105e-05 -1.7525240925897568e-05 0 -3.8044109928014916e-05 -2.4442869487866049e-05 0 -2.9962016491772024e-05 -1.9867072900827002e-05 0 -3.1339100778396105e-05 -1.7525240925897568e-05 0 -3.7663060580791755e-05 -1.9700875859989463e-05 0 -3.8044109928014916e-05 -2.4442869487866049e-05 0 -2.4833136829312608e-05 -1.6866369092293127e-05 0 -2.1316063804138412e-05 -1.178394469724857e-05 0 -2.5519571117872742e-05 -1.450173968994949e-05 0 -3.1339100778396105e-05 -1.7525240925897568e-05 0 -2.5519571117872742e-05 -1.4501739689949488e-05 0 -2.6240864243647245e-05 -1.2704250501863495e-05 0 -3.1339100778396105e-05 -1.7525240925897568e-05 0 -2.9962016491772024e-05 -1.9867072900827002e-05 0 -2.5519571117872742e-05 -1.450173968994949e-05 0 -2.4833136829312608e-05 -1.6866369092293127e-05 0 -2.5519571117872742e-05 -1.450173968994949e-05 0 -2.9962016491772024e-05 -1.9867072900827002e-05 0 -2.4833136829312608e-05 -1.6866369092293127e-05 0 -2.9962016491772024e-05 -1.9867072900827002e-05 0 -2.9029067264187885e-05 -2.3242937038286579e-05 0 -3.4587133639996367e-05 -2.7169308895495977e-05 0 -2.9029067264187885e-05 -2.3242937038286576e-05 0 -2.9962016491772024e-05 -1.9867072900827002e-05 0 -3.4587133639996367e-05 -2.7169308895495977e-05 0 -4.0233831023974108e-05 -3.6715740487848031e-05 0 -3.4344342116303299e-05 -3.2526523250579523e-05 0 -3.4587133639996367e-05 -2.7169308895495977e-05 0 -3.4344342116303299e-05 -3.2526523250579523e-05 0 -2.9029067264187885e-05 -2.3242937038286579e-05 0 -2.8377712980758003e-05 -2.727531201639728e-05 0 -2.9029067264187885e-05 -2.3242937038286579e-05 0 -3.4344342116303299e-05 -3.2526523250579523e-05 0 -3.4587133639996367e-05 -2.7169308895495977e-05 0 -3.8044109928014916e-05 -2.4442869487866049e-05 0 -4.1500303736411699e-05 -3.1439303669551644e-05 0 -3.4587133639996367e-05 -2.7169308895495977e-05 0 -2.9962016491772024e-05 -1.9867072900827002e-05 0 -3.8044109928014916e-05 -2.4442869487866049e-05 0 -3.4587133639996367e-05 -2.7169308895495977e-05 0 -4.1500303736411699e-05 -3.1439303669551644e-05 0 -4.0233831023974108e-05 -3.6715740487848031e-05 0 -3.8044109928014916e-05 -2.4442869487866049e-05 0 -4.8008689071481622e-05 -3.2421843680180026e-05 0 -4.1500303736411699e-05 -3.1439303669551644e-05 0 -4.6892860563839011e-05 -3.7467221453542643e-05 0 -4.1500303736411699e-05 -3.1439303669551644e-05 0 -4.8008689071481622e-05 -3.2421843680180026e-05 0 -4.5615931567192028e-05 -2.6131462869485437e-05 0 -4.8008689071481622e-05 -3.2421843680180026e-05 0 -3.8044109928014916e-05 -2.4442869487866049e-05 0 -4.5615931567192028e-05 -2.6131462869485437e-05 0 -5.4807660893825362e-05 -3.2989198123759503e-05 0 -4.8008689071481622e-05 -3.2421843680180026e-05 0 -5.8268938929866255e-05 -4.265433901702279e-05 0 -4.8008689071481622e-05 -3.2421843680180026e-05 0 -5.4807660893825362e-05 -3.2989198123759503e-05 0 -6.6496959892404164e-05 -4.046507461507892e-05 0 -5.8268938929866255e-05 -4.265433901702279e-05 0 -5.4807660893825362e-05 -3.2989198123759503e-05 0 -5.9208025478669636e-05 -3.1688233117505062e-05 0 -6.6496959892404164e-05 -4.046507461507892e-05 0 -5.4807660893825362e-05 -3.2989198123759503e-05 0 -5.9208025478669636e-05 -3.1688233117505062e-05 0 -5.4807660893825362e-05 -3.2989198123759503e-05 0 -5.1087115999556085e-05 -2.7251479766022958e-05 0 -4.5615931567192028e-05 -2.6131462869485437e-05 0 -5.1087115999556085e-05 -2.7251479766022961e-05 0 -5.4807660893825362e-05 -3.2989198123759503e-05 0 -5.1704811790263596e-05 -2.4626397899686017e-05 0 -5.1087115999556085e-05 -2.7251479766022958e-05 0 -4.4059812463210918e-05 -2.1658490501907745e-05 0 -4.5615931567192028e-05 -2.6131462869485437e-05 0 -4.4059812463210918e-05 -2.1658490501907745e-05 0 -5.1087115999556085e-05 -2.7251479766022958e-05 0 -5.1704811790263596e-05 -2.4626397899686017e-05 0 -5.9208025478669636e-05 -3.1688233117505062e-05 0 -5.1087115999556085e-05 -2.7251479766022958e-05 0 -5.1704811790263596e-05 -2.4626397899686017e-05 0 -4.4059812463210912e-05 -2.1658490501907742e-05 0 -4.2296903575436528e-05 -1.8768379811763875e-05 0 -3.6056852616259992e-05 -1.5904305870997247e-05 0 -4.4059812463210918e-05 -2.1658490501907745e-05 0 -3.7663060580791755e-05 -1.9700875859989463e-05 0 -4.5615931567192028e-05 -2.6131462869485437e-05 0 -3.8044109928014916e-05 -2.4442869487866049e-05 0 -3.7663060580791755e-05 -1.9700875859989463e-05 0 -4.5615931567192028e-05 -2.6131462869485437e-05 0 -3.7663060580791755e-05 -1.9700875859989463e-05 0 -4.4059812463210918e-05 -2.1658490501907745e-05 0 -2.1183618726497656e-05 -5.1155474642117521e-06 0 -1.780232552446012e-05 -4.2586024208125715e-06 0 -2.1093752887038838e-05 -8.1070026888982531e-06 0 -1.8184114678607143e-05 -6.4820406514736864e-06 0 -2.1093752887038838e-05 -8.1070026888982531e-06 0 -1.780232552446012e-05 -4.2586024208125715e-06 0 -1.8184114678607143e-05 -6.4820406514736864e-06 0 -2.0179092745702629e-05 -1.0063534392416332e-05 0 -2.1093752887038838e-05 -8.1070026888982531e-06 0 -2.1183618726497656e-05 -5.1155474642117521e-06 0 -1.6820313472330807e-05 -1.0233980027253257e-06 0 -1.780232552446012e-05 -4.2586024208125715e-06 0 -1.4537938630162813e-05 2.7812774732125226e-06 0 -1.6820313472330807e-05 -1.0233980027253257e-06 0 -1.9595543493705113e-05 -3.1662628283139493e-07 0 -2.1183618726497656e-05 -5.1155474642117521e-06 0 -1.9595543493705113e-05 -3.1662628283139493e-07 0 -1.6820313472330807e-05 -1.0233980027253257e-06 0 -2.1183618726497656e-05 -5.1155474642117521e-06 0 -2.2902925322012544e-05 -4.3740643352519644e-06 0 -1.9595543493705113e-05 -3.1662628283139493e-07 0 -2.1183618726497656e-05 -5.1155474642117521e-06 0 -2.6153834777466782e-05 -8.0745478837111618e-06 0 -2.290292532201254e-05 -4.3740643352519636e-06 0 -2.4646499340978686e-05 -4.2392826490026261e-06 0 -1.9595543493705113e-05 -3.1662628283139493e-07 0 -2.290292532201254e-05 -4.3740643352519636e-06 0 -2.4646499340978686e-05 -4.2392826490026261e-06 0 -2.290292532201254e-05 -4.3740643352519636e-06 0 -2.6153834777466782e-05 -8.0745478837111635e-06 0 -3.0281039066453865e-05 -1.3256908737120424e-05 0 -2.6153834777466782e-05 -8.0745478837111635e-06 0 -2.5051814140945101e-05 -1.0466616188908372e-05 0 -2.1183618726497656e-05 -5.1155474642117521e-06 0 -2.5051814140945101e-05 -1.0466616188908371e-05 0 -2.6153834777466782e-05 -8.0745478837111635e-06 0 -2.1183618726497656e-05 -5.1155474642117521e-06 0 -2.1093752887038838e-05 -8.1070026888982531e-06 0 -2.5051814140945101e-05 -1.0466616188908372e-05 0 -2.2992852083189867e-05 -1.2367481198522413e-05 0 -2.5051814140945101e-05 -1.0466616188908371e-05 0 -2.1093752887038838e-05 -8.1070026888982531e-06 0 -3.0281039066453865e-05 -1.3256908737120424e-05 0 -2.5051814140945101e-05 -1.0466616188908372e-05 0 -2.7741875992967889e-05 -1.5640013909294316e-05 0 -2.4680047828314887e-05 -2.2663291787526381e-05 0 -2.7741875992967892e-05 -1.5640013909294316e-05 0 -2.3760167045177142e-05 -1.7213092300530276e-05 0 -2.2992852083189867e-05 -1.2367481198522413e-05 0 -2.3760167045177142e-05 -1.7213092300530276e-05 0 -2.7741875992967889e-05 -1.5640013909294316e-05 0 -2.2992852083189867e-05 -1.2367481198522413e-05 0 -2.1656915226524081e-05 -1.3796147225064103e-05 0 -2.3760167045177142e-05 -1.7213092300530276e-05 0 -2.2992852083189867e-05 -1.2367481198522413e-05 0 -2.7741875992967889e-05 -1.5640013909294316e-05 0 -2.5051814140945101e-05 -1.0466616188908372e-05 0 -2.4680047828314887e-05 -2.2663291787526381e-05 0 -2.4530410699961934e-05 -1.9649423786396056e-05 0 -2.8377712980758003e-05 -2.727531201639728e-05 0 -2.8377712980758003e-05 -2.727531201639728e-05 0 -2.4530410699961934e-05 -1.9649423786396056e-05 0 -2.9029067264187885e-05 -2.3242937038286579e-05 0 -2.4680047828314887e-05 -2.2663291787526381e-05 0 -2.3760167045177142e-05 -1.7213092300530276e-05 0 -2.4530410699961934e-05 -1.9649423786396056e-05 0 -2.1656915226524081e-05 -1.3796147225064103e-05 0 -2.4530410699961934e-05 -1.9649423786396056e-05 0 -2.3760167045177142e-05 -1.7213092300530276e-05 0 -2.4833136829312608e-05 -1.6866369092293127e-05 0 -2.9029067264187885e-05 -2.3242937038286579e-05 0 -2.4530410699961934e-05 -1.9649423786396056e-05 0 -2.4833136829312608e-05 -1.6866369092293127e-05 0 -2.4530410699961934e-05 -1.9649423786396056e-05 0 -2.1656915226524081e-05 -1.3796147225064103e-05 0 -2.4833136829312608e-05 -1.6866369092293127e-05 0 -2.1656915226524081e-05 -1.3796147225064103e-05 0 -2.1316063804138412e-05 -1.1783944697248568e-05 0 -1.8645214085690329e-05 -9.0190405830689704e-06 0 -2.1316063804138412e-05 -1.1783944697248568e-05 0 -2.1656915226524081e-05 -1.3796147225064103e-05 0 -2.2992852083189867e-05 -1.2367481198522413e-05 0 -2.1093752887038838e-05 -8.1070026888982531e-06 0 -2.0179092745702629e-05 -1.0063534392416332e-05 0 -2.2992852083189867e-05 -1.2367481198522413e-05 0 -2.0179092745702629e-05 -1.0063534392416332e-05 0 -2.1656915226524081e-05 -1.3796147225064103e-05 0 -1.8645214085690329e-05 -9.0190405830689704e-06 0 -2.1656915226524081e-05 -1.3796147225064103e-05 0 -2.0179092745702629e-05 -1.0063534392416332e-05 0 -2.0179092745702629e-05 -1.0063534392416332e-05 0 -1.544050773999886e-05 -4.7930810323525103e-06 0 -1.8645214085690329e-05 -9.0190405830689704e-06 0 -1.8184114678607143e-05 -6.4820406514736864e-06 0 -1.544050773999886e-05 -4.7930810323525103e-06 0 -2.0179092745702629e-05 -1.0063534392416332e-05 0 -1.8645214085690329e-05 -9.0190405830689704e-06 0 -1.544050773999886e-05 -4.7930810323525094e-06 0 -1.621042089989988e-05 -6.0832399490684094e-06 0 -1.544050773999886e-05 -4.7930810323525103e-06 0 -1.3769954159308027e-05 -3.7632345996170708e-06 0 -1.621042089989988e-05 -6.0832399490684094e-06 0 -2.1017517558968134e-05 -9.5138763600037391e-06 0 -2.1316063804138412e-05 -1.1783944697248568e-05 0 -1.8001470818362327e-05 -7.753956960517236e-06 0 -1.8645214085690329e-05 -9.0190405830689704e-06 0 -1.8001470818362327e-05 -7.753956960517236e-06 0 -2.1316063804138412e-05 -1.1783944697248568e-05 0 -1.8645214085690329e-05 -9.0190405830689704e-06 0 -1.6210420899899876e-05 -6.0832399490684094e-06 0 -1.8001470818362327e-05 -7.753956960517236e-06 0 -1.4760168848320529e-05 -4.6699770119388173e-06 0 -1.8001470818362327e-05 -7.753956960517236e-06 0 -1.621042089989988e-05 -6.0832399490684094e-06 0 -2.1017517558968134e-05 -9.5138763600037391e-06 0 -1.8001470818362327e-05 -7.7539569605172343e-06 0 -1.6390872810489601e-05 -5.640277918273998e-06 0 -1.4760168848320529e-05 -4.6699770119388173e-06 0 -1.6390872810489601e-05 -5.6402779182739988e-06 0 -1.8001470818362327e-05 -7.753956960517236e-06 0 -1.4760168848320529e-05 -4.6699770119388173e-06 0 -1.2527882387783404e-05 -2.8022450443583288e-06 0 -1.6390872810489601e-05 -5.640277918273998e-06 0 -1.4709626322937821e-05 -4.0375593721366998e-06 0 -1.6390872810489601e-05 -5.640277918273998e-06 0 -1.2527882387783404e-05 -2.8022450443583288e-06 0 -1.4709626322937821e-05 -4.0375593721366998e-06 0 -1.7950229301967838e-05 -6.0608438485809573e-06 0 -1.6390872810489601e-05 -5.640277918273998e-06 0 -1.1785876707831166e-05 -1.883830688141402e-06 0 -1.3769954159308025e-05 -3.7632345996170708e-06 0 -1.544050773999886e-05 -4.7930810323525103e-06 0 -1.4760168848320529e-05 -4.6699770119388173e-06 0 -1.621042089989988e-05 -6.0832399490684094e-06 0 -1.3769954159308027e-05 -3.7632345996170708e-06 0 -1.4760168848320529e-05 -4.6699770119388173e-06 0 -1.3769954159308027e-05 -3.7632345996170708e-06 0 -1.1899904146085061e-05 -2.4195048572119946e-06 0 -1.4760168848320529e-05 -4.6699770119388173e-06 0 -1.1899904146085061e-05 -2.4195048572119946e-06 0 -1.2527882387783404e-05 -2.8022450443583288e-06 0 -1.1785876707831166e-05 -1.883830688141402e-06 0 -1.1899904146085061e-05 -2.4195048572119946e-06 0 -1.3769954159308027e-05 -3.7632345996170708e-06 0 -1.1785876707831166e-05 -1.883830688141402e-06 0 -9.2201891021771086e-06 -7.856413170108776e-07 0 -1.1899904146085061e-05 -2.4195048572119946e-06 0 -1.1785876707831166e-05 -1.883830688141402e-06 0 -1.1233973447576904e-05 -5.3946977498551894e-07 0 -9.1682685159268931e-06 -2.830669913889183e-07 0 -1.1233973447576904e-05 -5.3946977498551905e-07 0 -8.9630013068342833e-06 7.4427573617833049e-07 0 -9.1682685159268931e-06 -2.830669913889183e-07 0 -1.1785876707831166e-05 -1.883830688141402e-06 0 -1.3480780404568835e-05 -2.428821365218467e-06 0 -1.1233973447576904e-05 -5.3946977498551905e-07 0 -1.1785876707831166e-05 -1.883830688141402e-06 0 -1.544050773999886e-05 -4.7930810323525103e-06 0 -1.3480780404568835e-05 -2.428821365218467e-06 0 -1.544050773999886e-05 -4.7930810323525103e-06 0 -1.5720052044489658e-05 -3.8485026770400426e-06 0 -1.3480780404568835e-05 -2.428821365218467e-06 0 -1.4013093848853823e-05 -1.2535114782140305e-06 0 -1.3480780404568835e-05 -2.428821365218467e-06 0 -1.5720052044489658e-05 -3.8485026770400426e-06 0 -1.4013093848853823e-05 -1.2535114782140305e-06 0 -1.1233973447576904e-05 -5.3946977498551905e-07 0 -1.3480780404568835e-05 -2.428821365218467e-06 0 -1.4013093848853823e-05 -1.2535114782140305e-06 0 -1.5720052044489658e-05 -3.8485026770400426e-06 0 -1.780232552446012e-05 -4.2586024208125715e-06 0 -1.8184114678607143e-05 -6.4820406514736864e-06 0 -1.780232552446012e-05 -4.2586024208125715e-06 0 -1.5720052044489658e-05 -3.8485026770400426e-06 0 -1.8184114678607143e-05 -6.4820406514736864e-06 0 -1.5720052044489658e-05 -3.8485026770400426e-06 0 -1.544050773999886e-05 -4.7930810323525103e-06 0 -1.4537938630162813e-05 2.7812774732125226e-06 0 -1.3309106536059511e-05 1.0904268245288089e-06 0 -1.6820313472330807e-05 -1.0233980027253257e-06 0 -1.4013093848853823e-05 -1.2535114782140305e-06 0 -1.6820313472330807e-05 -1.0233980027253257e-06 0 -1.3309106536059511e-05 1.0904268245288089e-06 0 -1.4013093848853823e-05 -1.2535114782140305e-06 0 -1.780232552446012e-05 -4.2586024208125715e-06 0 -1.6820313472330807e-05 -1.0233980027253257e-06 0 -1.4013093848853823e-05 -1.2535114782140305e-06 0 -1.1182973575835373e-05 9.4382375541171525e-07 0 -1.1233973447576904e-05 -5.3946977498551905e-07 0 -1.3309106536059511e-05 1.0904268245288089e-06 0 -1.0848173309731367e-05 3.5660671170508945e-06 0 -1.1182973575835373e-05 9.4382375541171525e-07 0 -1.4013093848853823e-05 -1.2535114782140305e-06 0 -1.3309106536059511e-05 1.0904268245288089e-06 0 -1.1182973575835373e-05 9.4382375541171525e-07 0 -8.9412924286504505e-06 2.2099457341793388e-06 0 -8.9630013068342833e-06 7.4427573617833049e-07 0 -1.1182973575835373e-05 9.4382375541171525e-07 0 -1.1233973447576904e-05 -5.3946977498551905e-07 0 -1.1182973575835373e-05 9.4382375541171525e-07 0 -8.9630013068342833e-06 7.4427573617833049e-07 0 -8.9412924286504505e-06 2.2099457341793388e-06 0 -7.4102506097116626e-06 1.5441620339015427e-06 0 -8.9630013068342833e-06 7.4427573617833049e-07 0 -7.6041837127036228e-06 6.0958554862551725e-07 0 -7.4102506097116626e-06 1.5441620339015427e-06 0 -6.0706574264700259e-06 1.0195403916493869e-06 0 -7.6041837127036228e-06 6.0958554862551725e-07 0 -6.0706574264700259e-06 1.0195403916493869e-06 0 -6.7727318968750613e-06 4.5393736121137248e-07 0 -7.6041837127036228e-06 6.0958554862551725e-07 0 -9.1682685159268931e-06 -2.830669913889183e-07 0 -8.9630013068342833e-06 7.4427573617833049e-07 0 -7.6041837127036228e-06 6.0958554862551725e-07 0 -8.9630013068342833e-06 7.4427573617833049e-07 0 -7.4102506097116626e-06 1.5441620339015427e-06 0 -1.1785876707831166e-05 -1.883830688141402e-06 0 -9.1682685159268931e-06 -2.8306699138891846e-07 0 -9.2201891021771086e-06 -7.8564131701087738e-07 0 -6.3800289022622337e-06 2.9075648287556995e-07 0 -9.2201891021771086e-06 -7.8564131701087738e-07 0 -6.7727318968750613e-06 4.5393736121137248e-07 0 -9.2201891021771086e-06 -7.8564131701087738e-07 0 -9.1682685159268931e-06 -2.830669913889184e-07 0 -6.7727318968750613e-06 4.5393736121137248e-07 0 -7.6041837127036228e-06 6.0958554862551725e-07 0 -6.7727318968750613e-06 4.5393736121137248e-07 0 -9.1682685159268931e-06 -2.830669913889183e-07 0 -4.9812434647412478e-06 8.2975026772319185e-07 0 -4.742675249634934e-06 6.7219517637580731e-07 0 -6.7727318968750613e-06 4.5393736121137248e-07 0 -6.3800289022622337e-06 2.9075648287556995e-07 0 -6.7727318968750613e-06 4.5393736121137248e-07 0 -4.742675249634934e-06 6.7219517637580731e-07 0 -6.3800289022622337e-06 2.9075648287556995e-07 0 -4.742675249634934e-06 6.7219517637580731e-07 0 -4.2078677543253476e-06 5.9605051690625925e-07 0 -4.9812434647412478e-06 8.2975026772319185e-07 0 -3.5501076834522124e-06 6.8882627141940453e-07 0 -4.742675249634934e-06 6.7219517637580731e-07 0 -3.4416784009007958e-06 7.111178306455912e-07 0 -3.5501076834522124e-06 6.8882627141940453e-07 0 -4.9812434647412478e-06 8.2975026772319185e-07 0 -3.4416784009007958e-06 7.111178306455912e-07 0 -4.9812434647412478e-06 8.2975026772319196e-07 0 -4.7411579416556359e-06 1.054974476875441e-06 0 -4.9812434647412478e-06 8.2975026772319185e-07 0 -6.0706574264700259e-06 1.0195403916493869e-06 0 -4.7411579416556359e-06 1.054974476875441e-06 0 -4.9812434647412478e-06 8.2975026772319185e-07 0 -6.7727318968750613e-06 4.5393736121137248e-07 0 -6.0706574264700259e-06 1.0195403916493869e-06 0 -1.4709626322937821e-05 -4.0375593721366998e-06 0 -1.2527882387783406e-05 -2.8022450443583292e-06 0 -1.1789219447353428e-05 -2.2392801643342285e-06 0 -9.5264999359787284e-06 -1.1154752929682066e-06 0 -1.1789219447353428e-05 -2.2392801643342285e-06 0 -1.2527882387783404e-05 -2.8022450443583288e-06 0 -9.5264999359787284e-06 -1.1154752929682066e-06 0 -8.9569108153569775e-06 -9.1479064088721338e-07 0 -1.1789219447353428e-05 -2.2392801643342285e-06 0 -9.5264999359787284e-06 -1.1154752929682066e-06 0 -1.0467897808890297e-05 -1.5802501198545916e-06 0 -7.960681687843284e-06 -3.9635481372949443e-07 0 -9.5264999359787284e-06 -1.1154752929682066e-06 0 -1.2527882387783404e-05 -2.8022450443583288e-06 0 -1.0467897808890297e-05 -1.5802501198545916e-06 0 -1.2527882387783404e-05 -2.8022450443583288e-06 0 -1.1899904146085061e-05 -2.4195048572119946e-06 0 -1.0467897808890297e-05 -1.5802501198545916e-06 0 -9.2201891021771086e-06 -7.8564131701087738e-07 0 -1.0467897808890297e-05 -1.5802501198545916e-06 0 -1.1899904146085061e-05 -2.4195048572119946e-06 0 -9.2201891021771086e-06 -7.8564131701087738e-07 0 -7.960681687843284e-06 -3.9635481372949443e-07 0 -1.0467897808890297e-05 -1.5802501198545916e-06 0 -6.3800289022622337e-06 2.9075648287556995e-07 0 -7.960681687843284e-06 -3.9635481372949443e-07 0 -9.2201891021771086e-06 -7.8564131701087738e-07 0 -6.3800289022622337e-06 2.9075648287556995e-07 0 -6.3448878930795805e-06 1.1596780104048213e-07 0 -7.960681687843284e-06 -3.9635481372949443e-07 0 -6.3800289022622337e-06 2.9075648287556995e-07 0 -4.2078677543253476e-06 5.9605051690625925e-07 0 -6.3448878930795805e-06 1.1596780104048213e-07 0 -9.5264999359787284e-06 -1.1154752929682066e-06 0 -7.9606816878432823e-06 -3.9635481372949438e-07 0 -6.3448878930795805e-06 1.1596780104048213e-07 0 -9.5264999359787284e-06 -1.1154752929682066e-06 0 -6.3448878930795805e-06 1.1596780104048214e-07 0 -8.9569108153569775e-06 -9.1479064088721338e-07 0 -6.7488086257520542e-06 -1.9787662152126709e-07 0 -8.9569108153569775e-06 -9.1479064088721338e-07 0 -6.3448878930795805e-06 1.1596780104048213e-07 0 -6.7488086257520542e-06 -1.9787662152126709e-07 0 -8.5857927152669771e-06 -8.5226229135193381e-07 0 -8.9569108153569775e-06 -9.1479064088721338e-07 0 -1.1110084479711972e-05 -1.8391163624950259e-06 0 -1.1789219447353428e-05 -2.2392801643342285e-06 0 -8.9569108153569775e-06 -9.1479064088721338e-07 0 -1.1110084479711972e-05 -1.8391163624950259e-06 0 -8.9569108153569775e-06 -9.1479064088721338e-07 0 -8.5857927152669771e-06 -8.5226229135193381e-07 0 -2.5874162636951466e-06 3.7559316809172376e-07 0 -5.5262716890446954e-06 -2.7038261702334947e-09 0 -4.5114102494782957e-06 3.5989363526054726e-07 0 -6.7488086257520542e-06 -1.9787662152126709e-07 0 -5.5262716890446954e-06 -2.7038261702335105e-09 0 -8.5857927152669771e-06 -8.5226229135193381e-07 0 -6.7488086257520542e-06 -1.9787662152126709e-07 0 -4.5114102494782957e-06 3.5989363526054726e-07 0 -5.5262716890446954e-06 -2.7038261702334947e-09 0 -6.7488086257520542e-06 -1.9787662152126709e-07 0 -6.3448878930795805e-06 1.1596780104048213e-07 0 -4.5114102494782957e-06 3.5989363526054726e-07 0 -2.5874162636951466e-06 3.7559316809172376e-07 0 -4.5114102494782957e-06 3.5989363526054726e-07 0 -2.0721767633611485e-06 4.3861648276981307e-07 0 -3.6740894470750535e-06 5.4233103680165804e-07 0 -2.0721767633611485e-06 4.3861648276981307e-07 0 -4.5114102494782957e-06 3.5989363526054726e-07 0 -3.6740894470750535e-06 5.4233103680165804e-07 0 -4.5114102494782957e-06 3.5989363526054726e-07 0 -6.3448878930795805e-06 1.1596780104048213e-07 0 -3.6740894470750535e-06 5.4233103680165804e-07 0 -6.3448878930795805e-06 1.1596780104048213e-07 0 -4.2078677543253476e-06 5.9605051690625925e-07 0 -3.6740894470750535e-06 5.4233103680165804e-07 0 -4.2078677543253476e-06 5.9605051690625925e-07 0 -1.9355154559873912e-06 5.0223398559065489e-07 0 -3.6740894470750535e-06 5.4233103680165804e-07 0 -1.9355154559873912e-06 5.0223398559065489e-07 0 -2.0721767633611485e-06 4.3861648276981307e-07 0 -2.105298211340647e-09 2.790982092873402e-10 0 -2.0721767633611485e-06 4.3861648276981307e-07 0 -1.9355154559873912e-06 5.0223398559065489e-07 0 -2.105298211340647e-09 2.790982092873402e-10 0 -2.3749207748341852e-09 2.5865081107556803e-10 0 -2.0721767633611485e-06 4.3861648276981307e-07 0 -2.3749207748341852e-09 2.5865081107556803e-10 0 -2.5874162636951466e-06 3.7559316809172376e-07 0 -2.0721767633611485e-06 4.3861648276981307e-07 0 -2.3749207748341852e-09 2.5865081107556803e-10 0 -2.7493790294093665e-09 2.5685979238441866e-10 0 -2.5874162636951466e-06 3.7559316809172376e-07 0 -2.7493790294093665e-09 2.5685979238441866e-10 0 -2.6527603131139435e-06 2.0282671621317797e-07 0 -2.5874162636951466e-06 3.7559316809172376e-07 0 -2.6176168048611857e-06 5.8827592885218203e-07 0 -3.5501076834522124e-06 6.8882627141940453e-07 0 -2.0389487621065018e-06 4.2703571755430023e-07 0 -3.4416784009007958e-06 7.111178306455912e-07 0 -2.0389487621065018e-06 4.2703571755430023e-07 0 -3.5501076834522124e-06 6.8882627141940453e-07 0 -3.5501076834522124e-06 6.8882627141940453e-07 0 -2.6176168048611857e-06 5.8827592885218203e-07 0 -4.742675249634934e-06 6.7219517637580731e-07 0 -2.6176168048611857e-06 5.8827592885218203e-07 0 -4.2078677543253476e-06 5.9605051690625925e-07 0 -4.742675249634934e-06 6.7219517637580731e-07 0 -2.6176168048611857e-06 5.8827592885218203e-07 0 -1.9355154559873912e-06 5.0223398559065489e-07 0 -4.2078677543253476e-06 5.9605051690625925e-07 0 -2.6176168048611857e-06 5.8827592885218203e-07 0 -1.2214583107842308e-06 3.4956861934687158e-07 0 -1.9355154559873912e-06 5.0223398559065489e-07 0 -1.8193451979322092e-09 2.0843570499861822e-10 0 -2.105298211340647e-09 2.790982092873402e-10 0 -1.9355154559873912e-06 5.0223398559065489e-07 0 -1.8193451979322092e-09 2.0843570499861822e-10 0 -1.9355154559873912e-06 5.0223398559065489e-07 0 -1.221458310784231e-06 3.4956861934687163e-07 0 -1.6395028612299585e-09 1.7827959742067425e-10 0 -1.8193451979322092e-09 2.0843570499861822e-10 0 -1.221458310784231e-06 3.4956861934687163e-07 0 -1.6395028612299585e-09 1.7827959742067425e-10 0 -1.221458310784231e-06 3.4956861934687163e-07 0 -1.0705300670446006e-06 2.9016925175941665e-07 0 -1.5637698524508615e-09 1.6052397642102733e-10 0 -1.0705300670446006e-06 2.9016925175941665e-07 0 -2.0389487621065018e-06 4.2703571755430023e-07 0 -2.6176168048611857e-06 5.8827592885218203e-07 0 -2.0389487621065018e-06 4.2703571755430023e-07 0 -1.0705300670446006e-06 2.9016925175941665e-07 0 -2.6176168048611857e-06 5.8827592885218203e-07 0 -1.0705300670446006e-06 2.9016925175941665e-07 0 -1.221458310784231e-06 3.4956861934687163e-07 0 -1.5637698524508615e-09 1.6052397642102733e-10 0 -1.6395028612299585e-09 1.7827959742067425e-10 0 -1.0705300670446006e-06 2.9016925175941665e-07 0 -1.5637698524508615e-09 1.6052397642102733e-10 0 -2.0389487621065018e-06 4.2703571755430023e-07 0 -1.3091730293941816e-06 1.367245180671096e-07 0 -1.5471739316498542e-09 -7.0926787311667729e-11 0 -1.5637698524509329e-09 1.605239764210348e-10 0 -1.3091730293941816e-06 1.367245180671096e-07 0 -1.5471739316498542e-09 -7.0926787311667729e-11 0 -1.3091730293941816e-06 1.367245180671096e-07 0 -1.0523377907912346e-06 -6.3643516667589099e-08 0 -2.2224970811025738e-06 1.0123886318923548e-07 0 -1.0523377907912346e-06 -6.3643516667589099e-08 0 -1.3091730293941816e-06 1.367245180671096e-07 0 -2.0389487621065018e-06 4.2703571755430023e-07 0 -2.4247241316347616e-06 3.5142930560236831e-07 0 -1.3091730293941816e-06 1.367245180671096e-07 0 -3.4416784009007958e-06 7.111178306455912e-07 0 -2.4247241316347612e-06 3.5142930560236831e-07 0 -2.0389487621065018e-06 4.2703571755430023e-07 0 -2.2224970811025738e-06 1.0123886318923548e-07 0 -1.3091730293941816e-06 1.367245180671096e-07 0 -2.4247241316347612e-06 3.5142930560236831e-07 0 -2.2224970811025738e-06 1.0123886318923548e-07 0 -2.4247241316347612e-06 3.5142930560236831e-07 0 -3.1725964113782939e-06 4.2589828944875949e-07 0 -2.4247241316347612e-06 3.5142930560236831e-07 0 -3.4416784009007958e-06 7.111178306455912e-07 0 -3.1725964113782939e-06 4.2589828944875949e-07 0 -2.2224970811025738e-06 1.0123886318923548e-07 0 -3.1725964113782939e-06 4.2589828944875949e-07 0 -3.0384215831605543e-06 -2.0974165562976384e-09 0 -2.9639571347054658e-06 -4.3125945606899231e-07 0 -1.6208682646791329e-06 -2.9713254617947271e-07 0 -3.0384215831605543e-06 -2.0974165562976384e-09 0 -2.2224970811025738e-06 1.0123886318923548e-07 0 -3.0384215831605543e-06 -2.0974165562976384e-09 0 -1.6208682646791329e-06 -2.9713254617947271e-07 0 -2.2224970811025738e-06 1.0123886318923548e-07 0 -1.6208682646791329e-06 -2.9713254617947271e-07 0 -1.0523377907912346e-06 -6.3643516667589099e-08 0 -1.5769641301322313e-09 6.8148050675428402e-14 0 -1.5471739316496617e-09 -7.0926787311656071e-11 0 -1.0523377907912346e-06 -6.3643516667589099e-08 0 -1.9566885638887593e-09 -3.3546029513515084e-10 0 -1.5769641301322313e-09 6.8148050675428402e-14 0 -1.6208682646791329e-06 -2.9713254617947271e-07 0 -1.5769641301322313e-09 6.8148050675428402e-14 0 -1.0523377907912346e-06 -6.3643516667589125e-08 0 -1.6208682646791329e-06 -2.9713254617947271e-07 0 -2.3371784638330906e-09 -4.3355619387298462e-10 0 -1.9566885638887593e-09 -3.3546029513515084e-10 0 -1.8321861296586382e-06 -6.0145547853611071e-07 0 -2.9639571347054658e-06 -4.3125945606899231e-07 0 -1.8321861296586384e-06 -6.0145547853611071e-07 0 -1.6208682646791329e-06 -2.9713254617947271e-07 0 -1.9566885638887593e-09 -3.3546029513515084e-10 0 -1.6208682646791329e-06 -2.9713254617947271e-07 0 -1.8321861296586382e-06 -6.0145547853611071e-07 0 -2.9281776589937989e-09 -6.2309764766969369e-10 0 -2.3371784638330906e-09 -4.3355619387298462e-10 0 -2.5459397395819272e-06 -9.1731143415758695e-07 0 -2.3371784638330906e-09 -4.3355619387298462e-10 0 -1.8321861296586382e-06 -6.0145547853611071e-07 0 -2.5459397395819272e-06 -9.1731143415758695e-07 0 -2.9281776589937989e-09 -6.2309764766969369e-10 0 -2.5459397395819272e-06 -9.1731143415758695e-07 0 -2.8671174418599249e-06 -9.3228839696784674e-07 0 -2.5459397395819272e-06 -9.1731143415758695e-07 0 -4.283917147568605e-06 -7.1138149425613946e-07 0 -5.3623732348638684e-06 -1.0427366761188909e-06 0 -6.1242999869585166e-06 -5.8056657291648316e-07 0 -5.3623732348638684e-06 -1.0427366761188909e-06 0 -4.283917147568605e-06 -7.1138149425613946e-07 0 -2.5459397395819272e-06 -9.1731143415758695e-07 0 -1.8321861296586382e-06 -6.0145547853611071e-07 0 -4.283917147568605e-06 -7.1138149425613946e-07 0 -6.1242999869585166e-06 -5.8056657291648316e-07 0 -8.3854993190663322e-06 -1.2758179238593611e-07 0 -5.3623732348638684e-06 -1.0427366761188909e-06 0 -2.9639571347054658e-06 -4.3125945606899231e-07 0 -4.283917147568605e-06 -7.1138149425613946e-07 0 -1.8321861296586382e-06 -6.0145547853611071e-07 0 -2.9639571347054658e-06 -4.3125945606899231e-07 0 -4.0565612977690559e-06 3.1423127087446676e-08 0 -4.283917147568605e-06 -7.1138149425613946e-07 0 -2.9639571347054658e-06 -4.3125945606899231e-07 0 -3.0384215831605543e-06 -2.097416556297595e-09 0 -4.0565612977690559e-06 3.1423127087446669e-08 0 -5.6675959933447728e-06 6.3921196969969936e-07 0 -4.283917147568605e-06 -7.1138149425613946e-07 0 -4.0565612977690559e-06 3.1423127087446669e-08 0 -4.3870954579579568e-06 8.2136268485532353e-07 0 -5.6675959933447728e-06 6.3921196969969936e-07 0 -4.0565612977690559e-06 3.1423127087446669e-08 0 -4.3870954579579568e-06 8.2136268485532353e-07 0 -5.6179187354920159e-06 1.8588696657748997e-06 0 -5.6675959933447728e-06 6.3921196969969936e-07 0 -5.6675959933447728e-06 6.3921196969969936e-07 0 -6.8002048630072609e-06 1.4579299303016638e-07 0 -4.283917147568605e-06 -7.1138149425613946e-07 0 -6.1242999869585166e-06 -5.8056657291648316e-07 0 -6.8002048630072609e-06 1.4579299303016638e-07 0 -8.3854993190663322e-06 -1.2758179238593611e-07 0 -6.1242999869585166e-06 -5.8056657291648316e-07 0 -4.283917147568605e-06 -7.1138149425613946e-07 0 -6.8002048630072609e-06 1.4579299303016638e-07 0 -5.6675959933447728e-06 6.3921196969969936e-07 0 -8.1488627493802775e-06 1.3183264465466574e-06 0 -6.8002048630072609e-06 1.4579299303016638e-07 0 -1.0643789687933718e-05 8.9400319265176948e-07 0 -8.3854993190663322e-06 -1.2758179238593611e-07 0 -6.8002048630072609e-06 1.4579299303016638e-07 0 -1.0643789687933718e-05 8.9400319265176948e-07 0 -6.8002048630072609e-06 1.4579299303016638e-07 0 -8.1488627493802775e-06 1.3183264465466574e-06 0 -1.0643789687933718e-05 8.9400319265176948e-07 0 -8.1488627493802775e-06 1.3183264465466574e-06 0 -1.020524446898124e-05 2.6747746642835453e-06 0 -7.4765981528177245e-06 2.6662074820350869e-06 0 -1.020524446898124e-05 2.6747746642835453e-06 0 -8.1488627493802775e-06 1.3183264465466574e-06 0 -7.4765981528177245e-06 2.6662074820350869e-06 0 -9.9741119176347054e-06 4.8810155945127725e-06 0 -1.020524446898124e-05 2.6747746642835453e-06 0 -1.2863310638667626e-05 4.5950508283966945e-06 0 -1.4635743940864779e-05 2.9027802817639482e-06 0 -1.020524446898124e-05 2.6747746642835453e-06 0 -1.2863310638667626e-05 4.5950508283966945e-06 0 -1.020524446898124e-05 2.6747746642835453e-06 0 -9.9741119176347054e-06 4.8810155945127717e-06 0 -7.4765981528177245e-06 2.6662074820350869e-06 0 -5.6675959933447728e-06 6.3921196969969936e-07 0 -5.6179187354920159e-06 1.8588696657748997e-06 0 -7.4765981528177245e-06 2.6662074820350869e-06 0 -8.1488627493802775e-06 1.3183264465466576e-06 0 -5.6675959933447728e-06 6.3921196969969936e-07 0 -7.4765981528177245e-06 2.6662074820350869e-06 0 -5.6179187354920159e-06 1.8588696657748997e-06 0 -6.8449932333466076e-06 3.6765460087620958e-06 0 -7.4765981528177245e-06 2.6662074820350869e-06 0 -6.8449932333466076e-06 3.6765460087620958e-06 0 -7.9229171305075414e-06 5.4559866657795669e-06 0 -5.9553791513722897e-06 2.588894044529326e-06 0 -6.8449932333466076e-06 3.6765460087620958e-06 0 -5.6179187354920159e-06 1.8588696657748997e-06 0 -7.0313834694949529e-06 4.0863447749146992e-06 0 -6.8449932333466076e-06 3.6765460087620958e-06 0 -5.9553791513722897e-06 2.588894044529326e-06 0 -5.9553791513722897e-06 2.588894044529326e-06 0 -5.6179187354920159e-06 1.8588696657748997e-06 0 -4.902546952786206e-06 1.4668839469769848e-06 0 -5.516359292174468e-06 1.6186069139366247e-06 0 -5.9553791513722897e-06 2.588894044529326e-06 0 -4.902546952786206e-06 1.4668839469769848e-06 0 -7.0313834694949529e-06 4.0863447749146992e-06 0 -5.9553791513722897e-06 2.588894044529326e-06 0 -6.9525000726796171e-06 2.7458248312432103e-06 0 -5.516359292174468e-06 1.6186069139366247e-06 0 -6.9525000726796171e-06 2.7458248312432103e-06 0 -5.9553791513722897e-06 2.588894044529326e-06 0 -5.516359292174468e-06 1.6186069139366247e-06 0 -7.4102506097116626e-06 1.5441620339015427e-06 0 -6.9525000726796171e-06 2.7458248312432103e-06 0 -5.516359292174468e-06 1.6186069139366247e-06 0 -4.7411579416556351e-06 1.0549744768754408e-06 0 -6.0706574264700259e-06 1.0195403916493869e-06 0 -5.516359292174468e-06 1.6186069139366247e-06 0 -6.0706574264700259e-06 1.0195403916493869e-06 0 -7.4102506097116626e-06 1.5441620339015427e-06 0 -5.516359292174468e-06 1.6186069139366247e-06 0 -4.902546952786206e-06 1.4668839469769848e-06 0 -4.0391062843163765e-06 9.0465179380719649e-07 0 -5.516359292174468e-06 1.6186069139366247e-06 0 -4.0391062843163765e-06 9.0465179380719649e-07 0 -4.7411579416556359e-06 1.054974476875441e-06 0 -3.4416784009007958e-06 7.111178306455912e-07 0 -4.7411579416556359e-06 1.054974476875441e-06 0 -4.0391062843163765e-06 9.0465179380719649e-07 0 -3.1725964113782939e-06 4.2589828944875949e-07 0 -3.4416784009007958e-06 7.111178306455912e-07 0 -4.0391062843163765e-06 9.0465179380719649e-07 0 -4.3870954579579568e-06 8.2136268485532353e-07 0 -3.1725964113782939e-06 4.2589828944875949e-07 0 -4.0391062843163765e-06 9.0465179380719649e-07 0 -4.3870954579579568e-06 8.2136268485532353e-07 0 -3.0384215831605543e-06 -2.0974165562976384e-09 0 -3.1725964113782939e-06 4.2589828944875949e-07 0 -4.3870954579579568e-06 8.2136268485532353e-07 0 -4.0565612977690559e-06 3.1423127087446669e-08 0 -3.0384215831605543e-06 -2.0974165562976384e-09 0 -4.902546952786206e-06 1.4668839469769848e-06 0 -5.6179187354920159e-06 1.8588696657748997e-06 0 -4.3870954579579568e-06 8.2136268485532353e-07 0 -4.3870954579579568e-06 8.2136268485532353e-07 0 -4.0391062843163756e-06 9.046517938071966e-07 0 -4.902546952786206e-06 1.4668839469769848e-06 0 -2.4968803987316025e-05 7.4007047957190241e-06 0 -1.652186039902686e-05 5.6909273019996368e-06 0 -1.4931434802422865e-05 3.4413219549951242e-06 0 -1.0098000646254992e-05 9.8855484572073964e-07 0 -1.4931434802422865e-05 3.4413219549951242e-06 0 -7.1874486640274916e-06 1.6313387232223444e-06 0 -8.5518021062726792e-06 4.0271922985312599e-06 0 -7.1874486640274916e-06 1.6313387232223444e-06 0 -1.652186039902686e-05 5.6909273019996368e-06 0 -1.652186039902686e-05 5.6909273019996368e-06 0 -7.1874486640274916e-06 1.6313387232223444e-06 0 -1.4931434802422865e-05 3.4413219549951242e-06 0 -8.5518021062726792e-06 4.0271922985312599e-06 0 -3.5993980614822407e-06 1.2116539730290791e-06 0 -7.1874486640274916e-06 1.6313387232223444e-06 0 -9.6185264807109765e-09 4.1043413161898183e-09 0 -3.5993980614822407e-06 1.2116539730290791e-06 0 -8.5518021062726792e-06 4.0271922985312599e-06 0 -9.6185264807109765e-09 4.1043413161898183e-09 0 -5.4768490487278771e-09 -6.9401199568011075e-10 0 -3.5993980614822407e-06 1.2116539730290791e-06 0 -5.4768490487278771e-09 -6.9401199568011075e-10 0 -7.1874486640274916e-06 1.6313387232223444e-06 0 -3.5993980614822407e-06 1.2116539730290791e-06 0 -5.4768490487278771e-09 -6.9401199568011075e-10 0 -4.8897384641695876e-06 5.317483484415124e-08 0 -7.1874486640274916e-06 1.6313387232223444e-06 0 -1.0098000646254992e-05 9.8855484572073964e-07 0 -7.1874486640274916e-06 1.6313387232223444e-06 0 -4.8897384641695867e-06 5.3174834844150843e-08 0 -5.4768490487278771e-09 -6.9401199568011075e-10 0 -5.8558639536450997e-09 4.4354894146228623e-10 0 -4.8897384641695867e-06 5.3174834844150843e-08 0 -5.8558639536450079e-09 4.4354894146228535e-10 0 -4.1677787062064472e-09 -9.6919344490844598e-10 0 -4.8897384641695867e-06 5.3174834844150843e-08 0 -1.0098000646254992e-05 9.8855484572073964e-07 0 -4.8897384641695867e-06 5.3174834844150843e-08 0 -6.3537904651207103e-06 -5.1489371180621283e-07 0 -1.0098000646254992e-05 9.8855484572073964e-07 0 -6.3537904651207112e-06 -5.1489371180621272e-07 0 -1.1276469599806739e-05 3.338574754128527e-07 0 -1.0098000646254992e-05 9.8855484572073964e-07 0 -1.5379783400928726e-05 1.8227153935863115e-06 0 -1.4931434802422865e-05 3.4413219549951242e-06 0 -2.0678929392338833e-05 3.9813667284142619e-06 0 -1.4931434802422865e-05 3.4413219549951242e-06 0 -1.5379783400928726e-05 1.8227153935863115e-06 0 -1.4595833906560624e-05 8.7545536149297814e-07 0 -1.5379783400928722e-05 1.8227153935863111e-06 0 -1.1276469599806739e-05 3.338574754128527e-07 0 -1.0098000646254992e-05 9.8855484572073964e-07 0 -1.1276469599806739e-05 3.338574754128527e-07 0 -1.5379783400928726e-05 1.8227153935863115e-06 0 -1.4595833906560624e-05 8.7545536149297814e-07 0 -1.1276469599806739e-05 3.338574754128527e-07 0 -9.7548844462281306e-06 -3.5210816852211669e-07 0 -6.306643909773933e-06 -9.4585400540850836e-07 0 -9.7548844462281306e-06 -3.5210816852211669e-07 0 -6.3537904651207103e-06 -5.1489371180621283e-07 0 -6.3537904651207103e-06 -5.1489371180621283e-07 0 -9.7548844462281306e-06 -3.5210816852211679e-07 0 -1.1276469599806739e-05 3.338574754128527e-07 0 -4.1677787062064472e-09 -9.6919344490844598e-10 0 -3.0832417015344053e-06 -7.1072098849510032e-07 0 -6.3537904651207103e-06 -5.1489371180621283e-07 0 -4.1677787062064472e-09 -9.6919344490844598e-10 0 -6.3537904651207112e-06 -5.1489371180621294e-07 0 -4.8897384641695867e-06 5.3174834844150843e-08 0 -4.1677787062064472e-09 -9.6919344490844598e-10 0 -3.7400133847954766e-09 -3.9346165588588255e-10 0 -3.0832417015344053e-06 -7.1072098849510032e-07 0 -6.306643909773933e-06 -9.4585400540850836e-07 0 -6.3537904651207103e-06 -5.1489371180621272e-07 0 -3.0832417015344053e-06 -7.1072098849510032e-07 0 -6.306643909773933e-06 -9.4585400540850836e-07 0 -3.0832417015344053e-06 -7.1072098849510032e-07 0 -2.8671174418599249e-06 -9.3228839696784674e-07 0 -3.7400133847954766e-09 -3.9346165588588255e-10 0 -2.8671174418599249e-06 -9.3228839696784674e-07 0 -3.0832417015344053e-06 -7.1072098849510032e-07 0 -3.7400133847954766e-09 -3.9346165588588255e-10 0 -2.9281776589937989e-09 -6.2309764766969369e-10 0 -2.8671174418599249e-06 -9.3228839696784674e-07 0 -2.5459397395819272e-06 -9.1731143415758695e-07 0 -5.3623732348638684e-06 -1.0427366761188909e-06 0 -2.8671174418599249e-06 -9.3228839696784674e-07 0 -6.306643909773933e-06 -9.4585400540850836e-07 0 -2.8671174418599249e-06 -9.3228839696784674e-07 0 -5.3623732348638684e-06 -1.0427366761188909e-06 0 -6.306643909773933e-06 -9.4585400540850836e-07 0 -1.0218894943447269e-05 -2.3229749456341225e-07 0 -9.7548844462281306e-06 -3.5210816852211669e-07 0 -6.306643909773933e-06 -9.4585400540850836e-07 0 -5.3623732348638684e-06 -1.0427366761188909e-06 0 -1.0218894943447269e-05 -2.3229749456341225e-07 0 -1.0218894943447269e-05 -2.3229749456341225e-07 0 -5.3623732348638684e-06 -1.0427366761188909e-06 0 -8.3854993190663322e-06 -1.2758179238593611e-07 0 -1.0643789687933718e-05 8.9400319265176948e-07 0 -1.0218894943447269e-05 -2.3229749456341225e-07 0 -8.3854993190663322e-06 -1.2758179238593611e-07 0 -1.0643789687933718e-05 8.9400319265176948e-07 0 -1.484264484012152e-05 1.2131770813951018e-06 0 -1.0218894943447269e-05 -2.3229749456341225e-07 0 -1.0643789687933718e-05 8.9400319265176948e-07 0 -1.020524446898124e-05 2.6747746642835453e-06 0 -1.4635743940864779e-05 2.9027802817639482e-06 0 -1.8405946432538986e-05 3.2337488861983791e-06 0 -1.4635743940864779e-05 2.9027802817639482e-06 0 -2.1072084964922966e-05 5.7440848966015976e-06 0 -1.8405946432538986e-05 3.2337488861983791e-06 0 -1.484264484012152e-05 1.2131770813951018e-06 0 -1.4635743940864779e-05 2.9027802817639482e-06 0 -1.0643789687933718e-05 8.9400319265176948e-07 0 -1.4635743940864779e-05 2.9027802817639482e-06 0 -1.484264484012152e-05 1.2131770813951018e-06 0 -1.8405946432538986e-05 3.2337488861983791e-06 0 -2.1399973467926334e-05 3.1632786990390031e-06 0 -1.484264484012152e-05 1.2131770813951018e-06 0 -1.8405946432538986e-05 3.2337488861983791e-06 0 -2.1072084964922966e-05 5.7440848966015976e-06 0 -2.484589889573108e-05 5.385520334771391e-06 0 -1.8405946432538986e-05 3.2337488861983791e-06 0 -2.484589889573108e-05 5.385520334771391e-06 0 -2.1399973467926334e-05 3.1632786990390027e-06 0 -1.4595833906560624e-05 8.7545536149297814e-07 0 -1.484264484012152e-05 1.2131770813951018e-06 0 -2.1399973467926334e-05 3.1632786990390027e-06 0 -1.4595833906560624e-05 8.7545536149297814e-07 0 -2.1399973467926334e-05 3.1632786990390027e-06 0 -1.9770159440756007e-05 2.7786913049285488e-06 0 -1.4595833906560624e-05 8.7545536149297814e-07 0 -1.0218894943447269e-05 -2.3229749456341225e-07 0 -1.484264484012152e-05 1.2131770813951018e-06 0 -1.4595833906560624e-05 8.7545536149297814e-07 0 -9.7548844462281289e-06 -3.5210816852211685e-07 0 -1.0218894943447269e-05 -2.3229749456341225e-07 0 -1.4595833906560624e-05 8.7545536149297814e-07 0 -1.9770159440756007e-05 2.7786913049285488e-06 0 -1.5379783400928726e-05 1.8227153935863115e-06 0 -2.0678929392338833e-05 3.9813667284142619e-06 0 -1.5379783400928726e-05 1.8227153935863115e-06 0 -1.9770159440756007e-05 2.7786913049285488e-06 0 -2.6812721443027931e-05 5.2695507158870658e-06 0 -2.067892939233883e-05 3.9813667284142611e-06 0 -1.9770159440756007e-05 2.7786913049285488e-06 0 -2.6812721443027931e-05 5.2695507158870658e-06 0 -1.9770159440756007e-05 2.7786913049285488e-06 0 -2.1399973467926334e-05 3.1632786990390027e-06 0 -2.6812721443027931e-05 5.2695507158870658e-06 0 -2.1399973467926334e-05 3.1632786990390027e-06 0 -3.2245770558886731e-05 7.5001269580367055e-06 0 -2.1399973467926334e-05 3.1632786990390027e-06 0 -2.484589889573108e-05 5.3855203347713902e-06 0 -3.2245770558886731e-05 7.5001269580367055e-06 0 -2.6812721443027931e-05 5.2695507158870658e-06 0 -3.2245770558886731e-05 7.5001269580367046e-06 0 -3.5640646271593401e-05 8.9242658746792229e-06 0 -2.6812721443027931e-05 5.2695507158870658e-06 0 -3.5640646271593401e-05 8.9242658746792229e-06 0 -2.8636840798603709e-05 6.8293292648666793e-06 0 -4.3468891566241229e-05 1.2500897668594731e-05 0 -3.5640646271593401e-05 8.9242658746792229e-06 0 -3.2245770558886731e-05 7.5001269580367055e-06 0 -4.4380953149824237e-05 1.3388836191172903e-05 0 -3.4208732203528367e-05 9.8451068464094494e-06 0 -3.5640646271593401e-05 8.9242658746792229e-06 0 -3.4208732203528367e-05 9.8451068464094494e-06 0 -2.8636840798603709e-05 6.8293292648666793e-06 0 -3.5640646271593401e-05 8.9242658746792229e-06 0 -3.4208732203528367e-05 9.8451068464094494e-06 0 -2.4968803987316025e-05 7.4007047957190241e-06 0 -2.8636840798603709e-05 6.8293292648666793e-06 0 -2.6812721443027931e-05 5.2695507158870658e-06 0 -2.8636840798603709e-05 6.8293292648666793e-06 0 -2.0678929392338833e-05 3.9813667284142619e-06 0 -2.4968803987316025e-05 7.4007047957190241e-06 0 -2.0678929392338833e-05 3.9813667284142619e-06 0 -2.8636840798603709e-05 6.8293292648666793e-06 0 -2.4968803987316025e-05 7.4007047957190241e-06 0 -1.4931434802422867e-05 3.4413219549951242e-06 0 -2.0678929392338833e-05 3.9813667284142619e-06 0 -6.7713078170907525e-05 2.6554714452898895e-05 0 -5.3673818362282372e-05 1.8937974733861735e-05 0 -6.3265255951529866e-05 2.5892823271845267e-05 0 -8.117152590779523e-05 3.7208361829186676e-05 0 -6.7713078170907525e-05 2.6554714452898895e-05 0 -6.3265255951529866e-05 2.5892823271845267e-05 0 -5.1970889841897682e-05 2.1786291184031935e-05 0 -6.3265255951529866e-05 2.5892823271845267e-05 0 -5.3673818362282372e-05 1.8937974733861735e-05 0 -5.1970889841897682e-05 2.1786291184031935e-05 0 -6.5405056723333917e-05 3.1972839693427141e-05 0 -6.3265255951529866e-05 2.5892823271845267e-05 0 -6.7713078170907525e-05 2.6554714452898895e-05 0 -5.5452323892146743e-05 1.8728076218332838e-05 0 -5.3673818362282372e-05 1.8937974733861735e-05 0 -5.5452323892146743e-05 1.8728076218332838e-05 0 -4.4380953149824237e-05 1.3388836191172903e-05 0 -4.3468891566241229e-05 1.2500897668594731e-05 0 -4.4380953149824237e-05 1.3388836191172903e-05 0 -3.5640646271593401e-05 8.9242658746792229e-06 0 -4.3468891566241229e-05 1.2500897668594731e-05 0 -5.5452323892146743e-05 1.8728076218332838e-05 0 -4.3468891566241229e-05 1.2500897668594731e-05 0 -5.3673818362282372e-05 1.8937974733861735e-05 0 -4.3468891566241229e-05 1.2500897668594731e-05 0 -4.0226857849954427e-05 1.3191522249023838e-05 0 -5.3673818362282372e-05 1.8937974733861735e-05 0 -3.1645643143609461e-05 8.6249018145233658e-06 0 -4.0226857849954427e-05 1.3191522249023838e-05 0 -3.2245770558886731e-05 7.5001269580367055e-06 0 -4.3468891566241229e-05 1.2500897668594731e-05 0 -3.2245770558886731e-05 7.5001269580367055e-06 0 -4.0226857849954427e-05 1.3191522249023838e-05 0 -3.1645643143609461e-05 8.6249018145233658e-06 0 -3.2245770558886731e-05 7.5001269580367055e-06 0 -2.484589889573108e-05 5.385520334771391e-06 0 -5.1970889841897682e-05 2.1786291184031935e-05 0 -4.0226857849954427e-05 1.3191522249023838e-05 0 -4.3023064633537696e-05 1.9730726896940957e-05 0 -5.1970889841897682e-05 2.1786291184031935e-05 0 -5.3673818362282372e-05 1.8937974733861735e-05 0 -4.0226857849954427e-05 1.3191522249023838e-05 0 -5.1970889841897682e-05 2.1786291184031935e-05 0 -4.3023064633537696e-05 1.9730726896940954e-05 0 -5.2724445924378618e-05 2.8918813170118765e-05 0 -4.3023064633537696e-05 1.9730726896940957e-05 0 -3.2414979619423264e-05 1.3985245048287103e-05 0 -3.7766008864916502e-05 2.4224272648132709e-05 0 -3.2414979619423264e-05 1.3985245048287103e-05 0 -2.7185351803607511e-05 1.5761023085770112e-05 0 -3.7766008864916502e-05 2.4224272648132709e-05 0 -3.2414979619423264e-05 1.3985245048287103e-05 0 -2.4098436597491703e-05 9.7861572639157172e-06 0 -2.7185351803607511e-05 1.5761023085770112e-05 0 -3.2414979619423264e-05 1.3985245048287103e-05 0 -4.3023064633537696e-05 1.9730726896940957e-05 0 -4.0226857849954427e-05 1.3191522249023838e-05 0 -3.2414979619423264e-05 1.3985245048287103e-05 0 -4.0226857849954427e-05 1.3191522249023838e-05 0 -2.8678112610800983e-05 9.2532132230744855e-06 0 -3.1645643143609461e-05 8.6249018145233658e-06 0 -2.8678112610800983e-05 9.2532132230744855e-06 0 -4.0226857849954427e-05 1.3191522249023838e-05 0 -3.1645643143609461e-05 8.6249018145233658e-06 0 -2.484589889573108e-05 5.385520334771391e-06 0 -2.8678112610800983e-05 9.2532132230744855e-06 0 -2.1072084964922966e-05 5.7440848966015976e-06 0 -2.8678112610800983e-05 9.2532132230744855e-06 0 -2.484589889573108e-05 5.385520334771391e-06 0 -2.1072084964922966e-05 5.7440848966015976e-06 0 -2.4098436597491699e-05 9.7861572639157172e-06 0 -2.8678112610800983e-05 9.2532132230744855e-06 0 -3.2414979619423264e-05 1.3985245048287103e-05 0 -2.8678112610800983e-05 9.2532132230744855e-06 0 -2.4098436597491703e-05 9.7861572639157172e-06 0 -2.1072084964922966e-05 5.7440848966015976e-06 0 -1.7384168519839713e-05 6.4690159184648303e-06 0 -2.4098436597491703e-05 9.7861572639157172e-06 0 -1.9679706429790525e-05 1.1371985059008895e-05 0 -2.4098436597491703e-05 9.7861572639157172e-06 0 -1.7384168519839716e-05 6.4690159184648303e-06 0 -2.1072084964922966e-05 5.7440848966015976e-06 0 -1.4635743940864779e-05 2.9027802817639482e-06 0 -1.7384168519839716e-05 6.4690159184648303e-06 0 -1.2863310638667626e-05 4.5950508283966945e-06 0 -1.3922677946354296e-05 7.6366243100497185e-06 0 -1.7384168519839716e-05 6.4690159184648303e-06 0 -1.2863310638667626e-05 4.5950508283966945e-06 0 -1.7384168519839716e-05 6.4690159184648303e-06 0 -1.4635743940864779e-05 2.9027802817639482e-06 0 -1.9679706429790525e-05 1.1371985059008895e-05 0 -1.7384168519839716e-05 6.4690159184648294e-06 0 -1.3922677946354296e-05 7.6366243100497185e-06 0 -1.9679706429790525e-05 1.1371985059008895e-05 0 -1.3922677946354296e-05 7.6366243100497185e-06 0 -1.4476618228089341e-05 1.2966826715417041e-05 0 -1.9679706429790525e-05 1.1371985059008895e-05 0 -2.7185351803607511e-05 1.5761023085770112e-05 0 -2.4098436597491703e-05 9.7861572639157172e-06 0 -1.9679706429790525e-05 1.1371985059008895e-05 0 -2.2804464579377464e-05 1.8945264930243558e-05 0 -2.7185351803607511e-05 1.5761023085770112e-05 0 -1.9679706429790525e-05 1.1371985059008895e-05 0 -1.4476618228089341e-05 1.2966826715417041e-05 0 -2.2804464579377464e-05 1.8945264930243558e-05 0 -1.416084895883413e-05 1.9249874417026662e-05 0 -2.1072453863450892e-05 2.5589349447177807e-05 0 -2.2804464579377464e-05 1.8945264930243558e-05 0 -1.416084895883413e-05 1.9249874417026662e-05 0 -2.2804464579377464e-05 1.8945264930243558e-05 0 -1.4476618228089341e-05 1.2966826715417041e-05 0 -3.7766008864916502e-05 2.4224272648132709e-05 0 -2.2804464579377461e-05 1.8945264930243558e-05 0 -3.0680726520725129e-05 2.8856222470629839e-05 0 -3.7766008864916502e-05 2.4224272648132709e-05 0 -2.7185351803607511e-05 1.5761023085770112e-05 0 -2.2804464579377464e-05 1.8945264930243558e-05 0 -2.2804464579377464e-05 1.8945264930243558e-05 0 -2.1072453863450892e-05 2.5589349447177807e-05 0 -3.0680726520725129e-05 2.8856222470629839e-05 0 -2.8227932846463022e-05 3.837894089512704e-05 0 -2.1072453863450892e-05 2.5589349447177807e-05 0 -1.4289208075381447e-05 2.8452224008522233e-05 0 -2.8227932846463022e-05 3.837894089512704e-05 0 -1.4289208075381447e-05 2.8452224008522233e-05 0 -2.1529451799253618e-05 5.0716163808483596e-05 0 -2.8227932846463022e-05 3.837894089512704e-05 0 -2.1529451799253618e-05 5.0716163808483596e-05 0 -3.2810368004594814e-05 5.5986267614266734e-05 0 -2.8227932846463022e-05 3.837894089512704e-05 0 -3.2810368004594814e-05 5.5986267614266734e-05 0 -4.5380494897395026e-05 5.997454465037539e-05 0 -2.8227932846463022e-05 3.837894089512704e-05 0 -4.5185402127927767e-05 4.1579035299468965e-05 0 -3.0680726520725129e-05 2.8856222470629839e-05 0 -2.8227932846463022e-05 3.837894089512704e-05 0 -3.0680726520725129e-05 2.8856222470629839e-05 0 -2.1072453863450892e-05 2.5589349447177807e-05 0 -2.8227932846463022e-05 3.837894089512704e-05 0 -4.5380494897395026e-05 5.997454465037539e-05 0 -4.5185402127927767e-05 4.1579035299468965e-05 0 -6.272204962640936e-05 6.2768150888769435e-05 0 -4.5185402127927767e-05 4.1579035299468965e-05 0 -4.5380494897395026e-05 5.997454465037539e-05 0 -6.272204962640936e-05 6.2768150888769435e-05 0 -5.4643236398703054e-05 3.9311647460878711e-05 0 -4.5185402127927767e-05 4.1579035299468965e-05 0 -3.7766008864916502e-05 2.4224272648132709e-05 0 -4.518540212792776e-05 4.1579035299468958e-05 0 -5.4643236398703061e-05 3.9311647460878711e-05 0 -3.7766008864916502e-05 2.4224272648132709e-05 0 -5.4643236398703061e-05 3.9311647460878711e-05 0 -5.2724445924378618e-05 2.8918813170118765e-05 0 -3.7766008864916502e-05 2.4224272648132709e-05 0 -3.0680726520725129e-05 2.8856222470629839e-05 0 -4.5185402127927767e-05 4.1579035299468965e-05 0 -3.7766008864916502e-05 2.4224272648132709e-05 0 -5.2724445924378618e-05 2.8918813170118765e-05 0 -4.3023064633537696e-05 1.9730726896940957e-05 0 -5.1970889841897682e-05 2.1786291184031935e-05 0 -5.2724445924378618e-05 2.8918813170118765e-05 0 -6.5405056723333917e-05 3.1972839693427141e-05 0 -6.6316353380683961e-05 4.1430963792854662e-05 0 -6.5405056723333917e-05 3.1972839693427141e-05 0 -5.2724445924378618e-05 2.8918813170118765e-05 0 -6.6316353380683961e-05 4.1430963792854662e-05 0 -5.2724445924378618e-05 2.8918813170118765e-05 0 -5.4643236398703061e-05 3.9311647460878711e-05 0 -6.6316353380683961e-05 4.1430963792854662e-05 0 -5.4643236398703061e-05 3.9311647460878711e-05 0 -7.1031145835939765e-05 5.4411588593022796e-05 0 -6.272204962640936e-05 6.2768150888769435e-05 0 -7.1031145835939765e-05 5.4411588593022796e-05 0 -5.4643236398703061e-05 3.9311647460878711e-05 0 -8.8654715666677879e-05 7.6480136853075651e-05 0 -8.4553774233177016e-05 5.6240539352419596e-05 0 -7.1031145835939765e-05 5.4411588593022796e-05 0 -6.272204962640936e-05 6.2768150888769435e-05 0 -8.8654715666677879e-05 7.6480136853075651e-05 0 -7.1031145835939765e-05 5.4411588593022796e-05 0 -6.6316353380683961e-05 4.1430963792854662e-05 0 -7.1031145835939765e-05 5.4411588593022796e-05 0 -8.4553774233177016e-05 5.6240539352419596e-05 0 -6.6316353380683961e-05 4.1430963792854662e-05 0 -8.4553774233177016e-05 5.6240539352419596e-05 0 -7.8568446701172346e-05 4.2994173478115637e-05 0 -0.00010871987085325378 7.1646611906180753e-05 0 -8.4553774233177016e-05 5.6240539352419596e-05 0 -8.8654715666677879e-05 7.6480136853075651e-05 0 -0.00010871987085325378 7.1646611906180753e-05 0 -9.5224471161041086e-05 5.2271419783521279e-05 0 -8.4553774233177016e-05 5.6240539352419596e-05 0 -9.5224471161041086e-05 5.2271419783521279e-05 0 -7.8568446701172346e-05 4.2994173478115637e-05 0 -8.4553774233177016e-05 5.6240539352419596e-05 0 -9.5224471161041086e-05 5.2271419783521279e-05 0 -8.117152590779523e-05 3.7208361829186676e-05 0 -7.8568446701172346e-05 4.2994173478115637e-05 0 -8.117152590779523e-05 3.7208361829186676e-05 0 -6.5405056723333904e-05 3.1972839693427141e-05 0 -7.8568446701172346e-05 4.2994173478115637e-05 0 -6.6316353380683961e-05 4.1430963792854662e-05 0 -7.8568446701172346e-05 4.2994173478115637e-05 0 -6.5405056723333917e-05 3.1972839693427141e-05 0 -8.117152590779523e-05 3.7208361829186676e-05 0 -6.3265255951529866e-05 2.5892823271845267e-05 0 -6.5405056723333917e-05 3.1972839693427141e-05 0 -9.4970967397500022e-06 5.9787291066923439e-06 0 -9.9262772874397385e-06 8.3281764625143875e-06 0 -8.250717274950134e-06 6.7746023219651938e-06 0 -9.0871556601363982e-06 1.0372369509031886e-05 0 -8.250717274950134e-06 6.7746023219651938e-06 0 -9.9262772874397385e-06 8.3281764625143875e-06 0 -9.0871556601363982e-06 1.0372369509031886e-05 0 -9.9262772874397385e-06 8.3281764625143875e-06 0 -1.0635426755426706e-05 1.1829996630620069e-05 0 -9.4970967397500022e-06 5.9787291066923439e-06 0 -1.2003540223635997e-05 6.2370796831701927e-06 0 -9.9262772874397385e-06 8.3281764625143875e-06 0 -1.4537938630162813e-05 2.7812774732125226e-06 0 -1.2003540223635997e-05 6.2370796831701927e-06 0 -1.0848173309731367e-05 3.5660671170508945e-06 0 -9.4970967397500022e-06 5.9787291066923439e-06 0 -1.0848173309731367e-05 3.5660671170508945e-06 0 -1.2003540223635997e-05 6.2370796831701927e-06 0 -1.4537938630162813e-05 2.7812774732125226e-06 0 -1.0848173309731367e-05 3.5660671170508945e-06 0 -1.3309106536059511e-05 1.0904268245288089e-06 0 -9.4970967397500022e-06 5.9787291066923439e-06 0 -8.0852513511290393e-06 4.3369478137761418e-06 0 -1.0848173309731367e-05 3.5660671170508945e-06 0 -8.9412924286504505e-06 2.2099457341793388e-06 0 -1.0848173309731367e-05 3.5660671170508949e-06 0 -8.0852513511290393e-06 4.3369478137761418e-06 0 -1.1182973575835373e-05 9.4382375541171525e-07 0 -1.0848173309731367e-05 3.5660671170508945e-06 0 -8.9412924286504505e-06 2.2099457341793388e-06 0 -8.9412924286504505e-06 2.2099457341793388e-06 0 -6.9525000726796171e-06 2.7458248312432103e-06 0 -7.4102506097116626e-06 1.5441620339015427e-06 0 -8.9412924286504505e-06 2.2099457341793388e-06 0 -8.0852513511290393e-06 4.3369478137761418e-06 0 -6.9525000726796171e-06 2.7458248312432103e-06 0 -7.0313834694949529e-06 4.0863447749146992e-06 0 -6.9525000726796171e-06 2.7458248312432103e-06 0 -8.0852513511290393e-06 4.3369478137761418e-06 0 -9.4970967397500022e-06 5.9787291066923439e-06 0 -8.250717274950134e-06 6.7746023219651938e-06 0 -8.0852513511290393e-06 4.3369478137761418e-06 0 -7.0313834694949529e-06 4.0863447749146992e-06 0 -8.0852513511290393e-06 4.3369478137761418e-06 0 -8.250717274950134e-06 6.7746023219651938e-06 0 -7.0313834694949529e-06 4.0863447749146992e-06 0 -8.250717274950134e-06 6.7746023219651938e-06 0 -7.9229171305075414e-06 5.4559866657795669e-06 0 -7.0313834694949529e-06 4.0863447749146992e-06 0 -7.9229171305075397e-06 5.4559866657795661e-06 0 -6.8449932333466076e-06 3.6765460087620958e-06 0 -7.4765981528177245e-06 2.6662074820350869e-06 0 -7.9229171305075414e-06 5.4559866657795669e-06 0 -9.9741119176347054e-06 4.8810155945127717e-06 0 -1.0632681979264593e-05 8.3974667802329619e-06 0 -7.9229171305075397e-06 5.4559866657795669e-06 0 -8.8507863791890864e-06 8.4339564840075032e-06 0 -1.0632681979264593e-05 8.3974667802329619e-06 0 -9.9741119176347071e-06 4.8810155945127717e-06 0 -7.9229171305075414e-06 5.4559866657795669e-06 0 -7.9229171305075414e-06 5.4559866657795669e-06 0 -8.250717274950134e-06 6.7746023219651938e-06 0 -8.8507863791890864e-06 8.4339564840075032e-06 0 -1.2863310638667626e-05 4.5950508283966945e-06 0 -9.9741119176347054e-06 4.8810155945127717e-06 0 -1.3922677946354296e-05 7.6366243100497185e-06 0 -1.0632681979264593e-05 8.3974667802329619e-06 0 -1.3922677946354296e-05 7.6366243100497185e-06 0 -9.9741119176347054e-06 4.8810155945127717e-06 0 -1.0632681979264593e-05 8.3974667802329619e-06 0 -1.4476618228089341e-05 1.2966826715417041e-05 0 -1.3922677946354296e-05 7.6366243100497185e-06 0 -1.0632681979264593e-05 8.3974667802329619e-06 0 -1.0155880769840427e-05 1.2897581008467593e-05 0 -1.4476618228089341e-05 1.2966826715417041e-05 0 -1.416084895883413e-05 1.9249874417026662e-05 0 -1.4476618228089341e-05 1.2966826715417041e-05 0 -1.0155880769840427e-05 1.2897581008467593e-05 0 -9.0871556601363982e-06 1.0372369509031886e-05 0 -8.8507863791890864e-06 8.4339564840075032e-06 0 -8.250717274950134e-06 6.7746023219651938e-06 0 -1.0632681979264593e-05 8.3974667802329619e-06 0 -8.8507863791890864e-06 8.4339564840075032e-06 0 -1.0155880769840427e-05 1.2897581008467593e-05 0 -9.0871556601363982e-06 1.0372369509031886e-05 0 -1.0155880769840427e-05 1.2897581008467593e-05 0 -8.8507863791890864e-06 8.4339564840075032e-06 0 -9.0871556601363982e-06 1.0372369509031886e-05 0 -9.4668973354769864e-06 1.4608218795920512e-05 0 -1.0155880769840427e-05 1.2897581008467593e-05 0 -9.0871556601363982e-06 1.0372369509031886e-05 0 -1.0635426755426706e-05 1.1829996630620069e-05 0 -9.4668973354769881e-06 1.4608218795920512e-05 0 -1.0155880769840427e-05 1.2897581008467593e-05 0 -9.4668973354769881e-06 1.4608218795920512e-05 0 -8.9243879620037937e-06 2.063049277067438e-05 0 -1.0723456841921891e-05 1.6254466596455023e-05 0 -8.9243879620037937e-06 2.063049277067438e-05 0 -9.4668973354769881e-06 1.4608218795920512e-05 0 -1.0723456841921891e-05 1.6254466596455023e-05 0 -1.0635426755426706e-05 1.1829996630620069e-05 0 -1.3506365433910648e-05 1.1493401450513967e-05 0 -1.0723456841921891e-05 1.6254466596455023e-05 0 -9.4668973354769864e-06 1.460821879592051e-05 0 -1.0635426755426706e-05 1.1829996630620069e-05 0 -1.416084895883413e-05 1.9249874417026662e-05 0 -1.0155880769840427e-05 1.2897581008467593e-05 0 -8.9243879620037937e-06 2.063049277067438e-05 0 -1.416084895883413e-05 1.9249874417026662e-05 0 -8.9243879620037937e-06 2.063049277067438e-05 0 -1.4289208075381447e-05 2.8452224008522233e-05 0 -1.416084895883413e-05 1.9249874417026662e-05 0 -1.4289208075381447e-05 2.8452224008522233e-05 0 -2.1072453863450892e-05 2.5589349447177807e-05 0 -3.4988701172426139e-06 3.108282831126885e-05 0 -1.4289208075381447e-05 2.845222400852223e-05 0 -8.9243879620037937e-06 2.063049277067438e-05 0 -3.4988701172426139e-06 3.108282831126885e-05 0 -2.1529451799253618e-05 5.0716163808483596e-05 0 -1.4289208075381447e-05 2.8452224008522233e-05 0 -3.4988701172426139e-06 3.108282831126885e-05 0 -8.9243879620037937e-06 2.063049277067438e-05 0 -1.1288614737682755e-05 2.0814966054531182e-05 0 -1.0723456841921891e-05 1.6254466596455023e-05 0 -1.5594627966365184e-05 1.2339110312119394e-05 0 -1.1288614737682755e-05 2.0814966054531182e-05 0 -1.0723456841921891e-05 1.6254466596455023e-05 0 -1.3506365433910648e-05 1.1493401450513967e-05 0 -1.5594627966365184e-05 1.2339110312119394e-05 0 -1.0723456841921891e-05 1.6254466596455023e-05 0 -1.1288614737682755e-05 2.0814966054531182e-05 0 -8.9243879620037937e-06 2.063049277067438e-05 0 -1.7891276223775263e-05 9.076950468445508e-06 0 -1.1288614737682755e-05 2.0814966054531182e-05 0 -1.5594627966365184e-05 1.2339110312119394e-05 0 -1.7891276223775263e-05 9.076950468445508e-06 0 -1.5594627966365184e-05 1.2339110312119394e-05 0 -2.1559668840260772e-05 2.6806253907335634e-06 0 -1.8485846992463498e-05 6.4086511072546248e-06 0 -2.1559668840260772e-05 2.6806253907335634e-06 0 -1.5594627966365184e-05 1.2339110312119394e-05 0 -1.8485846992463498e-05 6.4086511072546248e-06 0 -1.5594627966365184e-05 1.2339110312119394e-05 0 -1.3506365433910648e-05 1.1493401450513967e-05 0 -1.3186171080021135e-05 8.9471495539501151e-06 0 -1.3506365433910648e-05 1.1493401450513967e-05 0 -1.0635426755426706e-05 1.1829996630620069e-05 0 -1.3506365433910648e-05 1.1493401450513967e-05 0 -1.3186171080021135e-05 8.9471495539501151e-06 0 -1.8485846992463498e-05 6.4086511072546248e-06 0 -1.3186171080021135e-05 8.9471495539501151e-06 0 -1.6649564065602839e-05 4.5842748464528847e-06 0 -1.8485846992463498e-05 6.4086511072546248e-06 0 -1.3186171080021135e-05 8.9471495539501151e-06 0 -1.2003540223635997e-05 6.2370796831701927e-06 0 -1.6649564065602839e-05 4.5842748464528847e-06 0 -1.3186171080021135e-05 8.9471495539501151e-06 0 -9.9262772874397385e-06 8.3281764625143875e-06 0 -1.2003540223635997e-05 6.2370796831701927e-06 0 -1.3186171080021135e-05 8.9471495539501151e-06 0 -1.0635426755426706e-05 1.1829996630620069e-05 0 -9.9262772874397385e-06 8.3281764625143875e-06 0 -1.4537938630162813e-05 2.7812774732125226e-06 0 -1.6649564065602839e-05 4.5842748464528847e-06 0 -1.2003540223635997e-05 6.2370796831701927e-06 0 -1.4537938630162813e-05 2.7812774732125226e-06 0 -1.9595543493705113e-05 -3.1662628283139493e-07 0 -1.6649564065602839e-05 4.5842748464528847e-06 0 -1.8485846992463498e-05 6.4086511072546248e-06 0 -2.1989294441423482e-05 2.4812311577014776e-07 0 -2.5230907722706219e-05 -4.0567796920013954e-06 0 -2.4646499340978686e-05 -4.2392826490026261e-06 0 -2.1989294441423482e-05 2.4812311577014776e-07 0 -1.9595543493705113e-05 -3.1662628283139493e-07 0 -1.9595543493705113e-05 -3.1662628283139493e-07 0 -2.1989294441423482e-05 2.4812311577014776e-07 0 -1.6649564065602839e-05 4.5842748464528847e-06 0 -1.8485846992463498e-05 6.4086511072546248e-06 0 -1.6649564065602839e-05 4.5842748464528847e-06 0 -2.1989294441423482e-05 2.4812311577014776e-07 0 -2.4646499340978686e-05 -4.2392826490026261e-06 0 -2.7160659067624153e-05 -7.1455077230745505e-06 0 -2.1989294441423482e-05 2.4812311577014776e-07 0 -2.5230907722706219e-05 -4.0567796920013954e-06 0 -2.1989294441423482e-05 2.4812311577014776e-07 0 -2.7160659067624153e-05 -7.1455077230745505e-06 0 -2.5230907722706219e-05 -4.0567796920013954e-06 0 -2.7160659067624153e-05 -7.1455077230745505e-06 0 -2.7980274184365014e-05 -1.0749596983617644e-05 0 -2.5818090075705849e-05 -9.0411451329801412e-06 0 -2.5230907722706219e-05 -4.0567796920013962e-06 0 -2.7980274184365014e-05 -1.0749596983617644e-05 0 -3.0110388252259405e-05 -1.2581049628156236e-05 0 -2.7980274184365014e-05 -1.0749596983617644e-05 0 -2.7160659067624153e-05 -7.1455077230745505e-06 0 -3.0110388252259405e-05 -1.2581049628156236e-05 0 -3.0047121448451704e-05 -1.7425065653408606e-05 0 -2.7980274184365014e-05 -1.0749596983617644e-05 0 -2.5818090075705849e-05 -9.0411451329801412e-06 0 -2.7980274184365014e-05 -1.0749596983617642e-05 0 -3.0047121448451704e-05 -1.7425065653408606e-05 0 -3.0110388252259405e-05 -1.2581049628156236e-05 0 -3.2668721998593283e-05 -1.7838804456004914e-05 0 -3.0047121448451704e-05 -1.7425065653408606e-05 0 -2.260160097490015e-05 -1.8937445897998346e-05 0 -2.1944066231757568e-05 -1.2583568645778998e-05 0 -2.6096022333505297e-05 -1.8265266253147844e-05 0 -2.5818090075705849e-05 -9.0411451329801412e-06 0 -2.6096022333505297e-05 -1.8265266253147844e-05 0 -2.1944066231757568e-05 -1.2583568645778998e-05 0 -2.5818090075705849e-05 -9.0411451329801412e-06 0 -3.0047121448451704e-05 -1.7425065653408606e-05 0 -2.6096022333505297e-05 -1.8265266253147844e-05 0 -2.5818090075705849e-05 -9.0411451329801412e-06 0 -2.1944066231757568e-05 -1.2583568645779e-05 0 -2.1153582131670649e-05 -1.3165247637590215e-06 0 -1.8485846992463498e-05 6.4086511072546248e-06 0 -2.5230907722706219e-05 -4.0567796920013945e-06 0 -2.1559668840260772e-05 2.6806253907335634e-06 0 -2.5818090075705849e-05 -9.0411451329801412e-06 0 -2.1153582131670646e-05 -1.3165247637590196e-06 0 -2.1559668840260772e-05 2.6806253907335634e-06 0 -2.5818090075705849e-05 -9.0411451329801412e-06 0 -2.1559668840260772e-05 2.6806253907335634e-06 0 -2.5230907722706219e-05 -4.0567796920013954e-06 0 -1.7891276223775263e-05 9.076950468445508e-06 0 -2.1559668840260772e-05 2.6806253907335634e-06 0 -2.1153582131670649e-05 -1.3165247637590215e-06 0 -1.7891276223775263e-05 9.076950468445508e-06 0 -1.5528558519987639e-05 9.8946841073428031e-06 0 -1.1288614737682755e-05 2.0814966054531182e-05 0 -1.7891276223775263e-05 9.076950468445508e-06 0 -2.1153582131670649e-05 -1.3165247637590215e-06 0 -1.5528558519987639e-05 9.8946841073428031e-06 0 -3.4988701172426139e-06 3.108282831126885e-05 0 -1.1288614737682753e-05 2.0814966054531185e-05 0 -1.5528558519987639e-05 9.8946841073428031e-06 0 -5.558952439436092e-06 1.1786178528458549e-06 0 -1.5528558519987639e-05 9.8946841073428031e-06 0 -1.5787711290446813e-05 -6.9000197143793278e-06 0 -1.5787711290446813e-05 -6.9000197143793278e-06 0 -1.5528558519987639e-05 9.8946841073428031e-06 0 -2.1153582131670649e-05 -1.3165247637590215e-06 0 -2.1529451799253618e-05 5.0716163808483596e-05 0 -3.4988701172426139e-06 3.108282831126885e-05 0 -1.6512850551673808e-05 8.1138049194517717e-05 0 -3.4988701172426139e-06 3.108282831126885e-05 0 -1.5528558519987639e-05 9.8946841073428031e-06 0 -5.558952439436092e-06 1.1786178528458549e-06 0 -1.8448465715855324e-06 2.771800291434526e-05 0 2.3623224586853849e-06 4.2403360679844783e-05 0 -3.4988701172426139e-06 3.108282831126885e-05 0 8.3226876708564591e-06 7.8110762826921038e-05 0 -1.6512850551673808e-05 8.1138049194517717e-05 0 1.1408499293309342e-05 0.00011156197266285271 0 -2.2172708732424416e-05 0.00011004978268106292 0 -1.6512850551673808e-05 8.1138049194517717e-05 0 2.3623224586853849e-06 4.2403360679844783e-05 0 8.7367136811355641e-07 4.9769421645460982e-05 0 -5.558952439436092e-06 1.1786178528458549e-06 0 -1.5787711290446813e-05 -6.9000197143793278e-06 0 -1.0279743489675922e-05 -9.6483396401887505e-06 0 8.3226876708564591e-06 7.8110762826921038e-05 0 1.1408499293309342e-05 0.00011156197266285271 0 -1.6512850551673808e-05 8.1138049194517717e-05 0 8.7367136811355641e-07 4.9769421645460982e-05 0 -9.0316710260365802e-07 6.3452413228496697e-05 0 -1.0279743489675922e-05 -9.6483396401887505e-06 0 -1.7203694156927334e-05 -1.5423928979506006e-05 0 -1.4557912785928796e-05 -1.6011913111557272e-05 0 1.1408499293309342e-05 0.00011156197266285271 0 -7.2634640092774772e-06 0.00013292454720708569 0 -2.2172708732424416e-05 0.00011004978268106292 0 -1.5787711290446813e-05 -6.9000197143793278e-06 0 -2.1153582131670649e-05 -1.3165247637590215e-06 0 -2.1944066231757568e-05 -1.2583568645778998e-05 0 -1.0279743489675922e-05 -9.6483396401887505e-06 0 -1.5787711290446813e-05 -6.9000197143793269e-06 0 -1.7203694156927334e-05 -1.5423928979506006e-05 0 -1.5787711290446813e-05 -6.9000197143793278e-06 0 -2.1944066231757568e-05 -1.2583568645778998e-05 0 -1.7203694156927334e-05 -1.5423928979506006e-05 0 -2.260160097490015e-05 -1.8937445897998346e-05 0 -1.7203694156927334e-05 -1.5423928979506006e-05 0 -2.1944066231757568e-05 -1.2583568645778998e-05 0 -2.260160097490015e-05 -1.8937445897998346e-05 0 -2.0942715097191182e-05 -2.1924257645130967e-05 0 -1.7203694156927334e-05 -1.5423928979506006e-05 0 -1.4557912785928796e-05 -1.6011913111557272e-05 0 -1.7203694156927334e-05 -1.5423928979506006e-05 0 -2.0942715097191182e-05 -2.1924257645130967e-05 0 -1.4557912785928796e-05 -1.6011913111557272e-05 0 -2.0942715097191182e-05 -2.1924257645130967e-05 0 -1.8012708781908978e-05 -2.0653911545419438e-05 0 -2.260160097490015e-05 -1.8937445897998346e-05 0 -2.5599711051150607e-05 -2.3695768172968194e-05 0 -2.0942715097191182e-05 -2.1924257645130967e-05 0 -2.8055317264369756e-05 0.00014351983032985437 0 -7.2634640092774772e-06 0.00013292454720708569 0 -5.8926037943971993e-06 0.00015283907240880884 0 1.25100725015083e-05 0.00014195694321464058 0 -5.8926037943971993e-06 0.00015283907240880884 0 -7.2634640092774772e-06 0.00013292454720708569 0 1.1408499293309342e-05 0.00011156197266285271 0 1.25100725015083e-05 0.00014195694321464058 0 -7.2634640092774772e-06 0.00013292454720708569 0 -9.0316710260365802e-07 6.3452413228496697e-05 0 -3.0637192683970082e-06 7.5677148594336421e-05 0 1.25100725015083e-05 0.00014195694321464058 0 1.2092696199957327e-05 0.0001724309235455588 0 -5.8926037943971993e-06 0.00015283907240880884 0 1.2092696199957326e-05 0.0001724309235455588 0 -1.7987064612221148e-05 0.00017099009079020677 0 -5.8926037943971993e-06 0.00015283907240880884 0 1.2092696199957326e-05 0.0001724309235455588 0 -1.1419340933232772e-05 0.00019120176714725894 0 -1.7987064612221148e-05 0.00017099009079020677 0 1.2092696199957326e-05 0.0001724309235455588 0 1.0792958669489114e-05 0.00020283772435475614 0 -1.1419340933232772e-05 0.00019120176714725894 0 -1.8012708781908978e-05 -2.0653911545419438e-05 0 -2.2647761303039125e-05 -2.5887948457277213e-05 0 -2.1276214830527975e-05 -2.4748295344344644e-05 0 -3.0637192683970082e-06 7.5677148594336421e-05 0 -5.5405592433585952e-06 8.9038673833783608e-05 0 1.0792958669489114e-05 0.00020283772435475614 0 -1.9771862284511705e-05 0.00021291461186851381 0 -1.1419340933232772e-05 0.00019120176714725894 0 -2.5587886897971782e-05 -2.7224667516598429e-05 0 -2.2647761303039125e-05 -2.5887948457277213e-05 0 -2.0942715097191182e-05 -2.1924257645130967e-05 0 -2.5587886897971782e-05 -2.7224667516598429e-05 0 -2.0942715097191182e-05 -2.1924257645130967e-05 0 -2.5599711051150607e-05 -2.3695768172968194e-05 0 -1.8012708781908978e-05 -2.0653911545419438e-05 0 -2.0942715097191186e-05 -2.1924257645130971e-05 0 -2.2647761303039125e-05 -2.5887948457277213e-05 0 -2.5587886897971782e-05 -2.7224667516598429e-05 0 -2.7685853949253693e-05 -3.1075173119295039e-05 0 -2.2647761303039125e-05 -2.5887948457277213e-05 0 -2.5747771423207712e-05 -3.0667415942193397e-05 0 -2.2647761303039125e-05 -2.5887948457277213e-05 0 -2.7685853949253693e-05 -3.1075173119295039e-05 0 -2.5587886897971782e-05 -2.7224667516598429e-05 0 -3.0185299812592684e-05 -2.9221921257501289e-05 0 -2.7685853949253693e-05 -3.1075173119295039e-05 0 -3.1291078506984837e-05 -3.4472442918155817e-05 0 -2.7685853949253693e-05 -3.1075173119295039e-05 0 -3.0185299812592684e-05 -2.9221921257501289e-05 0 -2.5587886897971782e-05 -2.7224667516598429e-05 0 -2.5599711051150607e-05 -2.3695768172968194e-05 0 -3.0185299812592684e-05 -2.9221921257501289e-05 0 -2.9165519359678171e-05 -2.4078800240859481e-05 0 -3.221986264843667e-05 -2.4656708876602728e-05 0 -3.0185299812592684e-05 -2.9221921257501289e-05 0 -2.9165519359678171e-05 -2.4078800240859481e-05 0 -3.0185299812592684e-05 -2.9221921257501289e-05 0 -2.5599711051150607e-05 -2.3695768172968194e-05 0 -3.4214357044069272e-05 -2.9189927211416127e-05 0 -3.4626852930030068e-05 -3.5066798628477443e-05 0 -3.0185299812592684e-05 -2.9221921257501289e-05 0 -3.4214357044069272e-05 -2.9189927211416127e-05 0 -3.7018642025128601e-05 -3.1757418418495612e-05 0 -3.4626852930030068e-05 -3.5066798628477443e-05 0 -3.4214357044069272e-05 -2.9189927211416127e-05 0 -3.221986264843667e-05 -2.4656708876602728e-05 0 -3.5869829611930136e-05 -2.6914153448278549e-05 0 -3.4214357044069272e-05 -2.9189927211416127e-05 0 -3.0185299812592684e-05 -2.9221921257501289e-05 0 -3.221986264843667e-05 -2.4656708876602728e-05 0 -2.9165519359678171e-05 -2.4078800240859481e-05 0 -3.0047121448451704e-05 -1.7425065653408606e-05 0 -3.221986264843667e-05 -2.4656708876602728e-05 0 -3.3540491568458831e-05 -2.2208271157928706e-05 0 -3.5869829611930136e-05 -2.6914153448278549e-05 0 -3.221986264843667e-05 -2.4656708876602728e-05 0 -3.3540491568458831e-05 -2.2208271157928706e-05 0 -3.221986264843667e-05 -2.4656708876602728e-05 0 -3.0047121448451704e-05 -1.7425065653408606e-05 0 -3.3540491568458831e-05 -2.2208271157928706e-05 0 -3.0047121448451704e-05 -1.7425065653408606e-05 0 -3.2668721998593283e-05 -1.7838804456004914e-05 0 -2.9165519359678171e-05 -2.4078800240859481e-05 0 -2.6096022333505297e-05 -1.8265266253147844e-05 0 -3.0047121448451704e-05 -1.7425065653408606e-05 0 -2.260160097490015e-05 -1.8937445897998346e-05 0 -2.6096022333505297e-05 -1.8265266253147844e-05 0 -2.5599711051150607e-05 -2.3695768172968194e-05 0 -2.9165519359678171e-05 -2.4078800240859481e-05 0 -2.5599711051150607e-05 -2.3695768172968194e-05 0 -2.6096022333505297e-05 -1.8265266253147844e-05 0 -0.00013154760713576124 0.00012218589030175912 0 -0.00010773442129999789 0.0001052060751475752 0 -0.00010960813939747098 0.00013155073274053421 0 -0.00013982561397881275 0.00015139923271740552 0 -0.00013154760713576124 0.00012218589030175912 0 -0.00010960813939747098 0.00013155073274053421 0 -8.948738171686205e-05 0.00010464888418777021 0 -0.00010960813939747098 0.00013155073274053421 0 -0.00010773442129999789 0.0001052060751475752 0 -0.00013154760713576124 0.00012218589030175912 0 -0.00012064139386259552 9.5009198898915741e-05 0 -0.00010773442129999789 0.0001052060751475752 0 -0.00012064139386259552 9.5009198898915741e-05 0 -0.00010871987085325378 7.1646611906180753e-05 0 -8.8654715666677879e-05 7.6480136853075651e-05 0 -8.948738171686205e-05 0.00010464888418777021 0 -0.00010773442129999789 0.0001052060751475752 0 -8.8654715666677879e-05 7.6480136853075651e-05 0 -0.00012064139386259552 9.5009198898915741e-05 0 -8.8654715666677879e-05 7.6480136853075651e-05 0 -0.00010773442129999789 0.0001052060751475752 0 -8.948738171686205e-05 0.00010464888418777021 0 -8.8654715666677879e-05 7.6480136853075651e-05 0 -7.3839958394430246e-05 8.7190455670340934e-05 0 -6.272204962640936e-05 6.2768150888769435e-05 0 -7.3839958394430246e-05 8.7190455670340934e-05 0 -8.8654715666677879e-05 7.6480136853075651e-05 0 -5.8710122927785496e-05 9.0195138630027745e-05 0 -7.4690201315977172e-05 0.00010635725773031002 0 -7.3839958394430246e-05 8.7190455670340934e-05 0 -8.948738171686205e-05 0.00010464888418777021 0 -7.3839958394430246e-05 8.7190455670340934e-05 0 -7.4690201315977172e-05 0.00010635725773031002 0 -8.948738171686205e-05 0.00010464888418777021 0 -7.4690201315977172e-05 0.00010635725773031002 0 -8.5936472714781542e-05 0.00012841317453468525 0 -8.948738171686205e-05 0.00010464888418777021 0 -8.5936472714781542e-05 0.00012841317453468525 0 -0.00010960813939747098 0.00013155073274053421 0 -6.5183829590618724e-05 0.00012360524481566592 0 -8.5936472714781542e-05 0.00012841317453468525 0 -7.4690201315977172e-05 0.00010635725773031002 0 -6.5183829590618724e-05 0.00012360524481566592 0 -4.4251117126248018e-05 0.00011548069304519931 0 -5.3494258061950769e-05 0.00014601276926495097 0 -6.5183829590618724e-05 0.00012360524481566592 0 -5.8710122927785496e-05 9.0195138630027745e-05 0 -4.4251117126248018e-05 0.00011548069304519931 0 -3.6570125675612648e-05 7.9962509150283937e-05 0 -4.4251117126248025e-05 0.00011548069304519933 0 -5.8710122927785496e-05 9.0195138630027745e-05 0 -6.5183829590618724e-05 0.00012360524481566592 0 -7.4690201315977172e-05 0.00010635725773031002 0 -5.8710122927785496e-05 9.0195138630027745e-05 0 -6.272204962640936e-05 6.2768150888769435e-05 0 -5.8710122927785496e-05 9.0195138630027745e-05 0 -7.3839958394430246e-05 8.7190455670340934e-05 0 -6.272204962640936e-05 6.2768150888769435e-05 0 -4.5380494897395026e-05 5.997454465037539e-05 0 -5.8710122927785496e-05 9.0195138630027745e-05 0 -3.6570125675612648e-05 7.9962509150283937e-05 0 -5.8710122927785496e-05 9.0195138630027745e-05 0 -4.5380494897395026e-05 5.997454465037539e-05 0 -3.6570125675612648e-05 7.9962509150283937e-05 0 -4.5380494897395026e-05 5.9974544650375397e-05 0 -3.2810368004594814e-05 5.5986267614266734e-05 0 -3.6570125675612648e-05 7.9962509150283937e-05 0 -3.2810368004594814e-05 5.5986267614266734e-05 0 -2.1529451799253618e-05 5.0716163808483596e-05 0 -3.6570125675612648e-05 7.9962509150283937e-05 0 -2.1529451799253618e-05 5.0716163808483596e-05 0 -1.6512850551673808e-05 8.1138049194517717e-05 0 -3.6570125675612648e-05 7.9962509150283937e-05 0 -1.6512850551673808e-05 8.1138049194517717e-05 0 -2.2172708732424416e-05 0.00011004978268106292 0 -3.6570125675612648e-05 7.9962509150283937e-05 0 -2.2172708732424416e-05 0.00011004978268106292 0 -4.4251117126248018e-05 0.00011548069304519931 0 -2.8055317264369756e-05 0.00014351983032985437 0 -4.4251117126248018e-05 0.00011548069304519931 0 -2.2172708732424416e-05 0.00011004978268106292 0 -2.8055317264369756e-05 0.00014351983032985437 0 -2.2172708732424416e-05 0.00011004978268106292 0 -7.2634640092774772e-06 0.00013292454720708569 0 -2.8055317264369756e-05 0.00014351983032985437 0 -5.3494258061950776e-05 0.00014601276926495094 0 -4.4251117126248018e-05 0.00011548069304519931 0 -2.8055317264369756e-05 0.00014351983032985437 0 -4.091821784537297e-05 0.00016488851621149865 0 -5.3494258061950769e-05 0.00014601276926495097 0 -2.8055317264369756e-05 0.00014351983032985437 0 -1.7987064612221148e-05 0.00017099009079020677 0 -4.091821784537297e-05 0.00016488851621149865 0 -2.8055317264369756e-05 0.00014351983032985437 0 -5.8926037943971993e-06 0.00015283907240880884 0 -1.7987064612221148e-05 0.00017099009079020677 0 -1.7987064612221148e-05 0.00017099009079020677 0 -1.1419340933232772e-05 0.00019120176714725894 0 -4.0333298147593529e-05 0.00019361275313839138 0 -1.1419340933232772e-05 0.00019120176714725894 0 -1.9771862284511705e-05 0.00021291461186851381 0 -4.0333298147593529e-05 0.00019361275313839138 0 -4.0333298147593529e-05 0.00019361275313839138 0 -4.091821784537297e-05 0.00016488851621149865 0 -1.7987064612221148e-05 0.00017099009079020677 0 -4.0333298147593529e-05 0.00019361275313839138 0 -6.3479994977109865e-05 0.00016999875981522206 0 -4.091821784537297e-05 0.00016488851621149865 0 -4.0333298147593529e-05 0.00019361275313839138 0 -6.9898233654739193e-05 0.00019711564929339554 0 -6.3479994977109865e-05 0.00016999875981522206 0 -4.0333298147593529e-05 0.00019361275313839138 0 -6.5948671621928373e-05 0.00022276109578927322 0 -6.9898233654739193e-05 0.00019711564929339554 0 -8.9535435459568472e-05 0.00019538365946089272 0 -6.3479994977109851e-05 0.00016999875981522206 0 -6.9898233654739193e-05 0.00019711564929339554 0 -8.9535435459568472e-05 0.00019538365946089272 0 -7.9104185649543461e-05 0.00015609716212300857 0 -6.3479994977109865e-05 0.00016999875981522206 0 -6.3479994977109865e-05 0.00016999875981522206 0 -7.9104185649543461e-05 0.00015609716212300857 0 -5.3494258061950769e-05 0.00014601276926495097 0 -6.3479994977109865e-05 0.00016999875981522206 0 -5.3494258061950769e-05 0.00014601276926495097 0 -4.091821784537297e-05 0.00016488851621149865 0 -6.5183829590618724e-05 0.00012360524481566592 0 -5.3494258061950769e-05 0.00014601276926495097 0 -7.9104185649543461e-05 0.00015609716212300857 0 -6.5183829590618724e-05 0.00012360524481566592 0 -7.9104185649543461e-05 0.00015609716212300857 0 -8.5936472714781542e-05 0.00012841317453468525 0 -9.8771444997611303e-05 0.00015155717501642683 0 -8.5936472714781542e-05 0.00012841317453468525 0 -7.9104185649543461e-05 0.00015609716212300857 0 -9.8771444997611303e-05 0.00015155717501642683 0 -0.00010960813939747098 0.00013155073274053421 0 -8.5936472714781542e-05 0.00012841317453468525 0 -9.8771444997611303e-05 0.00015155717501642683 0 -0.00010117435566613824 0.00017345786461435731 0 -0.00012039044913823908 0.00016839414832185292 0 -9.8771444997611303e-05 0.00015155717501642683 0 -7.9104185649543461e-05 0.00015609716212300857 0 -0.00010117435566613824 0.00017345786461435731 0 -8.9535435459568472e-05 0.00019538365946089272 0 -0.00010117435566613824 0.00017345786461435731 0 -7.9104185649543461e-05 0.00015609716212300857 0 -8.9535435459568472e-05 0.00019538365946089272 0 -6.9898233654739193e-05 0.00019711564929339554 0 -8.9071637797352192e-05 0.00022330629422516354 0 -8.9535435459568472e-05 0.00019538365946089272 0 -0.00010703317636652778 0.00021643963824945529 0 -0.00011904634659570965 0.00019651236743574741 0 -8.9535435459568472e-05 0.00019538365946089272 0 -0.00011904634659570965 0.00019651236743574741 0 -0.00010117435566613824 0.00017345786461435731 0 -0.00011904634659570965 0.00019651236743574741 0 -0.00012039044913823908 0.00016839414832185292 0 -0.00010117435566613824 0.00017345786461435731 0 -0.00015014221307941427 0.00021334746345573859 0 -0.00014603968898311049 0.00018225917560070598 0 -0.00011904634659570965 0.00019651236743574741 0 -0.00015014221307941427 0.00021334746345573859 0 -0.00011904634659570965 0.00019651236743574741 0 -0.00012738966577050272 0.00022558734520263597 0 -0.00014603968898311049 0.00018225917560070598 0 -0.00012039044913823908 0.00016839414832185292 0 -0.00011904634659570965 0.00019651236743574741 0 -0.00014603968898311049 0.00018225917560070598 0 -0.00013982561397881275 0.00015139923271740552 0 -0.00012039044913823908 0.00016839414832185292 0 -9.8771444997611303e-05 0.00015155717501642683 0 -0.00012039044913823908 0.00016839414832185292 0 -0.00010960813939747098 0.00013155073274053421 0 -0.00013982561397881275 0.00015139923271740552 0 -0.00010960813939747098 0.00013155073274053421 0 -0.00012039044913823908 0.00016839414832185292 0 -0.00015359492583073129 0.00027434000795927151 0 -0.000117234643317522 0.00027502901139235254 0 -0.00012812381531739151 0.0003028064597666698 0 -0.00015359492583073129 0.00027434000795927151 0 -0.00013163253948274818 0.00025287708860885868 0 -0.000117234643317522 0.00027502901139235254 0 -0.00011056272986434945 0.00024139285435017968 0 -0.000117234643317522 0.00027502901139235254 0 -0.00013163253948274818 0.00025287708860885868 0 -0.00015359492583073129 0.00027434000795927151 0 -0.00015259254931489693 0.00024417836377956225 0 -0.00013163253948274818 0.00025287708860885868 0 -0.00015259254931489693 0.00024417836377956225 0 -0.00012738966577050272 0.00022558734520263597 0 -0.00013163253948274818 0.00025287708860885868 0 -0.00015259254931489693 0.00024417836377956225 0 -0.00015014221307941427 0.00021334746345573859 0 -0.00012738966577050272 0.00022558734520263597 0 -0.00011904634659570965 0.00019651236743574741 0 -0.00010703317636652778 0.00021643963824945529 0 -0.00012738966577050272 0.00022558734520263597 0 -0.00011056272986434945 0.00024139285435017968 0 -0.00013163253948274818 0.00025287708860885868 0 -0.00012738966577050272 0.00022558734520263597 0 -0.00011056272986434945 0.00024139285435017968 0 -0.00010703317636652778 0.00021643963824945526 0 -8.9071637797352192e-05 0.00022330629422516354 0 -0.00011056272986434945 0.00024139285435017968 0 -0.00012738966577050272 0.00022558734520263597 0 -0.00010703317636652778 0.00021643963824945529 0 -8.9535435459568472e-05 0.00019538365946089272 0 -8.9071637797352192e-05 0.00022330629422516354 0 -0.00010703317636652778 0.00021643963824945529 0 -0.00011056272986434945 0.00024139285435017968 0 -8.9071637797352192e-05 0.00022330629422516354 0 -9.0630152767570192e-05 0.00025015599278487162 0 -0.000117234643317522 0.00027502901139235254 0 -9.0630152767570192e-05 0.00025015599278487162 0 -9.032199176155361e-05 0.00027733386752126137 0 -0.00011056272986434945 0.00024139285435017968 0 -9.0630152767570192e-05 0.00025015599278487162 0 -0.000117234643317522 0.00027502901139235254 0 -0.00010129138594784523 0.00030571863432035505 0 -0.000117234643317522 0.00027502901139235254 0 -9.032199176155361e-05 0.00027733386752126137 0 -7.1270999486666229e-05 0.00025932370194255752 0 -7.1321366587583427e-05 0.00029186638073039941 0 -9.032199176155361e-05 0.00027733386752126137 0 -7.1270999486666229e-05 0.00025932370194255752 0 -5.0820874346257794e-05 0.00027075488806655357 0 -7.1321366587583427e-05 0.00029186638073039941 0 -7.1270999486666229e-05 0.00025932370194255752 0 -5.3132106690790058e-05 0.00024191568267313359 0 -5.0820874346257794e-05 0.00027075488806655357 0 -7.1270999486666229e-05 0.00025932370194255752 0 -9.032199176155361e-05 0.00027733386752126137 0 -9.0630152767570192e-05 0.00025015599278487162 0 -6.5948671621928373e-05 0.00022276109578927322 0 -9.0630152767570192e-05 0.00025015599278487162 0 -8.9071637797352192e-05 0.00022330629422516354 0 -7.1270999486666229e-05 0.00025932370194255752 0 -9.0630152767570192e-05 0.00025015599278487162 0 -6.5948671621928373e-05 0.00022276109578927322 0 -6.5948671621928373e-05 0.00022276109578927322 0 -8.9071637797352192e-05 0.00022330629422516354 0 -6.9898233654739193e-05 0.00019711564929339554 0 -6.5948671621928373e-05 0.00022276109578927322 0 -4.2460708795744418e-05 0.00022281902666077105 0 -5.3132106690790052e-05 0.00024191568267313359 0 -7.1270999486666229e-05 0.00025932370194255752 0 -6.5948671621928373e-05 0.00022276109578927322 0 -5.3132106690790052e-05 0.00024191568267313359 0 -3.2163737585049451e-05 0.00024129728462914427 0 -5.3132106690790052e-05 0.00024191568267313359 0 -4.2460708795744425e-05 0.00022281902666077105 0 -4.0333298147593529e-05 0.00019361275313839138 0 -1.9771862284511705e-05 0.00021291461186851381 0 -4.2460708795744425e-05 0.00022281902666077105 0 -4.0333298147593529e-05 0.00019361275313839138 0 -4.2460708795744425e-05 0.00022281902666077105 0 -6.5948671621928373e-05 0.00022276109578927322 0 -3.2163737585049451e-05 0.00024129728462914427 0 -4.2460708795744425e-05 0.00022281902666077105 0 -1.9771862284511705e-05 0.00021291461186851381 0 -3.2163737585049451e-05 0.00024129728462914427 0 -1.9771862284511705e-05 0.00021291461186851381 0 -9.0703179598454996e-06 0.00022822108878518127 0 -3.2163737585049451e-05 0.00024129728462914427 0 -2.6765961656929037e-05 0.00027296878449789173 0 -5.0820874346257794e-05 0.00027075488806655357 0 -3.2163737585049451e-05 0.00024129728462914427 0 -1.2147044467247102e-05 0.00024871668780084412 0 -2.6765961656929037e-05 0.00027296878449789173 0 -3.2163737585049451e-05 0.00024129728462914427 0 -5.0820874346257794e-05 0.00027075488806655357 0 -5.3132106690790052e-05 0.00024191568267313359 0 -4.6324327192287118e-05 0.0003036786444692168 0 -5.0820874346257794e-05 0.00027075488806655357 0 -2.6765961656929037e-05 0.00027296878449789173 0 -4.6324327192287118e-05 0.0003036786444692168 0 -2.6765961656929037e-05 0.00027296878449789173 0 -2.1122297799992296e-05 0.00029834823814408923 0 -4.6324327192287118e-05 0.0003036786444692168 0 -2.8195064875094839e-05 0.00032404098643546461 0 -5.1473004404899331e-05 0.00033211668392220834 0 -4.6324327192287118e-05 0.0003036786444692168 0 -2.1122297799992293e-05 0.00029834823814408923 0 -2.8195064875094836e-05 0.00032404098643546461 0 -2.8195064875094836e-05 0.00032404098643546461 0 -3.7964570795125674e-05 0.00034126736624414398 0 -5.1473004404899331e-05 0.00033211668392220834 0 -2.8195064875094836e-05 0.00032404098643546461 0 -1.8284502254115034e-05 0.00033626962120723289 0 -3.7964570795125674e-05 0.00034126736624414398 0 -2.7007604966135652e-05 0.00035168283552186401 0 -3.7964570795125674e-05 0.00034126736624414398 0 -1.8284502254115034e-05 0.00033626962120723289 0 -2.7007604966135652e-05 0.00035168283552186401 0 -5.006128804977096e-05 0.00035525901690194232 0 -3.7964570795125674e-05 0.00034126736624414398 0 -5.006128804977096e-05 0.00035525901690194232 0 -5.1473004404899331e-05 0.00033211668392220834 0 -3.7964570795125674e-05 0.00034126736624414398 0 -7.4114963524843207e-05 0.00035713612055985618 0 -9.7299634958427001e-05 0.00033343223595186432 0 -7.3793616404040362e-05 0.00032390711634459516 0 -7.4114963524843207e-05 0.00035713612055985618 0 -7.3793616404040362e-05 0.00032390711634459516 0 -5.1473004404899331e-05 0.00033211668392220834 0 -5.006128804977096e-05 0.00035525901690194232 0 -7.4114963524843207e-05 0.00035713612055985618 0 -5.1473004404899331e-05 0.00033211668392220834 0 -0.00010129138594784523 0.00030571863432035505 0 -7.1321366587583427e-05 0.00029186638073039941 0 -7.3793616404040362e-05 0.00032390711634459516 0 -4.6324327192287118e-05 0.0003036786444692168 0 -5.1473004404899331e-05 0.00033211668392220834 0 -7.3793616404040362e-05 0.00032390711634459516 0 -4.6324327192287118e-05 0.0003036786444692168 0 -7.3793616404040362e-05 0.00032390711634459516 0 -7.1321366587583427e-05 0.00029186638073039941 0 -4.6324327192287118e-05 0.0003036786444692168 0 -7.1321366587583427e-05 0.00029186638073039941 0 -5.0820874346257794e-05 0.00027075488806655357 0 -0.00010129138594784523 0.00030571863432035505 0 -9.032199176155361e-05 0.00027733386752126137 0 -7.1321366587583427e-05 0.00029186638073039941 0 -0.00010129138594784523 0.00030571863432035505 0 -0.00012812381531739151 0.0003028064597666698 0 -0.000117234643317522 0.00027502901139235254 0 -0.00010129138594784523 0.00030571863432035505 0 -9.7299634958426988e-05 0.00033343223595186432 0 -0.00012295916515539304 0.0003280095966611217 0 -0.00010129138594784523 0.00030571863432035505 0 -0.00012295916515539304 0.0003280095966611217 0 -0.00012812381531739151 0.0003028064597666698 0 -0.00010129138594784523 0.00030571863432035505 0 -7.3793616404040362e-05 0.00032390711634459511 0 -9.7299634958426988e-05 0.00033343223595186432 0 -7.4114963524843207e-05 0.00035713612055985618 0 -9.9726841913497482e-05 0.00035786515874528706 0 -9.7299634958426988e-05 0.00033343223595186432 0 -9.9726841913497482e-05 0.00035786515874528706 0 -0.0001263884003077338 0.00035849593896839584 0 -0.0001128561771741115 0.00034450767156937821 0 -9.9726841913497482e-05 0.00035786515874528706 0 -0.0001128561771741115 0.00034450767156937821 0 -9.7299634958426988e-05 0.00033343223595186432 0 -0.00012295916515539304 0.0003280095966611217 0 -9.7299634958426988e-05 0.00033343223595186432 0 -0.0001128561771741115 0.00034450767156937821 0 -0.00012295916515539304 0.0003280095966611217 0 -0.0001128561771741115 0.00034450767156937821 0 -0.00013542408474350259 0.0003432011301365979 0 -0.0001263884003077338 0.00035849593896839584 0 -0.00013542408474350259 0.0003432011301365979 0 -0.0001128561771741115 0.00034450767156937821 0 -0.00015367688632527465 0.00035865180851594851 0 -0.00013542408474350259 0.0003432011301365979 0 -0.0001263884003077338 0.00035849593896839584 0 -0.00015367688632527465 0.00035865180851594851 0 -0.00015380704553501342 0.00033136597809490549 0 -0.00013542408474350259 0.0003432011301365979 0 -0.00015380704553501342 0.00033136597809490549 0 -0.00012295916515539304 0.0003280095966611217 0 -0.00013542408474350259 0.0003432011301365979 0 -0.00015380704553501342 0.00033136597809490549 0 -0.00015390191238869039 0.00030329855243776678 0 -0.00012812381531739151 0.0003028064597666698 0 -0.00015380704553501342 0.00033136597809490549 0 -0.00012812381531739151 0.0003028064597666698 0 -0.00012295916515539304 0.0003280095966611217 0 -0.00015390191238869039 0.00030329855243776678 0 -0.00015359492583073129 0.00027434000795927151 0 -0.00012812381531739151 0.0003028064597666698 0 -3.5702775313651846e-05 -4.3682604054715792e-05 0 -3.2944638332360408e-05 -3.8749104344814857e-05 0 -3.5916812330144685e-05 -4.0238522255980083e-05 0 -3.136554380264275e-05 -3.8891009457581302e-05 0 -3.2944638332360408e-05 -3.8749104344814857e-05 0 -3.3722172315974051e-05 -4.2866896169850418e-05 0 -3.136554380264275e-05 -3.8891009457581302e-05 0 -2.9870390351935421e-05 -3.5597325251789238e-05 0 -3.2944638332360408e-05 -3.8749104344814857e-05 0 -3.5702775313651846e-05 -4.3682604054715792e-05 0 -3.3722172315974051e-05 -4.2866896169850418e-05 0 -3.2944638332360408e-05 -3.8749104344814857e-05 0 -3.5702775313651846e-05 -4.3682604054715792e-05 0 -3.5916812330144685e-05 -4.0238522255980083e-05 0 -3.8385895287839123e-05 -4.3471669767151277e-05 0 -3.5916812330144685e-05 -4.0238522255980083e-05 0 -3.7832549964127353e-05 -3.8898132517240792e-05 0 -3.8385895287839123e-05 -4.3471669767151277e-05 0 -4.0148187313183521e-05 -4.1383295644643925e-05 0 -3.8385895287839123e-05 -4.3471669767151277e-05 0 -3.7832549964127353e-05 -3.8898132517240792e-05 0 -3.5916812330144685e-05 -4.0238522255980083e-05 0 -3.4626852930030068e-05 -3.5066798628477443e-05 0 -3.7832549964127353e-05 -3.8898132517240792e-05 0 -3.7682562327224901e-05 -3.5604449841600832e-05 0 -3.7832549964127353e-05 -3.8898132517240792e-05 0 -3.4626852930030068e-05 -3.5066798628477443e-05 0 -3.7682562327224901e-05 -3.5604449841600832e-05 0 -3.4626852930030068e-05 -3.5066798628477443e-05 0 -3.7018642025128601e-05 -3.1757418418495612e-05 0 -3.1291078506984837e-05 -3.4472442918155817e-05 0 -3.0185299812592684e-05 -2.9221921257501289e-05 0 -3.4626852930030068e-05 -3.5066798628477443e-05 0 -3.2944638332360408e-05 -3.8749104344814857e-05 0 -3.1291078506984837e-05 -3.4472442918155817e-05 0 -3.4626852930030068e-05 -3.5066798628477443e-05 0 -3.5916812330144685e-05 -4.0238522255980083e-05 0 -3.2944638332360408e-05 -3.8749104344814857e-05 0 -3.4626852930030068e-05 -3.5066798628477443e-05 0 -3.1291078506984837e-05 -3.4472442918155817e-05 0 -3.2944638332360408e-05 -3.8749104344814857e-05 0 -2.9870390351935421e-05 -3.5597325251789238e-05 0 -3.1291078506984837e-05 -3.4472442918155817e-05 0 -2.9870390351935421e-05 -3.5597325251789238e-05 0 -2.7685853949253693e-05 -3.1075173119295039e-05 0 -2.5747771423207712e-05 -3.0667415942193397e-05 0 -2.7685853949253693e-05 -3.1075173119295039e-05 0 -2.9870390351935421e-05 -3.5597325251789238e-05 0 -2.1276214830527975e-05 -2.4748295344344644e-05 0 -2.2647761303039125e-05 -2.5887948457277213e-05 0 -2.5747771423207712e-05 -3.0667415942193397e-05 0 -2.416215536257471e-05 -2.8594520621946844e-05 0 -2.5747771423207712e-05 -3.0667415942193397e-05 0 -2.8140036853627675e-05 -3.4659828366144858e-05 0 -2.5747771423207712e-05 -3.0667415942193397e-05 0 -2.9870390351935421e-05 -3.5597325251789238e-05 0 -2.8140036853627675e-05 -3.4659828366144858e-05 0 1.0792958669489114e-05 0.00020283772435475614 0 -9.0703179598454996e-06 0.00022822108878518127 0 -1.9771862284511705e-05 0.00021291461186851381 0 1.0792958669489114e-05 0.00020283772435475614 0 8.720090790971205e-06 0.00023287498291971653 0 -9.0703179598454996e-06 0.00022822108878518127 0 -2.1276214830527975e-05 -2.4748295344344644e-05 0 -2.5747771423207712e-05 -3.0667415942193397e-05 0 -2.416215536257471e-05 -2.8594520621946844e-05 0 -5.5405592433585952e-06 8.9038673833783608e-05 0 -8.3236492961800372e-06 0.00010235556101855705 0 -3.2163737585049451e-05 0.00024129728462914427 0 -9.0703179598454996e-06 0.00022822108878518127 0 -1.2147044467247102e-05 0.00024871668780084412 0 8.720090790971205e-06 0.00023287498291971653 0 -1.2147044467247102e-05 0.00024871668780084412 0 -9.0703179598454996e-06 0.00022822108878518127 0 5.7935414746971513e-06 0.00026307162237455611 0 -2.6765961656929037e-05 0.00027296878449789173 0 -1.2147044467247102e-05 0.00024871668780084412 0 -8.3236492961800372e-06 0.00010235556101855705 0 -1.1185694991089615e-05 0.00011478036963470019 0 -2.416215536257471e-05 -2.8594520621946844e-05 0 -2.8140036853627675e-05 -3.4659828366144858e-05 0 -2.7019477587813396e-05 -3.2499658908696859e-05 0 8.720090790971205e-06 0.00023287498291971653 0 5.7935414746971513e-06 0.00026307162237455611 0 -1.2147044467247102e-05 0.00024871668780084412 0 -1.1185694991089615e-05 0.00011478036963470019 0 -1.55580380209446e-05 0.00012856651975197739 0 5.7935414746971513e-06 0.00026307162237455611 0 -2.1122297799992296e-05 0.00029834823814408923 0 -2.6765961656929037e-05 0.00027296878449789173 0 -3.136554380264275e-05 -3.8891009457581302e-05 0 -2.8140036853627675e-05 -3.4659828366144858e-05 0 -2.9870390351935421e-05 -3.5597325251789238e-05 0 -2.7019477587813396e-05 -3.2499658908696859e-05 0 -2.8140036853627675e-05 -3.4659828366144858e-05 0 -3.1507088288131026e-05 -4.0377571213201281e-05 0 -3.136554380264275e-05 -3.8891009457581302e-05 0 -3.3722172315974051e-05 -4.2866896169850418e-05 0 -3.1507088288131026e-05 -4.0377571213201281e-05 0 -3.136554380264275e-05 -3.8891009457581302e-05 0 -3.1507088288131026e-05 -4.0377571213201281e-05 0 -2.8140036853627675e-05 -3.4659828366144858e-05 0 -3.4332300921121994e-05 -4.5798203530873989e-05 0 -3.2795246044669638e-05 -4.2519527169815753e-05 0 -3.1507088288131026e-05 -4.0377571213201281e-05 0 -3.4332300921121994e-05 -4.5798203530873989e-05 0 -3.1507088288131026e-05 -4.0377571213201281e-05 0 -3.3722172315974051e-05 -4.2866896169850418e-05 0 -2.7019477587813396e-05 -3.2499658908696859e-05 0 -3.1507088288131026e-05 -4.0377571213201281e-05 0 -2.9592685393093277e-05 -3.6093834635885424e-05 0 -2.9592685393093277e-05 -3.6093834635885424e-05 0 -3.1507088288131026e-05 -4.0377571213201281e-05 0 -3.2795246044669638e-05 -4.2519527169815753e-05 0 -3.4332300921121994e-05 -4.5798203530873989e-05 0 -3.4728180028070478e-05 -4.6277455350895151e-05 0 -3.2795246044669638e-05 -4.2519527169815753e-05 0 5.7935414746971513e-06 0.00026307162237455611 0 2.5392910390274606e-06 0.00029129327101280099 0 -2.1122297799992296e-05 0.00029834823814408923 0 -1.55580380209446e-05 0.00012856651975197739 0 -1.4617305936551807e-05 0.00013888392011197789 0 -2.9592685393093277e-05 -3.6093834635885424e-05 0 -3.2795246044669638e-05 -4.2519527169815753e-05 0 -3.2327548330376361e-05 -3.9429308925621918e-05 0 2.5392910390274606e-06 0.00029129327101280099 0 -9.0356550853245502e-07 0.00031996579636425678 0 -2.1122297799992296e-05 0.00029834823814408923 0 -9.0356550853245502e-07 0.00031996579636425678 0 -2.8195064875094836e-05 0.00032404098643546456 0 -2.1122297799992296e-05 0.00029834823814408923 0 -9.0356550853245502e-07 0.00031996579636425678 0 -1.8284502254115034e-05 0.00033626962120723289 0 -2.8195064875094836e-05 0.00032404098643546461 0 -1.4617305936551807e-05 0.00013888392011197789 0 -3.4576345727703663e-05 0.00015237934069107869 0 -4.2547081551671189e-06 0.00034451568525039342 0 -1.828450225411503e-05 0.00033626962120723289 0 -9.0356550853245502e-07 0.00031996579636425678 0 -4.2547081551671189e-06 0.00034451568525039342 0 -2.7007604966135652e-05 0.00035168283552186401 0 -1.8284502254115034e-05 0.00033626962120723289 0 -3.4332300921121994e-05 -4.5798203530873989e-05 0 -3.6040472259910859e-05 -4.9860139833237065e-05 0 -3.4728180028070478e-05 -4.6277455350895151e-05 0 -3.2327548330376361e-05 -3.9429308925621918e-05 0 -3.2795246044669638e-05 -4.2519527169815753e-05 0 -3.4728180028070478e-05 -4.6277455350895151e-05 0 -3.4615588160037411e-05 -4.2387558895080606e-05 0 -3.2327548330376361e-05 -3.9429308925621918e-05 0 -3.4728180028070478e-05 -4.6277455350895151e-05 0 -3.4615588160037411e-05 -4.2387558895080606e-05 0 -3.4728180028070478e-05 -4.6277455350895151e-05 0 -3.5973579337808035e-05 -4.8624611508518532e-05 0 -3.5973579337808035e-05 -4.8624611508518532e-05 0 -3.4728180028070478e-05 -4.6277455350895151e-05 0 -3.6040472259910859e-05 -4.9860139833237065e-05 0 -3.7349091846522213e-05 -5.1990799804255135e-05 0 -3.6040472259910859e-05 -4.9860139833237065e-05 0 -3.7138189629731781e-05 -4.8826547656368737e-05 0 -3.6501251626272859e-05 -5.089607729888311e-05 0 -3.5973579337808035e-05 -4.8624611508518532e-05 0 -3.6040472259910859e-05 -4.9860139833237065e-05 0 -3.7349091846522213e-05 -5.1990799804255135e-05 0 -3.6501251626272859e-05 -5.089607729888311e-05 0 -3.6040472259910859e-05 -4.9860139833237065e-05 0 -3.4332300921121994e-05 -4.5798203530873989e-05 0 -3.5767111623986474e-05 -4.6826906884908561e-05 0 -3.6040472259910859e-05 -4.9860139833237065e-05 0 -3.7138189629731781e-05 -4.8826547656368737e-05 0 -3.6040472259910859e-05 -4.9860139833237065e-05 0 -3.5767111623986474e-05 -4.6826906884908561e-05 0 -3.5702775313651846e-05 -4.3682604054715792e-05 0 -3.7979452811945149e-05 -4.6671605107121142e-05 0 -3.5767111623986474e-05 -4.6826906884908561e-05 0 -3.5702775313651846e-05 -4.3682604054715792e-05 0 -3.5767111623986474e-05 -4.6826906884908561e-05 0 -3.3722172315974051e-05 -4.2866896169850418e-05 0 -3.4332300921121994e-05 -4.5798203530873989e-05 0 -3.3722172315974051e-05 -4.2866896169850418e-05 0 -3.5767111623986474e-05 -4.6826906884908561e-05 0 -4.011518513152892e-05 -4.6556454019156295e-05 0 -3.7979452811945149e-05 -4.6671605107121142e-05 0 -3.8385895287839123e-05 -4.3471669767151277e-05 0 -3.5702775313651846e-05 -4.3682604054715792e-05 0 -3.8385895287839123e-05 -4.3471669767151277e-05 0 -3.7979452811945149e-05 -4.6671605107121142e-05 0 -3.7138189629731781e-05 -4.8826547656368737e-05 0 -3.7979452811945149e-05 -4.6671605107121142e-05 0 -3.8920728121829994e-05 -4.9467684573174175e-05 0 -3.7138189629731781e-05 -4.8826547656368737e-05 0 -3.5767111623986474e-05 -4.6826906884908561e-05 0 -3.7979452811945149e-05 -4.6671605107121142e-05 0 -4.011518513152892e-05 -4.6556454019156295e-05 0 -3.8920728121829994e-05 -4.9467684573174175e-05 0 -3.7979452811945149e-05 -4.6671605107121142e-05 0 -3.7349091846522213e-05 -5.1990799804255135e-05 0 -3.7138189629731781e-05 -4.8826547656368737e-05 0 -3.8920728121829994e-05 -4.9467684573174175e-05 0 -3.9775518206379688e-05 -5.1714154968600865e-05 0 -3.7349091846522213e-05 -5.1990799804255135e-05 0 -3.8920728121829994e-05 -4.9467684573174175e-05 0 -3.9775518206379688e-05 -5.1714154968600865e-05 0 -3.8920728121829994e-05 -4.9467684573174175e-05 0 -4.1066247682982674e-05 -4.918300498705485e-05 0 -4.3109836774163825e-05 -5.1198197710040193e-05 0 -3.9775518206379688e-05 -5.1714154968600865e-05 0 -4.1066247682982674e-05 -4.918300498705485e-05 0 -4.3109836774163825e-05 -5.1198197710040193e-05 0 -4.1066247682982674e-05 -4.918300498705485e-05 0 -4.3840928731595549e-05 -4.6875343746445073e-05 0 -4.011518513152892e-05 -4.6556454019156295e-05 0 -4.3840928731595549e-05 -4.687534374644508e-05 0 -4.1066247682982674e-05 -4.918300498705485e-05 0 -4.011518513152892e-05 -4.6556454019156295e-05 0 -4.1066247682982674e-05 -4.918300498705485e-05 0 -3.8920728121829994e-05 -4.9467684573174175e-05 0 -5.2229169554521239e-05 -5.1511571033583031e-05 0 -4.7628810741126325e-05 -5.1079138529994757e-05 0 -4.7596907369030799e-05 -4.7745027232140911e-05 0 -4.7628810741126325e-05 -5.1079138529994757e-05 0 -4.3109836774163825e-05 -5.1198197710040193e-05 0 -4.7596907369030799e-05 -4.7745027232140911e-05 0 -4.3109836774163825e-05 -5.1198197710040193e-05 0 -4.3840928731595549e-05 -4.687534374644508e-05 0 -4.7596907369030799e-05 -4.7745027232140911e-05 0 -4.9717354695811247e-05 -4.5832832531049915e-05 0 -4.7596907369030799e-05 -4.7745027232140911e-05 0 -4.6053415132726922e-05 -4.4679488994340107e-05 0 -4.3840928731595549e-05 -4.6875343746445073e-05 0 -4.6053415132726922e-05 -4.4679488994340107e-05 0 -4.7596907369030799e-05 -4.7745027232140911e-05 0 -4.6053415132726922e-05 -4.4679488994340107e-05 0 -4.2304165788601225e-05 -4.3850149848373349e-05 0 -4.4707609701423975e-05 -4.2203969675343644e-05 0 -4.4707609701423975e-05 -4.2203969675343644e-05 0 -4.7597785108771932e-05 -4.2892643787399118e-05 0 -4.6053415132726922e-05 -4.4679488994340107e-05 0 -4.9717354695811247e-05 -4.5832832531049915e-05 0 -4.6053415132726922e-05 -4.4679488994340107e-05 0 -4.7597785108771932e-05 -4.2892643787399118e-05 0 -4.011518513152892e-05 -4.6556454019156295e-05 0 -4.2304165788601225e-05 -4.3850149848373349e-05 0 -4.3840928731595549e-05 -4.6875343746445073e-05 0 -4.3840928731595549e-05 -4.6875343746445073e-05 0 -4.2304165788601225e-05 -4.3850149848373349e-05 0 -4.6053415132726922e-05 -4.4679488994340107e-05 0 -4.011518513152892e-05 -4.6556454019156295e-05 0 -3.8385895287839123e-05 -4.3471669767151277e-05 0 -4.2304165788601225e-05 -4.3850149848373349e-05 0 -4.0148187313183521e-05 -4.1383295644643925e-05 0 -4.2304165788601225e-05 -4.3850149848373349e-05 0 -3.8385895287839123e-05 -4.3471669767151277e-05 0 -4.0148187313183521e-05 -4.1383295644643925e-05 0 -3.7832549964127353e-05 -3.8898132517240792e-05 0 -4.0214312955685541e-05 -3.8635841956634653e-05 0 -4.0148187313183521e-05 -4.1383295644643925e-05 0 -4.0214312955685541e-05 -3.8635841956634653e-05 0 -4.2283822460957027e-05 -4.1228756229333093e-05 0 -4.2872652825814205e-05 -3.901911404208336e-05 0 -4.2283822460957027e-05 -4.1228756229333093e-05 0 -4.0214312955685541e-05 -3.8635841956634653e-05 0 -4.0148187313183521e-05 -4.1383295644643925e-05 0 -4.2283822460957027e-05 -4.1228756229333093e-05 0 -4.2304165788601225e-05 -4.3850149848373349e-05 0 -4.4707609701423975e-05 -4.2203969675343644e-05 0 -4.2283822460957027e-05 -4.1228756229333093e-05 0 -4.2872652825814205e-05 -3.901911404208336e-05 0 -4.4707609701423975e-05 -4.2203969675343644e-05 0 -4.2304165788601225e-05 -4.3850149848373349e-05 0 -4.2283822460957027e-05 -4.1228756229333093e-05 0 -4.4707609701423975e-05 -4.2203969675343644e-05 0 -4.5236835804013217e-05 -3.8885307680601867e-05 0 -4.7597785108771932e-05 -4.2892643787399118e-05 0 -4.7987617077522049e-05 -4.1321825090039057e-05 0 -4.7597785108771932e-05 -4.2892643787399118e-05 0 -4.5236835804013217e-05 -3.8885307680601867e-05 0 -4.4707609701423975e-05 -4.2203969675343644e-05 0 -4.2872652825814205e-05 -3.901911404208336e-05 0 -4.5236835804013217e-05 -3.8885307680601867e-05 0 -4.3372392307429893e-05 -3.5535918428084179e-05 0 -4.2872652825814198e-05 -3.901911404208336e-05 0 -4.0413599358012522e-05 -3.5654900733441617e-05 0 -4.3372392307429893e-05 -3.5535918428084179e-05 0 -4.5236835804013217e-05 -3.8885307680601867e-05 0 -4.2872652825814205e-05 -3.901911404208336e-05 0 -4.3372392307429893e-05 -3.5535918428084179e-05 0 -4.7139291886538205e-05 -3.7937157180692316e-05 0 -4.5236835804013217e-05 -3.8885307680601867e-05 0 -4.3372392307429893e-05 -3.5535918428084179e-05 0 -4.0413599358012522e-05 -3.5654900733441617e-05 0 -3.9307105852040053e-05 -3.13932816009583e-05 0 -3.9307105852040053e-05 -3.13932816009583e-05 0 -4.0413599358012522e-05 -3.5654900733441617e-05 0 -3.7018642025128601e-05 -3.1757418418495612e-05 0 -3.7682562327224901e-05 -3.5604449841600832e-05 0 -3.7018642025128601e-05 -3.1757418418495612e-05 0 -4.0413599358012522e-05 -3.5654900733441617e-05 0 -3.7682562327224901e-05 -3.5604449841600832e-05 0 -4.0413599358012522e-05 -3.5654900733441617e-05 0 -4.0214312955685541e-05 -3.8635841956634653e-05 0 -3.7682562327224901e-05 -3.5604449841600832e-05 0 -4.0214312955685541e-05 -3.8635841956634653e-05 0 -3.7832549964127353e-05 -3.8898132517240792e-05 0 -4.2872652825814205e-05 -3.901911404208336e-05 0 -4.0214312955685541e-05 -3.8635841956634653e-05 0 -4.0413599358012522e-05 -3.5654900733441617e-05 0 -2.3610374147028452e-05 -0.00011134642039893057 0 -3.2497028708224922e-05 -0.00010541540047072537 0 -3.3240438751192326e-05 -0.00011835420270654706 0 -3.5398206955524287e-05 -6.7422085579117488e-05 0 -3.7343469027835692e-05 -7.6964022007356824e-05 0 -2.1650693499246999e-05 -9.6802345689894813e-05 0 -3.2497028708224922e-05 -0.00010541540047072537 0 -2.3610374147028452e-05 -0.00011134642039893057 0 -4.89566090736513e-05 -3.8027537466010635e-05 0 -5.0778135273373992e-05 -4.2554454300942744e-05 0 -4.7139291886538205e-05 -3.7937157180692316e-05 0 -4.89566090736513e-05 -3.8027537466010635e-05 0 -4.7139291886538205e-05 -3.7937157180692316e-05 0 -4.5565956273974687e-05 -3.3904805111953396e-05 0 -4.3372392307429893e-05 -3.5535918428084179e-05 0 -4.4272417495328198e-05 -3.3984962080266594e-05 0 -4.7139291886538205e-05 -3.7937157180692316e-05 0 -4.7139291886538205e-05 -3.7937157180692316e-05 0 -4.4272417495328198e-05 -3.3984962080266594e-05 0 -4.5565956273974687e-05 -3.3904805111953396e-05 0 -4.7987617077522049e-05 -4.1321825090039057e-05 0 -4.5236835804013217e-05 -3.8885307680601867e-05 0 -4.7139291886538205e-05 -3.7937157180692316e-05 0 -5.0778135273373992e-05 -4.2554454300942744e-05 0 -4.9908568599299132e-05 -4.2324408206832516e-05 0 -4.7139291886538205e-05 -3.7937157180692316e-05 0 -4.7987617077522049e-05 -4.1321825090039057e-05 0 -4.7139291886538205e-05 -3.7937157180692316e-05 0 -4.9908568599299132e-05 -4.2324408206832516e-05 0 -4.7987617077522049e-05 -4.1321825090039057e-05 0 -4.9908568599299132e-05 -4.2324408206832516e-05 0 -5.0775639026932086e-05 -4.4804972437160716e-05 0 -4.7987617077522049e-05 -4.1321825090039057e-05 0 -5.0775639026932086e-05 -4.4804972437160716e-05 0 -4.7597785108771932e-05 -4.2892643787399118e-05 0 -5.2257869679744105e-05 -4.6236878911819805e-05 0 -5.0775639026932086e-05 -4.480497243716071e-05 0 -4.9908568599299132e-05 -4.2324408206832516e-05 0 -5.2257869679744105e-05 -4.6236878911819805e-05 0 -5.3430535850000651e-05 -4.9322123660416799e-05 0 -5.0775639026932086e-05 -4.4804972437160716e-05 0 -2.6052068527152845e-05 -0.0001259541579085791 0 -3.3240438751192326e-05 -0.00011835420270654706 0 -4.0889599267942582e-05 -0.00013064127070646034 0 -2.6052068527152845e-05 -0.0001259541579085791 0 -4.0889599267942582e-05 -0.00013064127070646034 0 -3.8584983395195233e-05 -0.00014314780246218797 0 -3.9324796607005598e-05 -8.5982086570671521e-05 0 -4.1345311071698956e-05 -9.4598535210277726e-05 0 -5.0778135273373992e-05 -4.2554454300942744e-05 0 -5.2257869679744105e-05 -4.6236878911819805e-05 0 -4.9908568599299132e-05 -4.2324408206832516e-05 0 -2.3610374147028452e-05 -0.00011134642039893057 0 -3.3240438751192326e-05 -0.00011835420270654706 0 -2.6052068527152845e-05 -0.0001259541579085791 0 -3.7343469027835692e-05 -7.6964022007356824e-05 0 -3.9324796607005598e-05 -8.5982086570671521e-05 0 -2.6052068527152845e-05 -0.0001259541579085791 0 -3.8584983395195233e-05 -0.00014314780246218797 0 -2.8444631156606539e-05 -0.00013932346371432649 0 -4.1345311071698956e-05 -9.4598535210277726e-05 0 -4.2654909332522497e-05 -0.00010187852794923125 0 -5.3430535850000651e-05 -4.9322123660416799e-05 0 -5.4632596808226782e-05 -5.1913150303658357e-05 0 -5.2422607613715805e-05 -4.778695996625874e-05 0 -2.8444631156606539e-05 -0.00013932346371432649 0 -3.8584983395195233e-05 -0.00014314780246218797 0 -3.0878871432514472e-05 -0.00015286853652417113 0 -3.0878871432514472e-05 -0.00015286853652417113 0 -3.858498339519524e-05 -0.000143147802462188 0 -4.1794562018178205e-05 -0.0001553484715483621 0 -4.9717354695811247e-05 -4.5832832531049915e-05 0 -4.7597785108771932e-05 -4.2892643787399118e-05 0 -5.0775639026932086e-05 -4.4804972437160716e-05 0 -4.9717354695811247e-05 -4.5832832531049915e-05 0 -5.0775639026932086e-05 -4.4804972437160716e-05 0 -5.2422607613715805e-05 -4.778695996625874e-05 0 -5.3430535850000651e-05 -4.9322123660416799e-05 0 -5.2422607613715805e-05 -4.778695996625874e-05 0 -5.0775639026932086e-05 -4.4804972437160716e-05 0 -4.9717354695811247e-05 -4.5832832531049915e-05 0 -5.2422607613715805e-05 -4.778695996625874e-05 0 -5.2481226397777947e-05 -4.8981718240022257e-05 0 -4.9717354695811247e-05 -4.5832832531049915e-05 0 -5.2481226397777947e-05 -4.8981718240022257e-05 0 -4.7596907369030799e-05 -4.7745027232140911e-05 0 -5.4632596808226782e-05 -5.1913150303658357e-05 0 -5.2481226397777947e-05 -4.8981718240022257e-05 0 -5.2422607613715805e-05 -4.778695996625874e-05 0 -5.5617608876064191e-05 -5.4409039542500873e-05 0 -5.2481226397777947e-05 -4.8981718240022257e-05 0 -5.4632596808226782e-05 -5.1913150303658357e-05 0 -5.5617608876064191e-05 -5.4409039542500873e-05 0 -5.2229169554521239e-05 -5.1511571033583031e-05 0 -5.2481226397777947e-05 -4.8981718240022257e-05 0 -5.2229169554521239e-05 -5.1511571033583031e-05 0 -4.7596907369030799e-05 -4.7745027232140911e-05 0 -5.2481226397777947e-05 -4.8981718240022257e-05 0 -3.0878871432514472e-05 -0.00015286853652417113 0 -4.1794562018178205e-05 -0.0001553484715483621 0 -3.805639602290785e-05 -0.0001605641961876529 0 -4.2654909332522497e-05 -0.00010187852794923125 0 -4.6625054268052144e-05 -0.0001094003136778495 0 -3.2851424942259482e-05 -0.00016328796641634717 0 -3.0878871432514472e-05 -0.00015286853652417113 0 -3.805639602290785e-05 -0.0001605641961876529 0 -3.2851424942259482e-05 -0.00016328796641634717 0 -3.805639602290785e-05 -0.0001605641961876529 0 -4.1550742520208493e-05 -0.00016701920094561997 0 -4.1550742520208493e-05 -0.00016701920094561997 0 -3.805639602290785e-05 -0.0001605641961876529 0 -4.5726407911275811e-05 -0.00016292994627047715 0 -5.0433208698149945e-05 -0.00016874601332034664 0 -4.1550742520208493e-05 -0.00016701920094561997 0 -4.5726407911275811e-05 -0.00016292994627047715 0 -4.1794562018178205e-05 -0.0001553484715483621 0 -5.09565650252635e-05 -0.00015905751316097101 0 -4.5726407911275811e-05 -0.00016292994627047715 0 -4.1794562018178205e-05 -0.0001553484715483621 0 -4.5726407911275811e-05 -0.00016292994627047715 0 -3.805639602290785e-05 -0.0001605641961876529 0 -5.0433208698149945e-05 -0.00016874601332034664 0 -4.5726407911275811e-05 -0.00016292994627047715 0 -5.09565650252635e-05 -0.00015905751316097101 0 -6.0011081582875314e-05 -0.00016962519109373813 0 -5.09565650252635e-05 -0.00015905751316097101 0 -5.9876141163751418e-05 -0.00015535775147720916 0 -6.0011081582875314e-05 -0.00016962519109373813 0 -5.9876141163751418e-05 -0.00015535775147720916 0 -6.9621738350994795e-05 -0.00015942517224849789 0 -6.0011081582875314e-05 -0.00016962519109373813 0 -5.0433208698149945e-05 -0.00016874601332034664 0 -5.09565650252635e-05 -0.00015905751316097101 0 -4.8707824005686031e-05 -0.00014647043148545484 0 -5.9876141163751418e-05 -0.00015535775147720916 0 -5.09565650252635e-05 -0.00015905751316097101 0 -4.8707824005686031e-05 -0.00014647043148545484 0 -5.9912026488805722e-05 -0.00014070916685827347 0 -5.9876141163751418e-05 -0.00015535775147720916 0 -7.1233546330430454e-05 -0.00014677331966257183 0 -5.9876141163751418e-05 -0.00015535775147720916 0 -5.9912026488805722e-05 -0.00014070916685827347 0 -4.8707824005686031e-05 -0.00014647043148545484 0 -5.1573146961649551e-05 -0.00013321571874480708 0 -5.9912026488805722e-05 -0.00014070916685827347 0 -4.8707824005686031e-05 -0.00014647043148545484 0 -3.8584983395195233e-05 -0.00014314780246218797 0 -4.0889599267942582e-05 -0.00013064127070646034 0 -4.8707824005686031e-05 -0.00014647043148545484 0 -4.1794562018178205e-05 -0.0001553484715483621 0 -3.8584983395195233e-05 -0.00014314780246218797 0 -4.8707824005686031e-05 -0.00014647043148545484 0 -5.09565650252635e-05 -0.00015905751316097101 0 -4.1794562018178205e-05 -0.0001553484715483621 0 -9.4146900173400653e-05 -0.00015848688435798219 0 -8.6076999277880922e-05 -0.00016366762849373239 0 -8.0598761751431481e-05 -0.00015698890204448562 0 -9.4061394091293269e-05 -0.00017041639458643067 0 -8.6076999277880922e-05 -0.00016366762849373236 0 -9.4146900173400653e-05 -0.00015848688435798219 0 -9.4061394091293269e-05 -0.00017041639458643067 0 -8.2142322184711229e-05 -0.00017031429831754929 0 -8.6076999277880922e-05 -0.00016366762849373236 0 -8.2142322184711243e-05 -0.00017031429831754932 0 -7.6275503055161232e-05 -0.00016421931157493066 0 -8.6076999277880922e-05 -0.00016366762849373236 0 -8.0598761751431481e-05 -0.00015698890204448562 0 -8.6076999277880922e-05 -0.00016366762849373236 0 -7.6275503055161232e-05 -0.00016421931157493066 0 -8.0598761751431481e-05 -0.00015698890204448562 0 -7.6275503055161232e-05 -0.00016421931157493066 0 -6.9621738350994795e-05 -0.00015942517224849789 0 -7.0679055218710821e-05 -0.00016994543508654528 0 -6.9621738350994795e-05 -0.00015942517224849789 0 -7.6275503055161232e-05 -0.00016421931157493066 0 -8.2142322184711243e-05 -0.00017031429831754932 0 -7.0679055218710821e-05 -0.00016994543508654528 0 -7.6275503055161232e-05 -0.00016421931157493066 0 -7.0679055218710821e-05 -0.00016994543508654528 0 -6.0011081582875314e-05 -0.00016962519109373813 0 -6.9621738350994795e-05 -0.00015942517224849789 0 -7.1233546330430454e-05 -0.00014677331966257183 0 -6.9621738350994795e-05 -0.00015942517224849789 0 -5.9876141163751418e-05 -0.00015535775147720916 0 -7.1233546330430454e-05 -0.00014677331966257183 0 -5.9912026488805722e-05 -0.00014070916685827347 0 -6.7653718631604539e-05 -0.00013154346495197311 0 -7.1233546330430454e-05 -0.00014677331966257183 0 -7.8757325618408869e-05 -0.00013389992121862643 0 -8.2931527433823568e-05 -0.00014600793878453267 0 -7.1233546330430454e-05 -0.00014677331966257183 0 -8.0598761751431481e-05 -0.00015698890204448562 0 -6.9621738350994795e-05 -0.00015942517224849789 0 -7.1233546330430454e-05 -0.00014677331966257183 0 -8.2931527433823568e-05 -0.00014600793878453267 0 -8.0598761751431481e-05 -0.00015698890204448562 0 -9.4146900173400653e-05 -0.00015848688435798219 0 -8.0598761751431481e-05 -0.00015698890204448562 0 -8.2931527433823568e-05 -0.00014600793878453267 0 -9.3903175190055373e-05 -0.00013280260831766196 0 -9.4186549418551923e-05 -0.00014596454465916169 0 -8.2931527433823568e-05 -0.00014600793878453267 0 -9.4186549418551923e-05 -0.00014596454465916169 0 -9.4146900173400653e-05 -0.00015848688435798219 0 -8.2931527433823568e-05 -0.00014600793878453267 0 -9.3042662119328245e-05 -0.00011893982080619251 0 -9.3903175190055373e-05 -0.00013280260831766196 0 -8.4036204960802568e-05 -0.0001238615074972002 0 -9.3903175190055373e-05 -0.00013280260831766196 0 -8.2931527433823568e-05 -0.00014600793878453267 0 -7.8757325618408869e-05 -0.00013389992121862643 0 -7.4053102386814919e-05 -0.00011877715567979863 0 -8.4036204960802555e-05 -0.0001238615074972002 0 -7.8757325618408869e-05 -0.00013389992121862643 0 -9.3903175190055373e-05 -0.00013280260831766196 0 -7.8757325618408869e-05 -0.00013389992121862643 0 -8.4036204960802568e-05 -0.0001238615074972002 0 -7.4053102386814919e-05 -0.00011877715567979863 0 -7.8757325618408869e-05 -0.00013389992121862646 0 -6.7653718631604539e-05 -0.00013154346495197311 0 -7.1233546330430454e-05 -0.00014677331966257183 0 -6.7653718631604539e-05 -0.00013154346495197311 0 -7.8757325618408869e-05 -0.00013389992121862643 0 -7.4053102386814919e-05 -0.00011877715567979863 0 -6.7653718631604539e-05 -0.00013154346495197311 0 -6.4721213582859914e-05 -0.00011804842468123162 0 -5.8167541464339051e-05 -0.0001254055799957458 0 -6.4721213582859914e-05 -0.00011804842468123162 0 -6.7653718631604539e-05 -0.00013154346495197311 0 -7.4053102386814919e-05 -0.00011877715567979863 0 -6.4721213582859914e-05 -0.00011804842468123162 0 -6.7656917581539305e-05 -0.00010882601804304218 0 -6.4438929298340925e-05 -9.5663647786364218e-05 0 -6.7656917581539305e-05 -0.00010882601804304218 0 -5.7735759974906921e-05 -0.00010895700185096301 0 -5.7735759974906921e-05 -0.00010895700185096301 0 -6.7656917581539305e-05 -0.00010882601804304218 0 -6.4721213582859914e-05 -0.00011804842468123162 0 -7.4053102386814919e-05 -0.00011877715567979863 0 -6.7656917581539305e-05 -0.00010882601804304218 0 -7.7316586683919534e-05 -0.0001046387290909525 0 -7.4053102386814919e-05 -0.00011877715567979863 0 -8.3969582569956097e-05 -0.00011402117949411663 0 -8.4036204960802568e-05 -0.0001238615074972002 0 -7.4053102386814919e-05 -0.00011877715567979863 0 -7.7316586683919534e-05 -0.0001046387290909525 0 -8.3969582569956097e-05 -0.00011402117949411663 0 -9.1198251964413665e-05 -0.00010458871905704361 0 -8.3969582569956097e-05 -0.00011402117949411664 0 -7.7316586683919534e-05 -0.0001046387290909525 0 -9.1198251964413665e-05 -0.00010458871905704361 0 -9.3042662119328232e-05 -0.00011893982080619251 0 -8.3969582569956097e-05 -0.00011402117949411663 0 -9.3042662119328245e-05 -0.00011893982080619251 0 -8.4036204960802555e-05 -0.0001238615074972002 0 -8.3969582569956097e-05 -0.00011402117949411663 0 -4.0873785364132167e-05 -0.00011464858853457282 0 -4.9624863407750248e-05 -0.00012057807226873533 0 -4.0889599267942582e-05 -0.00013064127070646034 0 -4.0889599267942582e-05 -0.00013064127070646034 0 -4.9624863407750248e-05 -0.00012057807226873533 0 -5.1573146961649551e-05 -0.00013321571874480708 0 -4.0873785364132167e-05 -0.00011464858853457282 0 -4.0889599267942582e-05 -0.00013064127070646034 0 -3.3240438751192326e-05 -0.00011835420270654706 0 -4.8707824005686031e-05 -0.00014647043148545484 0 -4.0889599267942582e-05 -0.00013064127070646034 0 -5.1573146961649551e-05 -0.00013321571874480708 0 -5.8167541464339051e-05 -0.0001254055799957458 0 -5.9912026488805722e-05 -0.00014070916685827347 0 -5.1573146961649551e-05 -0.00013321571874480708 0 -5.8167541464339051e-05 -0.0001254055799957458 0 -6.7653718631604539e-05 -0.00013154346495197311 0 -5.9912026488805722e-05 -0.00014070916685827347 0 -5.8167541464339051e-05 -0.0001254055799957458 0 -5.1573146961649551e-05 -0.00013321571874480708 0 -4.9624863407750248e-05 -0.00012057807226873533 0 -5.7735759974906921e-05 -0.00010895700185096301 0 -4.9624863407750248e-05 -0.00012057807226873533 0 -4.7854410290363803e-05 -0.00010637808457151244 0 -5.8167541464339051e-05 -0.0001254055799957458 0 -4.9624863407750248e-05 -0.00012057807226873533 0 -5.7735759974906921e-05 -0.00010895700185096301 0 -5.8167541464339051e-05 -0.0001254055799957458 0 -5.7735759974906921e-05 -0.00010895700185096301 0 -6.4721213582859914e-05 -0.00011804842468123162 0 -5.7735759974906921e-05 -0.00010895700185096301 0 -4.7854410290363803e-05 -0.00010637808457151244 0 -5.216163204291819e-05 -9.4988857528933665e-05 0 -4.0873785364132167e-05 -0.00011464858853457282 0 -3.9844110211177268e-05 -0.00010258044277479813 0 -4.7854410290363803e-05 -0.00010637808457151244 0 -4.0873785364132167e-05 -0.00011464858853457282 0 -4.7854410290363803e-05 -0.00010637808457151244 0 -4.9624863407750248e-05 -0.00012057807226873533 0 -4.0873785364132167e-05 -0.00011464858853457282 0 -3.3240438751192326e-05 -0.00011835420270654706 0 -3.2497028708224922e-05 -0.00010541540047072537 0 -4.0873785364132167e-05 -0.00011464858853457282 0 -3.2497028708224922e-05 -0.00010541540047072537 0 -3.9844110211177268e-05 -0.00010258044277479813 0 -3.3106755756798375e-05 -9.2167522004126136e-05 0 -3.9844110211177268e-05 -0.00010258044277479813 0 -3.2497028708224922e-05 -0.00010541540047072537 0 -4.447213986012041e-05 -9.3786797821715092e-05 0 -3.9844110211177268e-05 -0.00010258044277479813 0 -3.3106755756798375e-05 -9.2167522004126136e-05 0 -4.447213986012041e-05 -9.3786797821715092e-05 0 -3.3106755756798368e-05 -9.2167522004126123e-05 0 -3.7675279872789685e-05 -8.374596930419754e-05 0 -3.3106755756798375e-05 -9.2167522004126136e-05 0 -2.9510901081413756e-05 -7.8251265723542962e-05 0 -3.7675279872789685e-05 -8.374596930419754e-05 0 -4.447213986012041e-05 -9.3786797821715092e-05 0 -3.7675279872789685e-05 -8.374596930419754e-05 0 -4.4829483849112801e-05 -8.2414564702809701e-05 0 -4.447213986012041e-05 -9.3786797821715092e-05 0 -4.7854410290363803e-05 -0.00010637808457151244 0 -3.9844110211177268e-05 -0.00010258044277479813 0 -4.447213986012041e-05 -9.3786797821715092e-05 0 -5.216163204291819e-05 -9.4988857528933665e-05 0 -4.7854410290363803e-05 -0.00010637808457151244 0 -6.4438929298340925e-05 -9.5663647786364218e-05 0 -5.7735759974906921e-05 -0.00010895700185096301 0 -5.216163204291819e-05 -9.4988857528933665e-05 0 -6.4438929298340925e-05 -9.5663647786364218e-05 0 -5.216163204291819e-05 -9.4988857528933665e-05 0 -5.3788482010706035e-05 -8.2513603434093141e-05 0 -4.447213986012041e-05 -9.3786797821715092e-05 0 -4.4829483849112801e-05 -8.2414564702809701e-05 0 -5.216163204291819e-05 -9.4988857528933665e-05 0 -5.3788482010706035e-05 -8.2513603434093141e-05 0 -5.216163204291819e-05 -9.4988857528933665e-05 0 -4.4829483849112801e-05 -8.2414564702809701e-05 0 -5.3788482010706035e-05 -8.2513603434093141e-05 0 -4.4829483849112801e-05 -8.2414564702809701e-05 0 -4.328499870291344e-05 -6.8626342430042129e-05 0 -4.9967320451158506e-05 -6.4836460743314433e-05 0 -5.8250910245836638e-05 -7.4090128998392904e-05 0 -5.3788482010706035e-05 -8.2513603434093141e-05 0 -4.9967320451158506e-05 -6.4836460743314433e-05 0 -5.3788482010706035e-05 -8.2513603434093141e-05 0 -4.328499870291344e-05 -6.8626342430042129e-05 0 -3.6032267468373672e-05 -7.1786269201456801e-05 0 -3.3325010629288082e-05 -5.5300869397103546e-05 0 -4.328499870291344e-05 -6.8626342430042129e-05 0 -3.6032267468373672e-05 -7.1786269201456801e-05 0 -2.7103916619668498e-05 -6.2773974648444895e-05 0 -3.3325010629288082e-05 -5.5300869397103546e-05 0 -3.6032267468373672e-05 -7.1786269201456801e-05 0 -3.7675279872789678e-05 -8.374596930419754e-05 0 -2.9510901081413756e-05 -7.8251265723542962e-05 0 -3.6032267468373672e-05 -7.1786269201456801e-05 0 -4.3284998702913433e-05 -6.8626342430042116e-05 0 -4.4829483849112801e-05 -8.2414564702809701e-05 0 -3.6032267468373672e-05 -7.1786269201456801e-05 0 -4.4829483849112801e-05 -8.2414564702809701e-05 0 -3.7675279872789685e-05 -8.374596930419754e-05 0 -8.8266625713895083e-05 -9.0291137752886456e-05 0 -8.2638236616112029e-05 -9.7414309403694139e-05 0 -7.3740761063246856e-05 -8.9353200603651932e-05 0 -8.8266625713895083e-05 -9.0291137752886456e-05 0 -7.3740761063246856e-05 -8.9353200603651932e-05 0 -7.6260798193133718e-05 -7.9069435441302005e-05 0 -9.1198251964413665e-05 -0.00010458871905704361 0 -7.7316586683919534e-05 -0.0001046387290909525 0 -8.2638236616112029e-05 -9.7414309403694152e-05 0 -8.8266625713895083e-05 -9.0291137752886456e-05 0 -9.1198251964413665e-05 -0.00010458871905704361 0 -8.2638236616112029e-05 -9.7414309403694152e-05 0 -7.7316586683919534e-05 -0.0001046387290909525 0 -7.3740761063246856e-05 -8.9353200603651932e-05 0 -8.2638236616112029e-05 -9.7414309403694152e-05 0 -6.4438929298340925e-05 -9.5663647786364218e-05 0 -6.2895946511532373e-05 -8.3256411320069832e-05 0 -7.3740761063246856e-05 -8.9353200603651932e-05 0 -6.4438929298340925e-05 -9.5663647786364218e-05 0 -7.3740761063246843e-05 -8.9353200603651932e-05 0 -7.7316586683919534e-05 -0.0001046387290909525 0 -6.4438929298340925e-05 -9.5663647786364218e-05 0 -7.7316586683919534e-05 -0.0001046387290909525 0 -6.7656917581539305e-05 -0.00010882601804304218 0 -6.4438929298340925e-05 -9.5663647786364218e-05 0 -5.3788482010706035e-05 -8.2513603434093127e-05 0 -6.2895946511532373e-05 -8.3256411320069832e-05 0 -6.687061543443955e-05 -7.5380632471931531e-05 0 -6.2895946511532373e-05 -8.3256411320069832e-05 0 -5.8250910245836638e-05 -7.4090128998392904e-05 0 -5.3788482010706035e-05 -8.2513603434093141e-05 0 -5.8250910245836638e-05 -7.4090128998392904e-05 0 -6.2895946511532373e-05 -8.3256411320069832e-05 0 -4.9967320451158506e-05 -6.4836460743314433e-05 0 -5.8111150771088349e-05 -6.4929434829403469e-05 0 -5.8250910245836638e-05 -7.4090128998392904e-05 0 -6.687061543443955e-05 -7.5380632471931531e-05 0 -5.8250910245836638e-05 -7.4090128998392904e-05 0 -5.8111150771088349e-05 -6.4929434829403469e-05 0 -6.687061543443955e-05 -7.5380632471931531e-05 0 -5.8111150771088349e-05 -6.4929434829403469e-05 0 -7.0008548824236597e-05 -6.6513051627160397e-05 0 -6.687061543443955e-05 -7.5380632471931531e-05 0 -7.3740761063246856e-05 -8.9353200603651932e-05 0 -6.2895946511532373e-05 -8.3256411320069832e-05 0 -6.687061543443955e-05 -7.5380632471931531e-05 0 -7.6260798193133718e-05 -7.9069435441302005e-05 0 -7.3740761063246856e-05 -8.9353200603651932e-05 0 -6.687061543443955e-05 -7.5380632471931531e-05 0 -7.0008548824236597e-05 -6.6513051627160397e-05 0 -7.6260798193133718e-05 -7.9069435441302005e-05 0 -8.4336252390445458e-05 -7.6216348360741665e-05 0 -7.6260798193133718e-05 -7.9069435441302005e-05 0 -7.0008548824236597e-05 -6.6513051627160397e-05 0 -8.4336252390445458e-05 -7.6216348360741665e-05 0 -8.826662571389507e-05 -9.0291137752886456e-05 0 -7.6260798193133718e-05 -7.9069435441302005e-05 0 -7.3107795082096613e-05 -5.0894651529681962e-05 0 -7.932091792213135e-05 -6.3033297103882977e-05 0 -6.7992840490940242e-05 -5.5139401750950041e-05 0 -7.932091792213135e-05 -6.3033297103882977e-05 0 -8.4336252390445458e-05 -7.6216348360741665e-05 0 -7.0008548824236597e-05 -6.6513051627160397e-05 0 -7.932091792213135e-05 -6.3033297103882977e-05 0 -7.0008548824236597e-05 -6.6513051627160397e-05 0 -6.7992840490940242e-05 -5.5139401750950041e-05 0 -5.9894377718248517e-05 -5.4327784347219799e-05 0 -6.7992840490940242e-05 -5.5139401750950041e-05 0 -7.0008548824236597e-05 -6.6513051627160397e-05 0 -5.9894377718248517e-05 -5.4327784347219799e-05 0 -7.0008548824236597e-05 -6.6513051627160397e-05 0 -5.8111150771088349e-05 -6.4929434829403469e-05 0 -4.9967320451158506e-05 -6.4836460743314433e-05 0 -5.345837819771339e-05 -5.5331444334288421e-05 0 -5.8111150771088349e-05 -6.4929434829403469e-05 0 -5.9894377718248517e-05 -5.4327784347219799e-05 0 -5.8111150771088349e-05 -6.4929434829403469e-05 0 -5.345837819771339e-05 -5.5331444334288421e-05 0 -4.6021404095613808e-05 -4.8086623940176313e-05 0 -5.2561795584630755e-05 -4.6930150822777234e-05 0 -5.345837819771339e-05 -5.5331444334288421e-05 0 -5.9894377718248517e-05 -5.4327784347219799e-05 0 -5.345837819771339e-05 -5.5331444334288421e-05 0 -5.2561795584630755e-05 -4.6930150822777234e-05 0 -4.6892860563839011e-05 -3.7467221453542643e-05 0 -5.8268938929866255e-05 -4.265433901702279e-05 0 -5.2561795584630755e-05 -4.6930150822777234e-05 0 -4.6892860563839011e-05 -3.7467221453542643e-05 0 -4.8008689071481622e-05 -3.2421843680180026e-05 0 -5.8268938929866255e-05 -4.265433901702279e-05 0 -5.9894377718248517e-05 -5.4327784347219799e-05 0 -5.2561795584630755e-05 -4.6930150822777234e-05 0 -5.8268938929866255e-05 -4.265433901702279e-05 0 -7.3107795082096613e-05 -5.0894651529681962e-05 0 -6.7992840490940242e-05 -5.5139401750950041e-05 0 -5.8268938929866255e-05 -4.265433901702279e-05 0 -5.9894377718248517e-05 -5.4327784347219799e-05 0 -5.8268938929866255e-05 -4.265433901702279e-05 0 -6.7992840490940242e-05 -5.5139401750950041e-05 0 -6.6496959892404164e-05 -4.046507461507892e-05 0 -7.3107795082096613e-05 -5.0894651529681962e-05 0 -5.8268938929866255e-05 -4.265433901702279e-05 0 -3.7318962563098066e-05 -4.3712910443096047e-05 0 -4.2076413269514708e-05 -5.572314936889719e-05 0 -3.3325010629288082e-05 -5.5300869397103546e-05 0 -3.7318962563098066e-05 -4.3712910443096047e-05 0 -3.3325010629288082e-05 -5.5300869397103546e-05 0 -2.9654493031050784e-05 -3.8687968936127612e-05 0 -3.3325010629288082e-05 -5.5300869397103546e-05 0 -4.2076413269514708e-05 -5.572314936889719e-05 0 -4.328499870291344e-05 -6.8626342430042129e-05 0 -4.9967320451158506e-05 -6.4836460743314433e-05 0 -4.328499870291344e-05 -6.8626342430042129e-05 0 -4.2076413269514708e-05 -5.572314936889719e-05 0 -4.9967320451158506e-05 -6.4836460743314433e-05 0 -4.6021404095613808e-05 -4.8086623940176313e-05 0 -5.345837819771339e-05 -5.5331444334288421e-05 0 -4.9967320451158506e-05 -6.4836460743314433e-05 0 -4.2076413269514708e-05 -5.572314936889719e-05 0 -4.6021404095613808e-05 -4.8086623940176313e-05 0 -3.7318962563098066e-05 -4.3712910443096047e-05 0 -4.6021404095613808e-05 -4.8086623940176313e-05 0 -4.2076413269514708e-05 -5.572314936889719e-05 0 -3.7318962563098066e-05 -4.3712910443096047e-05 0 -4.0233831023974108e-05 -3.6715740487848031e-05 0 -4.6021404095613808e-05 -4.8086623940176313e-05 0 -4.6892860563839011e-05 -3.7467221453542643e-05 0 -5.2561795584630755e-05 -4.6930150822777234e-05 0 -4.6021404095613808e-05 -4.8086623940176313e-05 0 -4.6892860563839011e-05 -3.7467221453542643e-05 0 -4.0233831023974108e-05 -3.6715740487848031e-05 0 -4.1500303736411699e-05 -3.1439303669551644e-05 0 -4.6892860563839011e-05 -3.7467221453542643e-05 0 -4.6021404095613808e-05 -4.8086623940176313e-05 0 -4.0233831023974108e-05 -3.6715740487848031e-05 0 -3.7318962563098066e-05 -4.3712910443096047e-05 0 -3.4344342116303299e-05 -3.2526523250579523e-05 0 -4.0233831023974108e-05 -3.6715740487848031e-05 0 -3.4344342116303299e-05 -3.2526523250579523e-05 0 -3.7318962563098066e-05 -4.3712910443096047e-05 0 -2.9654493031050784e-05 -3.8687968936127612e-05 0 -2.8377712980758003e-05 -2.727531201639728e-05 0 -3.4344342116303299e-05 -3.2526523250579523e-05 0 -2.9654493031050784e-05 -3.8687968936127612e-05 0 -2.4680047828314887e-05 -2.2663291787526381e-05 0 -2.8377712980758003e-05 -2.727531201639728e-05 0 -2.9654493031050784e-05 -3.8687968936127612e-05 0 -2.4680047828314887e-05 -2.2663291787526381e-05 0 -3.2780073664818584e-05 -1.8710283861749158e-05 0 -3.0955309464895323e-05 -1.7136029091290435e-05 0 -2.4680047828314887e-05 -2.2663291787526381e-05 0 -2.9654493031050784e-05 -3.8687968936127612e-05 0 -2.0161686608278112e-05 -4.0584279033075681e-05 0 -2.4445164492314037e-05 -2.2445018527719644e-05 0 -2.6350852638448825e-05 -2.9859618128083776e-05 0 -2.0161686608278112e-05 -4.0584279033075681e-05 0 -2.9654493031050784e-05 -3.8687968936127612e-05 0 -2.5539430346661536e-05 -4.9113918390062209e-05 0 -3.3325010629288082e-05 -5.5300869397103546e-05 0 -2.5539430346661536e-05 -4.9113918390062209e-05 0 -2.9654493031050784e-05 -3.8687968936127612e-05 0 -2.6350852638448825e-05 -2.9859618128083776e-05 0 -2.8578523865173415e-05 -3.8231870487559259e-05 0 -2.0161686608278112e-05 -4.0584279033075681e-05 0 -2.5539430346661536e-05 -4.9113918390062209e-05 0 -1.8746156913057688e-05 -5.4251113486266757e-05 0 -2.8578523865173415e-05 -3.8231870487559259e-05 0 -3.1065385041566964e-05 -4.7816323777171629e-05 0 -1.8746156913057688e-05 -5.4251113486266757e-05 0 -2.5539430346661536e-05 -4.9113918390062209e-05 0 -2.7103916619668498e-05 -6.2773974648444881e-05 0 -3.3325010629288082e-05 -5.5300869397103546e-05 0 -2.7103916619668498e-05 -6.2773974648444881e-05 0 -2.5539430346661536e-05 -4.9113918390062209e-05 0 -3.6284633437141038e-05 -1.9550276199137079e-05 0 -3.4207988968958613e-05 -1.7226553434968291e-05 0 -3.8540623783266394e-05 -2.2128932300884133e-05 0 -3.8419253510921801e-05 -2.2314992360890432e-05 0 -4.3039029259288473e-05 -2.736296670714723e-05 0 -3.8540623783266394e-05 -2.2128932300884133e-05 0 -3.8419253510921801e-05 -2.2314992360890432e-05 0 -3.8540623783266394e-05 -2.2128932300884133e-05 0 -3.4207988968958613e-05 -1.7226553434968291e-05 0 -3.2780073664818584e-05 -1.8710283861749158e-05 0 -3.8419253510921801e-05 -2.2314992360890432e-05 0 -3.4207988968958613e-05 -1.7226553434968291e-05 0 -3.4207988968958613e-05 -1.7226553434968291e-05 0 -3.0281039066453865e-05 -1.3256908737120424e-05 0 -3.0955309464895323e-05 -1.7136029091290435e-05 0 -3.2780073664818584e-05 -1.8710283861749158e-05 0 -3.4207988968958606e-05 -1.7226553434968288e-05 0 -3.0955309464895323e-05 -1.7136029091290435e-05 0 -2.4680047828314887e-05 -2.2663291787526381e-05 0 -3.0955309464895323e-05 -1.7136029091290435e-05 0 -2.7741875992967889e-05 -1.5640013909294316e-05 0 -3.0955309464895323e-05 -1.7136029091290435e-05 0 -3.0281039066453869e-05 -1.3256908737120424e-05 0 -2.7741875992967889e-05 -1.5640013909294316e-05 0 -3.0281039066453865e-05 -1.3256908737120424e-05 0 -3.4207988968958613e-05 -1.7226553434968291e-05 0 -3.3413773086908868e-05 -1.5651925215042841e-05 0 -3.0281039066453865e-05 -1.3256908737120424e-05 0 -3.3413773086908868e-05 -1.5651925215042841e-05 0 -2.9466456453128386e-05 -1.056870599583372e-05 0 -3.0281039066453865e-05 -1.3256908737120424e-05 0 -2.9466456453128386e-05 -1.056870599583372e-05 0 -2.6153834777466782e-05 -8.0745478837111635e-06 0 -2.4646499340978686e-05 -4.2392826490026261e-06 0 -2.9466456453128386e-05 -1.056870599583372e-05 0 -2.7160659067624153e-05 -7.1455077230745505e-06 0 -2.4646499340978686e-05 -4.2392826490026261e-06 0 -2.6153834777466782e-05 -8.0745478837111635e-06 0 -2.9466456453128386e-05 -1.056870599583372e-05 0 -3.0110388252259405e-05 -1.2581049628156236e-05 0 -2.7160659067624153e-05 -7.1455077230745505e-06 0 -2.9466456453128386e-05 -1.056870599583372e-05 0 -3.0110388252259405e-05 -1.2581049628156236e-05 0 -3.1783463817562425e-05 -1.4391627733183938e-05 0 -3.2668721998593283e-05 -1.7838804456004914e-05 0 -3.0110388252259405e-05 -1.2581049628156236e-05 0 -2.9466456453128386e-05 -1.056870599583372e-05 0 -3.1783463817562425e-05 -1.4391627733183938e-05 0 -3.4107982406862793e-05 -1.8273304382608446e-05 0 -3.1783463817562425e-05 -1.4391627733183938e-05 0 -3.3413773086908868e-05 -1.5651925215042841e-05 0 -2.9466456453128386e-05 -1.056870599583372e-05 0 -3.3413773086908868e-05 -1.5651925215042841e-05 0 -3.1783463817562425e-05 -1.4391627733183938e-05 0 -3.4107982406862793e-05 -1.8273304382608446e-05 0 -3.2668721998593283e-05 -1.7838804456004914e-05 0 -3.1783463817562425e-05 -1.4391627733183938e-05 0 -3.6284633437141038e-05 -1.9550276199137079e-05 0 -3.3413773086908868e-05 -1.5651925215042841e-05 0 -3.4207988968958613e-05 -1.7226553434968291e-05 0 -3.4107982406862793e-05 -1.8273304382608446e-05 0 -3.3413773086908868e-05 -1.5651925215042841e-05 0 -3.6877207731565212e-05 -2.1817717251233644e-05 0 -3.6284633437141038e-05 -1.9550276199137079e-05 0 -3.6877207731565212e-05 -2.1817717251233644e-05 0 -3.3413773086908868e-05 -1.5651925215042841e-05 0 -3.6284633437141038e-05 -1.9550276199137079e-05 0 -4.005523188210951e-05 -2.5041622534896439e-05 0 -3.6877207731565212e-05 -2.1817717251233644e-05 0 -3.8347236948235952e-05 -2.6707630453226487e-05 0 -3.5436826457518935e-05 -2.2377016910610501e-05 0 -3.6877207731565212e-05 -2.1817717251233644e-05 0 -3.8347236948235952e-05 -2.6707630453226487e-05 0 -3.6877207731565212e-05 -2.1817717251233644e-05 0 -4.0163330988949886e-05 -2.6885803932015611e-05 0 -4.005523188210951e-05 -2.5041622534896439e-05 0 -4.0163330988949886e-05 -2.6885803932015611e-05 0 -3.6877207731565212e-05 -2.1817717251233644e-05 0 -3.3540491568458831e-05 -2.2208271157928706e-05 0 -3.2668721998593283e-05 -1.7838804456004914e-05 0 -3.5436826457518935e-05 -2.2377016910610501e-05 0 -3.4107982406862793e-05 -1.8273304382608446e-05 0 -3.5436826457518935e-05 -2.2377016910610501e-05 0 -3.2668721998593283e-05 -1.7838804456004914e-05 0 -3.4107982406862793e-05 -1.8273304382608446e-05 0 -3.6877207731565212e-05 -2.1817717251233644e-05 0 -3.5436826457518935e-05 -2.2377016910610501e-05 0 -3.8347236948235952e-05 -2.6707630453226487e-05 0 -3.5869829611930136e-05 -2.6914153448278549e-05 0 -3.5436826457518935e-05 -2.2377016910610501e-05 0 -3.3540491568458831e-05 -2.2208271157928706e-05 0 -3.5436826457518935e-05 -2.2377016910610501e-05 0 -3.5869829611930136e-05 -2.6914153448278549e-05 0 -3.4214357044069272e-05 -2.9189927211416127e-05 0 -3.5869829611930136e-05 -2.6914153448278549e-05 0 -3.7018642025128601e-05 -3.1757418418495612e-05 0 -3.8347236948235952e-05 -2.6707630453226487e-05 0 -3.9307105852040053e-05 -3.13932816009583e-05 0 -3.5869829611930136e-05 -2.6914153448278549e-05 0 -3.9307105852040053e-05 -3.13932816009583e-05 0 -3.7018642025128601e-05 -3.1757418418495612e-05 0 -3.5869829611930136e-05 -2.6914153448278549e-05 0 -4.3034486625667803e-05 -3.1043786889561202e-05 0 -4.1506140767031968e-05 -3.1148813765569924e-05 0 -4.0163330988949886e-05 -2.6885803932015611e-05 0 -3.8347236948235952e-05 -2.6707630453226487e-05 0 -4.1506140767031968e-05 -3.1148813765569924e-05 0 -3.9307105852040053e-05 -3.13932816009583e-05 0 -3.8347236948235952e-05 -2.6707630453226487e-05 0 -4.0163330988949886e-05 -2.6885803932015611e-05 0 -4.1506140767031968e-05 -3.1148813765569924e-05 0 -4.3372392307429893e-05 -3.5535918428084179e-05 0 -3.9307105852040053e-05 -3.13932816009583e-05 0 -4.1506140767031968e-05 -3.1148813765569924e-05 0 -4.3034486625667803e-05 -3.1043786889561202e-05 0 -4.4272417495328198e-05 -3.3984962080266594e-05 0 -4.1506140767031968e-05 -3.1148813765569924e-05 0 -4.3372392307429893e-05 -3.5535918428084179e-05 0 -4.1506140767031968e-05 -3.1148813765569924e-05 0 -4.4272417495328198e-05 -3.3984962080266594e-05 0 -4.3034486625667803e-05 -3.1043786889561202e-05 0 -4.5565956273974687e-05 -3.3904805111953396e-05 0 -4.4272417495328198e-05 -3.3984962080266594e-05 0 -4.3034486625667803e-05 -3.1043786889561202e-05 0 -4.3285390344423413e-05 -2.9558948196187546e-05 0 -4.5565956273974687e-05 -3.3904805111953396e-05 0 -4.3034486625667803e-05 -3.1043786889561202e-05 0 -4.0163330988949886e-05 -2.6885803932015611e-05 0 -4.3285390344423413e-05 -2.9558948196187546e-05 0 -4.6484923987673555e-05 -3.292721911094192e-05 0 -4.5565956273974687e-05 -3.3904805111953396e-05 0 -4.3285390344423413e-05 -2.9558948196187546e-05 0 -2.0114705879164576e-05 -8.238022802621127e-05 0 -3.3106755756798375e-05 -9.2167522004126136e-05 0 -2.1650693499246999e-05 -9.6802345689894813e-05 0 -3.3360970853614067e-05 -5.7661449637361614e-05 0 -3.5398206955524287e-05 -6.7422085579117488e-05 0 -4.6484923987673555e-05 -3.292721911094192e-05 0 -4.8956609073651307e-05 -3.8027537466010635e-05 0 -4.5565956273974687e-05 -3.3904805111953396e-05 0 -2.1650693499246999e-05 -9.6802345689894813e-05 0 -3.3106755756798375e-05 -9.2167522004126136e-05 0 -3.2497028708224922e-05 -0.00010541540047072537 0 -2.0114705879164576e-05 -8.238022802621127e-05 0 -2.9510901081413756e-05 -7.8251265723542962e-05 0 -3.3106755756798375e-05 -9.2167522004126136e-05 0 -1.9051826744805375e-05 -6.8206500779232051e-05 0 -2.9510901081413756e-05 -7.8251265723542962e-05 0 -2.0114705879164576e-05 -8.238022802621127e-05 0 -4.3039029259288473e-05 -2.736296670714723e-05 0 -4.6484923987673555e-05 -3.292721911094192e-05 0 -4.3285390344423413e-05 -2.9558948196187546e-05 0 -3.1065385041566964e-05 -4.7816323777171629e-05 0 -3.3360970853614067e-05 -5.7661449637361614e-05 0 -1.9051826744805375e-05 -6.8206500779232051e-05 0 -2.7103916619668498e-05 -6.2773974648444881e-05 0 -2.9510901081413756e-05 -7.8251265723542962e-05 0 -3.6032267468373672e-05 -7.1786269201456801e-05 0 -2.9510901081413756e-05 -7.8251265723542962e-05 0 -2.7103916619668498e-05 -6.2773974648444881e-05 0 -1.8746156913057688e-05 -5.4251113486266757e-05 0 -2.7103916619668498e-05 -6.2773974648444881e-05 0 -1.9051826744805375e-05 -6.8206500779232051e-05 0 -4.3039029259288473e-05 -2.736296670714723e-05 0 -4.005523188210951e-05 -2.5041622534896439e-05 0 -3.8540623783266394e-05 -2.2128932300884133e-05 0 -3.6284633437141038e-05 -1.9550276199137079e-05 0 -3.8540623783266394e-05 -2.2128932300884133e-05 0 -4.005523188210951e-05 -2.5041622534896439e-05 0 -4.005523188210951e-05 -2.5041622534896439e-05 0 -4.3285390344423413e-05 -2.9558948196187546e-05 0 -4.0163330988949886e-05 -2.6885803932015611e-05 0 -4.3039029259288473e-05 -2.736296670714723e-05 0 -4.3285390344423413e-05 -2.9558948196187546e-05 0 -4.005523188210951e-05 -2.5041622534896439e-05 0 
</DataArray>
</PointData>
<CellData Scalars="region_id,cross_section_updated,displacement_divergence," Vectors="" Tensors="stress,">
<DataArray type="Float64" Name="region_id" format="ascii">
1 1 1 1 1 1 1 1 1 1 1 1 1 1 1 1 1 1 1 1 1 1 1 1 1 1 1 1 1 1 1 1 1 1 1 1 1 1 1 1 1 1 1 1 1 1 1 1 1 1 1 1 1 1 1 1 1 1 1 1 1 1 1 1 1 1 1 1 1 1 1 1 1 1 1 1 1 1 1 1 1 1 1 1 1 1 1 1 1 1 1 1 1 1 1 1 1 1 1 1 1 1 1 1 1 1 1 1 1 1 1 1 1 1 1 1 1 1 1 1 1 1 1 1 1 1 1 1 1 1 1 1 1 1 1 1 1 1 1 1 1 1 1 1 1 1 1 1 1 1 1 1 1 1 1 1 1 1 1 1 1 1 1 1 1 1 1 1 1 1 1 1 1 1 1 1 1 1 1 1 1 1 1 1 1 1 1 1 1 1 1 1 1 1 1 1 1 1 1 1 1 1 1 1 1 1 1 1 1 1 1 1 1 1 1 1 1 1 1 1 1 1 1 1 1 1 1 1 1 1 1 1 1 1 1 1 1 1 1 1 1 1 1 1 1 1 1 1 1 1 1 1 1 1 1 1 1 1 1 1 1 1 1 1 1 1 1 1 1 1 1 1 1 1 1 1 1 1 1 1 1 1 1 1 1 1 1 1 1 1 1 1 1 1 1 1 1 1 1 1 1 1 1 1 1 1 1 1 1 1 1 1 1 1 1 1 1 1 1 1 1 1 1 1 1 1 1 1 1 1 1 1 1 1 1 1 1 1 1 1 1 1 1 1 1 1 1 1 1 1 1 1 1 1 1 1 1 1 1 1 1 1 1 1 1 1 1 1 1 1 1 1 1 1 1 1 1 1 1 1 1 1 1 1 1 1 1 1 1 1 1 1 1 1 1 1 1 1 1 1 1 1 1 1 1 1 1 1 1 1 1 1 1 1 1 1 1 1 1 1 1 1 1 1 1 1 1 1 1 1 1 1 1 1 1 1 1 1 1 1 1 1 1 1 1 1 1 1 1 1 1 1 1 1 1 1 1 1 1 1 1 1 1 1 1 1 1 1 1 1 1 1 1 1 1 1 1 1 1 1 1 1 1 1 1 1 1 1 1 1 1 1 1 1 1 1 1 1 1 1 1 1 1 1 1 1 1 1 1 1 1 1 1 1 1 1 1 1 1 1 1 1 1 1 1 1 1 1 1 1 1 1 1 1 1 1 1 1 3 1 1 3 1 1 3 1 1 1 1 1 1 1 1 1 1 1 1 1 3 1 1 1 1 1 3 1 1 1 1 1 1 1 1 1 1 1 1 1 1 1 1 1 1 1 1 1 1 1 1 1 1 1 1 1 1 1 1 1 1 1 1 1 1 1 1 1 1 1 1 1 1 1 1 1 1 1 1 1 1 1 1 1 1 1 1 1 1 1 1 1 1 1 1 1 1 1 1 1 1 1 1 1 1 1 1 1 1 1 1 1 1 1 1 1 1 1 1 1 1 1 1 1 1 1 1 1 1 1 1 1 1 1 1 1 1 1 1 1 1 1 1 1 1 1 1 1 1 1 1 1 1 1 1 1 1 1 1 1 1 1 1 1 1 1 1 1 1 1 1 1 1 1 1 1 1 1 1 1 1 1 1 1 1 1 1 1 1 1 1 1 1 1 1 3 1 1 1 3 1 1 3 1 1 1 1 1 1 1 1 1 1 1 3 1 1 1 1 3 1 1 1 1 1 1 1 1 1 1 1 1 1 1 1 1 1 1 1 1 1 1 1 1 1 1 1 1 1 1 1 1 1 1 1 1 1 1 1 1 1 1 1 1 1 1 1 1 1 1 1 1 1 1 1 1 1 1 2 1 1 1 1 1 1 1 1 1 1 1 1 1 1 2 1 1 2 1 2 1 1 1 1 1 1 1 1 1 1 1 1 1 2 1 1 1 1 1 1 1 1 1 1 1 1 1 1 1 1 1 1 1 1 1 1 1 1 1 1 1 1 1 1 1 1 1 1 1 1 1 1 1 1 1 1 1 1 1 1 1 1 1 1 1 1 1 1 1 1 1 1 1 1 1 1 1 1 1 1 1 1 1 1 1 1 1 1 1 1 1 1 1 1 1 1 1 1 1 1 1 1 1 1 1 1 1 1 1 1 1 1 1 1 1 1 1 1 1 1 1 1 1 1 1 1 1 1 1 1 1 1 1 1 1 1 1 1 1 1 1 1 1 1 1 1 1 1 1 1 2 1 1 2 1 2 1 1 1 1 1 1 1 1 1 1 1 1 1 1 1 1 1 1 1 1 1 1 1 1 1 1 1 1 1 1 1 1 1 1 1 1 1 1 1 1 1 1 1 1 1 1 1 2 1 1 1 1 1 2 1 1 1 1 1 1 1 
</DataArray>
<DataArray type="Float64" Name="stress" NumberOfComponents="9" format="ascii">
-0.14885518257806796 -0.019125741472945226 0 -0.019125741472945226 -0.020511742676543931 0 0 0 -0.042341731313652972 -0.12862905604937069 -0.019653034990649514 0 -0.019653034990649514 -0.042798388478238594 0 0 0 -0.042856861131902318 -0.13537357185189119 -0.011369854415471801 0 -0.011369854415471801 -0.0030693107252579158 0 0 0 -0.034610720644287288 -0.11722316169234082 -0.012939175500714394 0 -0.012939175500714394 -0.027254033952606539 0 0 0 -0.03611929891123683 -0.10161537823133183 -0.0070226101705782255 0 -0.0070226101705782255 -0.033890865860649613 0 0 0 -0.033876561022995362 -0.10160182141364575 -0.0070105536247053041 0 -0.0070105536247053041 -0.033847000781332015 0 0 0 -0.033862205548744445 -0.10710053262932928 -0.0046216346250845036 0 -0.0046216346250845036 -0.014808916960581855 0 0 0 -0.030477362397477784 -0.1142342677447177 -0.0095814574231733764 0 -0.0095814574231733764 -0.01920694862405908 0 0 0 -0.033360304092194197 -0.10803965196025704 -0.0048030423425971924 0 -0.0048030423425971924 -0.017953894428068919 0 0 0 -0.031498386597081492 -0.096768656497691063 -0.001321458701134961 0 -0.001321458701134961 -0.012160274163525289 0 0 0 -0.027232232665304085 -0.11267451958188672 -0.0018759713145514185 0 -0.0018759713145514185 -0.011559236786071798 0 0 0 -0.031058439091989642 -0.096624143986113867 0.0017781567182889781 0 0.0017781567182889781 -0.0050975022555186517 0 0 0 -0.025430411560408133 -0.11815662682897951 0.0005881706821919408 0 0.0005881706821919408 -0.0052105019705037739 0 0 0 -0.030841782199870837 -0.11058040937452786 -0.00031964009057214304 0 -0.00031964009057214304 -0.002834479690644362 0 0 0 -0.028353722266293058 -0.12455311428620085 0.0010236857536077297 0 0.0010236857536077297 -0.0022197607402695274 0 0 0 -0.031693218756617576 -0.12387927788758799 -0.0017029119058880311 0 -0.0017029119058880311 -0.00092309775045268383 0 0 0 -0.031200593909510171 -0.1196767324279466 -0.00055616105749194469 0 -0.00055616105749194469 -0.00035705532876756331 0 0 0 -0.030008446939178531 -0.12379001608201143 -0.004785369718521254 0 -0.004785369718521254 -0.010369980316153077 0 0 0 -0.033539999099541126 -0.072131384815401045 0.0018429800132144583 0 0.0018429800132144583 -0.024038965214098144 0 0 0 -0.024042587507374799 -0.075857840340231047 0.0037136749502086632 0 0.0037136749502086632 -0.019809714303053724 0 0 0 -0.023916888660821194 -0.080374497273357964 0.00015530862938238217 0 0.00015530862938238217 -0.020001598491672368 0 0 0 -0.025094023941257579 -0.089037528912720806 0.00058409108915164171 0 0.00058409108915164171 -0.019994382662494713 0 0 0 -0.027257977893803877 -0.089829482731654212 -0.00091515874385853044 0 -0.00091515874385853044 -0.02145480546508232 0 0 0 -0.027821072049184131 -0.081833168557417138 0.0021631595342083976 0 0.0021631595342083976 -0.017706629922262657 0 0 0 -0.024884949619919945 -0.081720111501708381 -0.00025347558751232424 0 -0.00025347558751232424 -0.027246882836584427 0 0 0 -0.027241748584573199 -0.093141247098323332 0.0017364872677086505 0 0.0017364872677086505 -0.01132853136354605 0 0 0 -0.026117444615467347 -0.095076272448268218 -0.00017032854602846287 0 -0.00017032854602846287 -0.011747908207694377 0 0 0 -0.026706045163990662 -0.090583696720465845 -0.00065816037912568362 0 -0.00065816037912568362 -0.017288619808410396 0 0 0 -0.026968079132219068 -0.078741415287539543 0.00070638539904824033 0 0.00070638539904824033 -0.014566690576493627 0 0 0 -0.023327026466008295 -0.078388887302498975 0.0022712612955300398 0 0.0022712612955300398 -0.012787290766968138 0 0 0 -0.022794044517366788 -0.0718257079509005 0.0044057145537851825 0 0.0044057145537851825 -0.015433431577753906 0 0 0 -0.021814784882163603 -0.069161295028146844 0.0010899949579007396 0 0.0010899949579007396 -0.018533964838485868 0 0 0 -0.021923814966658177 -0.070224558070474147 0.0037183275811914383 0 0.0037183275811914383 -0.01095187469721689 0 0 0 -0.020294108191922757 -0.071750834473417652 0.00093018508235951465 0 0.00093018508235951465 -0.010257986891158803 0 0 0 -0.020502205341144109 -0.080842736374325555 0.0042183540107554839 0 0.0042183540107554839 -0.0074382779612463257 0 0 0 -0.022070253583892963 -0.095016962719456949 0.0043488168365456419 0 0.0043488168365456419 -0.0063996928049692564 0 0 0 -0.025354163881106555 -0.090439059662971888 0.0028136950142686971 0 0.0028136950142686971 -0.0098249043948540771 0 0 0 -0.025065991014456494 -0.08275750514996788 0.0022458980440758954 0 0.0022458980440758954 -0.0074959428029961125 0 0 0 -0.022563361988241 -0.094172684614530253 0.0036345603609842583 0 0.0036345603609842583 -0.0032363099994061756 0 0 0 -0.024352248653484117 -0.097352612030586261 0.0059638723910206207 0 0.0059638723910206207 -0.0036224342793138992 0 0 0 -0.025243761577475043 -0.087484814367428471 0.0045500182727844646 0 0.0045500182727844646 -0.0016375739014861806 0 0 0 -0.022280597067228645 -0.083264153138680297 0.0069757004907572348 0 0.0069757004907572348 -0.00033168180930420732 0 0 0 -0.020898958736996133 -0.083600700293020094 0.0035223814592671441 0 0.0035223814592671441 -0.0029795639795059392 0 0 0 -0.021645066068131505 -0.073642929135545709 0.0021916505324324348 0 0.0021916505324324348 -0.005267593460731467 0 0 0 -0.019727630649069308 -0.082776460250767472 0.0054600607134277605 0 0.0054600607134277605 -0.0038551940812001466 0 0 0 -0.021657913582991916 -0.079273579238858999 0.0016648735869208217 0 0.0016648735869208217 -0.0012664339837444999 0 0 0 -0.020135003305650864 -0.065201231688485933 0.0017817254284504588 0 0.0017817254284504588 -0.0030512458528379055 0 0 0 -0.017063119385330942 -0.072379735476226351 0.0032526913287310687 0 0.0032526913287310687 -0.0035935767283137854 0 0 0 -0.018993328051135034 -0.12210390381716199 0.001977279451305089 0 0.001977279451305089 -0.0012796050607019327 0 0 0 -0.030845877219465998 -0.11538180922322429 0.0056090110951955777 0 0.0056090110951955777 -0.0010007069003936109 0 0 0 -0.029095629030904485 -0.13034719258990277 0.0034351813315100094 0 0.0034351813315100094 -0.00087722283434127357 0 0 0 -0.032806103856061031 -0.11976978312819928 0.0027730813419159436 0 0.0027730813419159436 -0.00037874267149258945 0 0 0 -0.030037131449922969 -0.10659377782505804 0.0028209369676565621 0 0.0028209369676565621 -0.0020484333856910023 0 0 0 -0.027160552802687296 -0.10763627862543766 0.0019636203288609932 0 0.0019636203288609932 -0.0073854845285705184 0 0 0 -0.028755440788502066 -0.10772452581158311 0.0051020644059684359 0 0.0051020644059684359 -0.0045095931429034591 0 0 0 -0.028058529738621628 -0.11136224850195114 0.0023140030097179576 0 0.0023140030097179576 -0.0025402314232790546 0 0 0 -0.028475619981307543 -0.09780290027796347 0.0047403223517709855 0 0.0047403223517709855 -0.0018928667491610179 0 0 0 -0.024923941756781129 -0.11184880938551645 0.0061719503302395213 0 0.0061719503302395213 -0.0025040343019823441 0 0 0 -0.028588210921874684 -0.10069244992951389 0.0049357435388660865 0 0.0049357435388660865 -0.00074585610301225458 0 0 0 -0.025359576508131587 -0.11089571285613345 0.0057891084817341815 0 0.0057891084817341815 0.00017080645281541962 0 0 0 -0.027681226600829494 -0.12280760730527224 0.0041848909383503524 0 0.0041848909383503524 -0.00076510723414166537 0 0 0 -0.030893178634853476 -0.12247935151249426 0.0041652227179552748 0 0.0041652227179552748 -0.0014723787421411505 0 0 0 -0.030987932563658845 -0.12144621345925508 0.003225766028322849 0 0.003225766028322849 0.00050210206848924632 0 0 0 -0.03023602784769145 -0.13649029775642163 0.0039183175013058407 0 0.0039183175013058407 -0.00062520753774186755 0 0 0 -0.034278876323540847 -0.1398531152656548 0.0034557589632690511 0 0.0034557589632690511 -0.00045802277505346822 0 0 0 -0.035077784510177089 -0.12250957153002393 0.004464109604572844 0 0.004464109604572844 0.0013309289012722325 0 0 0 -0.030294660657187937 -0.12782241109881323 0.0028804053265205354 0 0.0028804053265205354 0.0009284438019200314 0 0 0 -0.031723491824223279 -0.14962607940648659 0.002189831346697695 0 0.002189831346697695 0.0013047347316265112 0 0 0 -0.03708033616871502 -0.12950895379324068 0.005857426368207963 0 0.005857426368207963 0.0022445448470210239 0 0 0 -0.031816102236554886 -0.12479237841477518 -0.00069328331914120245 0 -0.00069328331914120245 0.00065349368784828332 0 0 0 -0.03103472118173177 -0.1321428662995647 0.0023965856834383403 0 0.0023965856834383403 0.0026002311319275051 0 0 0 -0.032385658791909265 -0.15749066970445658 -0.0010037033716162257 0 -0.0010037033716162257 -0.00036911077723256192 0 0 0 -0.039464945120422201 -0.10166420080563698 -0.00095258722934464524 0 -0.00095258722934464524 0.0064935990459954462 0 0 0 -0.023792650439910384 -0.098777146418097941 0.0068069118203600842 0 0.0068069118203600842 0.003834051379079606 0 0 0 -0.023735773759754566 -0.11366852196467675 0.005117530834708707 0 0.005117530834708707 0.00053414558049430516 0 0 0 -0.028283594096045639 -0.11284249371330804 0.0042236065724803873 0 0.0042236065724803873 0.0030995949445188908 0 0 0 -0.027435724692197266 -0.10003398108392154 0.0082944836608526834 0 0.0082944836608526834 0.0020955119164270952 0 0 0 -0.024484617291873623 -0.12308769736755142 0.0084853927281895863 0 0.0084853927281895863 0.0026229707482782749 0 0 0 -0.030116181654818275 -0.11263470834950745 0.004287901849925127 0 0.004287901849925127 6.1411259233340454e-05 0 0 0 -0.02814332427256859 -0.11153010331920452 0.0080137611360896616 0 0.0080137611360896616 0.00047327449044196209 0 0 0 -0.027764207207190608 -0.099501117670571279 0.0064614924935449125 0 0.0064614924935449125 -0.00032530712187701927 0 0 0 -0.024956606198112095 -0.087891950104940927 0.0063833909374695491 0 0.0063833909374695491 0.0009422327795164942 0 0 0 -0.021737429331356126 -0.087827825560020459 0.0031653072492119627 0 0.0031653072492119627 0.0010177590257600816 0 0 0 -0.021702516633565101 -0.084658217794646579 0.0022349275513919714 0 0.0022349275513919714 0.0050137499016265907 0 0 0 -0.019911116973255004 -0.077700578747971955 0.0051003675698447354 0 0.0051003675698447354 0.0017371484629868095 0 0 0 -0.018990857571246279 -0.099228032729649931 0.0043512476946341618 0 0.0043512476946341618 0.0020940024394619505 0 0 0 -0.024283507572546992 -0.069832034476524293 0.00020894525188881394 0 0.00020894525188881394 0.001980375704967105 0 0 0 -0.016962914692889297 -0.0724327384212302 0.0046746912166696422 0 0.0046746912166696422 -0.00049416246583065121 0 0 0 -0.018231725221765201 -0.075292980537152041 3.4216410207056798e-05 0 3.4216410207056798e-05 0.0047995066162952738 0 0 0 -0.017623368480214202 -0.062370725966059852 -0.0041760431901156983 0 -0.0041760431901156983 0.0080209615639373344 0 0 0 -0.013587441100530652 -0.065818912373979674 0.0024112492741723106 0 0.0024112492741723106 0.0047685430906942439 0 0 0 -0.015262592320821361 -0.072546804218979077 -0.00064794932388435866 0 -0.00064794932388435866 0.011140533160413663 0 0 0 -0.01535156776464134 -0.058088108537493063 -0.0028011511960412405 0 -0.0028011511960412405 0.011620230417308308 0 0 0 -0.011616969530046192 -0.059975088692343741 -0.005940539688841534 0 -0.005940539688841534 0.019119396575046577 0 0 0 -0.010213923029324251 -0.086344721586149489 0.0065433738172279779 0 0.0065433738172279779 0.0034233888612278385 0 0 0 -0.020730333181230395 -0.091240596838535859 0.001077535922459294 0 0.001077535922459294 0.0051354691006866016 0 0 0 -0.021526281934462287 -0.072363403243547703 0.0019379113895889449 0 0.0019379113895889449 0.005540488309693864 0 0 0 -0.01670572873346346 -0.077003097828403172 -0.001727563190825912 0 -0.001727563190825912 0.0098478190096238927 0 0 0 -0.016788819704694841 -0.084289004107581875 0.0044759950572915014 0 0.0044759950572915014 0.0093347622548808351 0 0 0 -0.018738560463175291 -0.090941053342354028 0.0037714473105352198 0 0.0037714473105352198 0.011540783856204995 0 0 0 -0.0198500673715373 -0.079881090998511761 -0.0034843543781383629 0 -0.0034843543781383629 0.024629161920216136 0 0 0 -0.013812982269573865 -0.085719207371710432 -0.0068395232267934036 0 -0.0068395232267934036 0.013167189219144691 0 0 0 -0.018138004538141492 -0.041600042372732876 -0.010027663275453853 0 -0.010027663275453853 0.022605546847490221 0 0 0 -0.0047486238813106429 -0.074329071454566756 -0.00033019668139416813 0 -0.00033019668139416813 0.01740025361370634 0 0 0 -0.014232204460215128 -0.060181996181748472 -0.0060655046982873995 0 -0.0060655046982873995 0.018822754367276928 0 0 0 -0.01033981045361787 -0.059133421176722822 -0.0063625849435459819 0 -0.0063625849435459819 0.03080796859205398 0 0 0 -0.0070813631461671966 -0.043616963050569439 -0.015077902548124716 0 -0.015077902548124716 0.033428782348580058 0 0 0 -0.002547045175497413 -0.060006252508915128 -0.011234535802754825 0 -0.011234535802754825 0.046200320271168882 0 0 0 -0.0034514830594365581 -0.060598080479195848 -0.023021940297387883 0 -0.023021940297387883 0.04398031977369854 0 0 0 -0.004154440176374341 -0.053730969940237433 -0.026987987035847372 0 -0.026987987035847372 0.038424410672262654 0 0 0 -0.0038266398169937432 -0.041750161570213717 -0.020705158562622672 0 -0.020705158562622672 0.069836845484382959 0 0 0 0.0070216709785423381 -0.08176698592542847 -0.014744754593394027 0 -0.014744754593394027 0.029322499433924065 0 0 0 -0.013111121622876143 -0.067074923493956162 -0.012380342133146122 0 -0.012380342133146122 0.022553371801737221 0 0 0 -0.011130387923054708 -0.065780712841973246 -0.025084938015556835 0 -0.025084938015556835 0.026873308097908999 0 0 0 -0.0097268511860159751 -0.087121688178150719 -0.0095891962756557425 0 -0.0095891962756557425 0.014205824319234228 0 0 0 -0.018228965964729088 -0.085345634797557468 -0.019993278924264751 0 -0.019993278924264751 0.018136522498881424 0 0 0 -0.016802278074668997 -0.10190034541815167 -0.011936717238181009 0 -0.011936717238181009 0.01269388936287863 0 0 0 -0.022301614013818249 -0.11175749808386634 -0.0028681714659460067 0 -0.0028681714659460067 0.0045051464336031133 0 0 0 -0.026813087912565842 -0.11334528418406711 -0.015081362461554393 0 -0.015081362461554393 0.009610078265668176 0 0 0 -0.0259338014795997 -0.12519465516018669 -0.0026867384977716791 0 -0.0026867384977716791 0.0011787237454246591 0 0 0 -0.031003982853690604 -0.1542710759667858 -0.0033889985503888541 0 -0.0033889985503888541 0.0036785745799108316 0 0 0 -0.037648125346718742 -0.13215082639988121 8.5647196904625744e-05 0 8.5647196904625744e-05 0.0019189376805007208 0 0 0 -0.032557972179845157 -0.12833988368478005 -0.0063776605148559429 0 -0.0063776605148559429 0.0043921347244670061 0 0 0 -0.030986937240078213 -0.13518403034072651 -0.0027051458969913345 0 -0.0027051458969913345 0.00042206407158995596 0 0 0 -0.033690491567284098 -0.12541110429716262 0.0033375317268571625 0 0.0033375317268571625 0.0023228230137475325 0 0 0 -0.030772070320853828 -0.15980403805213184 0.0014758803431631302 0 0.0014758803431631302 0.00079356190299018081 0 0 0 -0.039752619037285442 -0.13638717776502901 0.0054431257344676187 0 0.0054431257344676187 0.0015856067824152748 0 0 0 -0.033700392745653458 -0.11297055551845755 0.005380489191564003 0 0.005380489191564003 0.0054114336210596692 0 0 0 -0.026889780474349451 -0.10025743725401319 0.00039613553354830855 0 0.00039613553354830855 0.010023745998945156 0 0 0 -0.02255842281376701 -0.11214239264287923 -0.0044110916630377556 0 -0.0044110916630377556 0.0067919942538023914 0 0 0 -0.026337599597269223 -0.065464208347079958 -0.01181413515876939 0 -0.01181413515876939 0.062359491361076269 0 0 0 -0.00077617924650091874 -0.064776360136392486 -0.013240752039354419 0 -0.013240752039354419 0.051256976190303227 0 0 0 -0.0033798459865223701 -0.064033654902839354 -0.016708279842330254 0 -0.016708279842330254 0.046026821104002844 0 0 0 -0.0045017084497091311 -0.072377012489944909 -0.0069188856935917982 0 -0.0069188856935917982 0.052986773457424585 0 0 0 -0.0048475597581301016 -0.069607296200610166 0.0014024715216670479 0 0.0014024715216670479 0.058299339569572242 0 0 0 -0.0028269891577594863 -0.064181075419938186 -0.0017754893121460797 0 -0.0017754893121460797 0.069139927931188463 0 0 0 0.0012397131278125573 -0.074244103494248384 -0.010012884899513953 0 -0.010012884899513953 0.066785242962207586 0 0 0 -0.001864715133010167 -0.073633701205712568 -0.0093328314446579491 0 -0.0093328314446579491 0.063125051488645362 0 0 0 -0.0026271624292667634 -0.071462387698746854 -0.010740232839055871 0 -0.010740232839055871 0.063007099994554672 0 0 0 -0.0021138219260480456 -0.071593517093620329 -0.0099886569388431268 0 -0.0099886569388431268 0.058357931007545299 0 0 0 -0.0033088965215187505 -0.078527059844560265 -0.0094935644097482591 0 -0.0094935644097482591 0.057471323702357802 0 0 0 -0.0052639340355506367 -0.073411913677329965 -0.013354439936537059 0 -0.013354439936537059 0.06363689816621379 0 0 0 -0.0024437538777790785 -0.074156095734890487 -0.014236584235640642 0 -0.014236584235640642 0.061551129676134089 0 0 0 -0.003151241514689096 -0.07189727444779756 -0.020126901685862578 0 -0.020126901685862578 0.06670186552428331 0 0 0 -0.0012988522308785555 -0.073516084488209399 -0.013522333737877017 0 -0.013522333737877017 0.074534779574023047 0 0 0 0.00025467377145341197 -0.023199239401700683 -0.061288053228503447 0 -0.061288053228503447 0.11966310695831407 0 0 0 0.024115966889153323 -0.080617241580649784 -0.036318832455630071 0 -0.036318832455630071 0.07459588128645453 0 0 0 -0.0015053400735487998 -0.028033181221791964 -0.042147607052381658 0 -0.042147607052381658 0.066450944909149851 0 0 0 0.0096044409218394577 -0.078865762131864303 -0.019070177565296054 0 -0.019070177565296054 0.065329110390052847 0 0 0 -0.0033841629354528779 -0.01464744219884595 -0.021615133802880146 0 -0.021615133802880146 0.10233015458347472 0 0 0 0.02192067809615722 -0.021128445263615264 -0.030057949202016321 0 -0.030057949202016321 0.056656191861118921 0 0 0 0.0088819366493759211 0.0086314870060661408 -0.036814144643808319 0 -0.036814144643808319 0.072237568890973769 0 0 0 0.020217263974260019 -0.04000278971953497 -0.030372046313771245 0 -0.030372046313771245 0.055350209871577294 0 0 0 0.003836855038010567 -0.042336396405059332 -0.014701631989492342 0 -0.014701631989492342 0.052850941815707209 0 0 0 0.0026286363526619172 -0.02042967214593043 -0.02239384868735432 0 -0.02239384868735432 0.042047603655420429 0 0 0 0.0054044828773725101 -0.046994542372168574 -0.015802211258305082 0 -0.015802211258305082 0.034814509196626389 0 0 0 -0.0030450082938855462 -0.042956281592915216 -0.015191377595458716 0 -0.015191377595458716 0.025178260771463526 0 0 0 -0.004444505205362926 -0.059124049679870179 -0.026281331644582878 0 -0.026281331644582878 0.058369362361715471 0 0 0 -0.00018867182953866829 -0.061327459262143086 -0.028164979764982528 0 -0.028164979764982528 0.04407784900214673 0 0 0 -0.004312402564999096 -0.041475103281435638 -0.026488684022680658 0 -0.026488684022680658 0.048737717950175896 0 0 0 0.0018156536671850715 -0.058701304575535296 -0.016929161300315201 0 -0.016929161300315201 0.026561706616693215 0 0 0 -0.0080348994897105064 -0.053903659809883833 -0.017396937882895185 0 -0.017396937882895185 0.045872619745215143 0 0 0 -0.0020077600161672038 -0.051102889042294236 -0.01535608272601649 0 -0.01535608272601649 0.028689260636045683 0 0 0 -0.0056034071015621523 -0.053279048816348304 -0.0067872212880740121 0 -0.0067872212880740121 0.024842607739269523 0 0 0 -0.0071091102692697056 -0.050037415541548447 -0.0090242241467211742 0 -0.0090242241467211742 0.014449319110653808 0 0 0 -0.0088970241077236598 -0.052693130057208826 -0.012826851828353775 0 -0.012826851828353775 0.02444265667762624 0 0 0 -0.0070626183448956603 -0.051810802571132797 -0.011932078937328536 0 -0.011932078937328536 0.018028504723882677 0 0 0 -0.0084455744618125439 -0.053965874656118157 -0.006495207823166628 0 -0.006495207823166628 0.019943525588175276 0 0 0 -0.0085055872669857202 -0.059632040628283839 -0.0025604104765203153 0 -0.0025604104765203153 0.01250508267198879 0 0 0 -0.011781739489073743 -0.054889468545667522 -0.0071788708599203332 0 -0.0071788708599203332 0.0099963690744105695 0 0 0 -0.011223274867814253 -0.057480076147617493 -0.00098638023701291301 0 -0.00098638023701291301 0.008280180342781801 0 0 0 -0.012299973951208923 -0.059739134146170637 -0.0023417980345669352 0 -0.0023417980345669352 0.0023224989600911239 0 0 0 -0.014354158796519885 -0.063641858412482211 0.0020722177269832803 0 0.0020722177269832803 0.00318619661912517 0 0 0 -0.015113915448339239 -0.055999614655395255 -0.0057622322753820704 0 -0.0057622322753820704 0.015895174162909809 0 0 0 -0.010026110123121362 -0.05354983761734966 -0.0080905984281675059 0 -0.0080905984281675059 0.013947418590265215 0 0 0 -0.0099006047567710767 -0.055422581154913907 -0.0034089025905234896 0 -0.0034089025905234896 0.012294614787558849 0 0 0 -0.010781991591838786 -0.055261161084778007 -0.004167534687444182 0 -0.004167534687444182 0.0080778095462825938 0 0 0 -0.01179583788462386 -0.053227325334205641 -0.0051580985998075438 0 -0.0051580985998075438 0.017019230510481514 0 0 0 -0.009052023705931049 -0.050732803855407099 0.00057112227769556823 0 0.00057112227769556823 0.0096233553004982375 0 0 0 -0.010277362138727219 -0.047842287823762548 0.0024379631298201204 0 0.0024379631298201204 0.018128637518365423 0 0 0 -0.007428412576349277 -0.049688024871739331 0.0032727318527302827 0 0.0032727318527302827 0.01313505851486948 0 0 0 -0.0091382415892174544 -0.05484841721559322 -0.0031512222660378935 0 -0.0031512222660378935 0.020105283060573194 0 0 0 -0.0086857835387550292 -0.052156028202145155 -0.0046305774043453683 0 -0.0046305774043453683 0.028790628985876546 0 0 0 -0.0058413498040671523 -0.059961740553472698 -0.0062603765453453988 0 -0.0062603765453453988 0.025493889542914351 0 0 0 -0.0086169627526395398 -0.054606198002410601 -0.0047428932606629406 0 -0.0047428932606629406 0.041175651768924522 0 0 0 -0.0033576365583714921 -0.05296321339055661 0.0002416283579363375 0 0.0002416283579363375 0.031119248672654823 0 0 0 -0.0054609911794754364 -0.065543507212871763 -0.0063014099203790308 0 -0.0063014099203790308 0.037084652571686992 0 0 0 -0.0071147136602961666 -0.058859474716644655 -0.010043680760951516 0 -0.010043680760951516 0.051656806911577292 0 0 0 -0.0018006669512668477 -0.061712673709483114 -0.012560340670607486 0 -0.012560340670607486 0.034100171499210991 0 0 0 -0.0069031255525680082 -0.054870884052881312 0.0063071563383371755 0 0.0063071563383371755 0.065175426022096861 0 0 0 0.0025761354923038654 -0.064803053082731391 0.0010814577885521655 0 0.0010814577885521655 0.043054949453319447 0 0 0 -0.0054370259073529738 -0.058255709004425851 -0.0026152366558103235 0 -0.0026152366558103235 0.05668628705219951 0 0 0 -0.00039235548805658174 -0.053968641303107516 0.0021016758351717728 0 0.0021016758351717728 0.031392622932434791 0 0 0 -0.0056440045926681682 -0.053147404690817787 0.0081161562715650927 0 0.0081161562715650927 0.041569105702532617 0 0 0 -0.0028945747470713076 -0.050757553799332271 0.0061255538983875819 0 0.0061255538983875819 0.044845963031570457 0 0 0 -0.0014778976919404539 -0.047494362829647509 0.0079806982527237183 0 0.0079806982527237183 0.020533597906579208 0 0 0 -0.0067401912307670829 -0.045362239968189173 0.0070452331918686925 0 0.0070452331918686925 0.025940945516317759 0 0 0 -0.0048553236129678561 -0.038986295600839938 0.011236094371410982 0 0.011236094371410982 0.016662247658442583 0 0 0 -0.0055810119855993438 -0.03774748233617814 0.0091238915204326799 0 0.0091238915204326799 0.006927925655895957 0 0 0 -0.0077048891700705509 -0.042537458755799971 0.0053389583523902485 0 0.0053389583523902485 -0.0024094371309151541 0 0 0 -0.011236723971678785 -0.043884187820719012 0.0070808357193768686 0 0.0070808357193768686 0.0098977015537306447 0 0 0 -0.0084966215667470878 -0.043713720059271682 0.0065313290603579502 0 0.0065313290603579502 0.0083172676804430662 0 0 0 -0.0088491130947071697 -0.050877757254452836 2.5850603114543555e-05 0 2.5850603114543555e-05 0.0077654969784766367 0 0 0 -0.01077806506899404 -0.047252710893264868 0.0026967304353947815 0 0.0026967304353947815 3.0555235412553852e-05 0 0 0 -0.011805538914463086 -0.045713089786003823 0.0043401150571282061 0 0.0043401150571282061 0.0025943969456602633 0 0 0 -0.010779673210085897 -0.044098179936439573 0.0049882153431038551 0 0.0049882153431038551 0.0068459233782673691 0 0 0 -0.0093130641395430605 -0.042350322578243393 0.0043280992768744645 0 0.0043280992768744645 -0.0068122173202315589 0 0 0 -0.012290634974618731 -0.042195051582003255 0.0049619681407282838 0 0.0049619681407282838 -0.0063008036640109857 0 0 0 -0.012123963811503562 -0.04631489840390076 0.0034298743284006195 0 0.0034298743284006195 -0.0089224659324293725 0 0 0 -0.013809341084082528 -0.036961564133688063 0.0059116373440485787 0 0.0059116373440485787 -0.0095578802840227631 0 0 0 -0.011629861104427708 -0.038202340765401716 0.004564119918245649 0 0.004564119918245649 -0.012812414177825996 0 0 0 -0.012753688735806927 -0.033628494957350569 0.0072034686613303223 0 0.0072034686613303223 -0.0074825429552469076 0 0 0 -0.010277759478149368 -0.03888373445521813 0.0056371132277698386 0 0.0056371132277698386 -0.0083451869483235318 0 0 0 -0.01180723035088542 -0.039157480976280558 0.0064663495738008841 0 0.0064663495738008841 -0.0015364311106256696 0 0 0 -0.010173478021726556 -0.063902433493403438 0.0012140463255974829 0 0.0012140463255974829 0.0028112640633257205 0 0 0 -0.015272792357519438 -0.057828018465432542 0.0008666383957424903 0 0.0008666383957424903 -0.0031715054964059075 0 0 0 -0.015249880990459597 -0.063321965886877399 0.0019372146811087558 0 0.0019372146811087558 -0.0036734342729011354 0 0 0 -0.016748850039944627 -0.054500016816046215 0.00084428376652633062 0 0.00084428376652633062 -0.0059309949005675166 0 0 0 -0.015107752929153439 -0.056162594424471163 0.0010345565266810736 0 0.0010345565266810736 0.0028700291479556855 0 0 0 -0.01332314131912888 -0.053953886206276815 0.0011081709050128515 0 0.0011081709050128515 0.0031015509786038141 0 0 0 -0.012713083806918251 -0.052919831452189765 -0.0009908814804582694 0 -0.0009908814804582694 0.0012685632632629396 0 0 0 -0.012912817047231706 -0.050394783078228339 0.0029287035159999437 0 0.0029287035159999437 0.003800602038233486 0 0 0 -0.011648545259998713 -0.04946795282551647 0.0016090259960581292 0 0.0016090259960581292 -0.0052168374488196917 0 0 0 -0.013671197568584051 -0.051658114279154739 0.0010135143348838213 0 0.0010135143348838213 -0.0062682812356404235 0 0 0 -0.014481598878698784 -0.046471311647164545 0.004357747578935609 0 0.004357747578935609 -0.0094474935284027881 0 0 0 -0.013979701293891832 -0.053768651804326294 0.0031128081398149906 0 0.0031128081398149906 -0.0036848738278927834 0 0 0 -0.014363381408054767 -0.055605264822569139 0.0021848745153745016 0 0.0021848745153745016 -0.0079361123461120057 0 0 0 -0.01588534429217027 -0.061888490966273579 0.0013848627049223845 0 0.0013848627049223845 -0.0097215216097099131 0 0 0 -0.017902503143995874 -0.0630119440921698 0.0036613935720717942 0 0.0036613935720717942 -0.0094360115457392448 0 0 0 -0.018111988909477256 -0.063811408649673246 0.0023215990313219447 0 0.0023215990313219447 -0.0067107744242586344 0 0 0 -0.017630545768482969 -0.069396109531276506 0.0032644383997772943 0 0.0032644383997772943 -0.0076587581835235157 0 0 0 -0.01926371692870002 -0.06283449199940612 0.0044236100276493513 0 0.0044236100276493513 -0.014644234298083173 0 0 0 -0.01936968157437232 -0.070285303402556204 0.0024673906071850148 0 0.0024673906071850148 -0.010856616782543047 0 0 0 -0.020285480046274819 -0.064203962017349334 0.0014849074259551244 0 0.0014849074259551244 -0.015291680800797779 0 0 0 -0.019873910704536792 -0.056808492082238024 0.0043706993014645326 0 0.0043706993014645326 -0.010688598163199644 0 0 0 -0.016874272561359423 -0.057573532728187556 0.0022965805718457005 0 0.0022965805718457005 -0.017964124175294638 0 0 0 -0.01888441422587055 -0.053706276564863882 0.0048612347250910851 0 0.0048612347250910851 -0.013599146845412798 0 0 0 -0.016826355852569169 -0.052820464310061245 0.0021379295425016948 0 0.0021379295425016948 -0.014334396541667618 0 0 0 -0.016788715212932216 -0.051017821279007891 0.003351551787673982 0 0.003351551787673982 -0.01121752266234707 0 0 0 -0.015558835985338748 -0.044998631580350508 0.0046608925322602929 0 0.0046608925322602929 -0.014506052146948303 0 0 0 -0.0148761709318247 -0.050145125967391735 0.0029160866077090441 0 0.0029160866077090441 -0.01570905831415511 0 0 0 -0.01646354607038672 -0.050182094841815392 0.0059875108303609238 0 0.0059875108303609238 -0.016307036157072068 0 0 0 -0.016622282749721863 -0.053545459154771498 0.0037818951111319083 0 0.0037818951111319083 -0.017848050173761985 0 0 0 -0.017848377332133368 -0.057584569859974857 0.0061250746066936279 0 0.0061250746066936279 -0.017308624804418769 0 0 0 -0.018723298666098412 -0.062402272139240503 0.0030233817292816029 0 0.0030233817292816029 -0.020800719171348091 0 0 0 -0.020800747827647147 -0.066061029023028822 0.0055982697243913242 0 0.0055982697243913242 -0.018950178670514017 0 0 0 -0.021252801923385703 -0.037671201018675292 0.0039004386624542273 0 0.0039004386624542273 -0.014834092281037681 0 0 0 -0.013126323324928243 -0.035183364893142138 0.0053217721805656516 0 0.0053217721805656516 -0.012268424310157225 0 0 0 -0.011862947300824839 -0.040637204531187222 0.0045460871760558894 0 0.0045460871760558894 -0.011931100698231445 0 0 0 -0.013142076307354665 -0.040841167190615625 0.0045428529375482864 0 0.0045428529375482864 -0.01257616226635342 0 0 0 -0.01335433236424226 -0.044662695787707749 0.0035847751913722333 0 0.0035847751913722333 -0.01390041595157652 0 0 0 -0.014640777934821068 -0.040665942277205568 0.0043564524732559 0 0.0043564524732559 -0.015226381730105029 0 0 0 -0.013973081001827647 -0.045871594539077708 0.0039719697164684762 0 0.0039719697164684762 -0.015292038979784055 0 0 0 -0.015290908379715442 -0.04462897324707249 0.0054344887379513956 0 0.0054344887379513956 -0.014951311604101073 0 0 0 -0.014895071212793388 -0.041273633230493101 0.0039421700789300561 0 0.0039421700789300561 -0.013758521073792695 0 0 0 -0.013758038576071449 -0.039803328665362056 0.0046196511182558121 0 0.0046196511182558121 -0.014521969696838369 0 0 0 -0.013581324590550106 -0.036120897966423447 0.0032481119146477427 0 0.0032481119146477427 -0.014768805808177219 0 0 0 -0.012722425943650167 -0.038320745201918222 0.0041731988026383867 0 0.0041731988026383867 -0.014903960493801389 0 0 0 -0.013306176423929901 -0.040074247940435029 0.0032969225226566583 0 0.0032969225226566583 -0.014800530306578416 0 0 0 -0.013718694561753368 -0.038232143956377779 0.0034580564035064367 0 0.0034580564035064367 -0.01274442677204058 0 0 0 -0.01274414268210459 -0.036820847026825164 0.0023911743527166842 0 0.0023911743527166842 -0.015791601177226625 0 0 0 -0.013153112051012949 -0.035203333590468906 0.0012270359867157744 0 0.0012270359867157744 -0.0117393821464493 0 0 0 -0.011735678934229551 -0.037602500969479279 0.000106055067058771 0 0.000106055067058771 -0.017654040523826985 0 0 0 -0.013814135373326564 -0.034199868491238183 0.0011502849721896395 0 0.0011502849721896395 -0.015983216365333373 0 0 0 -0.012545771214142886 -0.033971577367058942 0.002671886745653336 0 0.002671886745653336 -0.015164855811531805 0 0 0 -0.012284108294647688 -0.034183939667475884 0.0033583914185148552 0 0.0033583914185148552 -0.015931636314770584 0 0 0 -0.012528893995561617 -0.034974474928265581 0.0018431836315608626 0 0.0018431836315608626 -0.01790283877022705 0 0 0 -0.013219328424623157 -0.032207592949623963 0.0033611428629568459 0 0.0033611428629568459 -0.016195436045106537 0 0 0 -0.01210075724868263 -0.033967026010221404 0.0034889518970045281 0 0.0034889518970045281 -0.015560907865762886 0 0 0 -0.012381983468996069 -0.033655839132663685 0.0013144807729366806 0 0.0013144807729366806 -0.019705310497997557 0 0 0 -0.013340287407665309 -0.037336779221108715 -0.0020623811058807979 0 -0.0020623811058807979 -0.022155503591153324 0 0 0 -0.014873070703065514 -0.035295056384599913 0.00058261513922603552 0 0.00058261513922603552 -0.018090290985607889 0 0 0 -0.01334633684255195 -0.035715743367608757 -0.00018163599320961544 0 -0.00018163599320961544 -0.019542169462699668 0 0 0 -0.013814478207577106 -0.036673761981576201 -0.00074023638548479146 0 -0.00074023638548479146 -0.012223072768570997 0 0 0 -0.012224208687536802 -0.038809306963355432 -0.0023760951029516068 0 -0.0023760951029516068 -0.01294359359457316 0 0 0 -0.012938225139482147 -0.039857574554773387 -0.0026515611606206797 0 -0.0026515611606206797 -0.017533097774139493 0 0 0 -0.01434766808222822 -0.047091916795114597 -0.0051586751613475678 0 -0.0051586751613475678 -0.015699398310877955 0 0 0 -0.015697828776498137 -0.040578919502959339 -0.0017842919005652562 0 -0.0017842919005652562 -0.019025028149962663 0 0 0 -0.014900986913230498 -0.046238709142204328 -0.0063979771429127892 0 -0.0063979771429127892 -0.021619457260215306 0 0 0 -0.016964541600604909 -0.06140081855806255 -0.0073822401800840345 0 -0.0073822401800840345 -0.020470983070368536 0 0 0 -0.020467950407107773 -0.05698433110717304 -0.010676913001548964 0 -0.010676913001548964 -0.024329529746922138 0 0 0 -0.0203284652135238 -0.070634398746343599 -0.013290390678074974 0 -0.013290390678074974 -0.026342321033100125 0 0 0 -0.02424417994486093 -0.060296591443154399 -0.009929262205530677 0 -0.009929262205530677 -0.025549726808941301 0 0 0 -0.021461579563023921 -0.058204452717711484 -0.005253124301469729 0 -0.005253124301469729 -0.022687135121563083 0 0 0 -0.020222896959818631 -0.050155612999966619 -0.0042793643704537362 0 -0.0042793643704537362 -0.023056884074481764 0 0 0 -0.018303124268612098 -0.068828728334124442 -0.0080824515780652893 0 -0.0080824515780652893 -0.020053942305135186 0 0 0 -0.022220667659814904 -0.048267624521800091 -0.0058860044778925374 0 -0.0058860044778925374 -0.022602487686595826 0 0 0 -0.017717528052098981 -0.039944511620243262 -0.0025582328492824869 0 -0.0025582328492824869 -0.023816940109925685 0 0 0 -0.015940362932542237 -0.037855769511940487 0.00053106310009483609 0 0.00053106310009483609 -0.019160124132741384 0 0 0 -0.014253973411170472 -0.038375337437650169 0.00028651067303784607 0 0.00028651067303784607 -0.019977234906439642 0 0 0 -0.01458814308602246 -0.037962725925029979 7.1129182321003472e-05 0 7.1129182321003472e-05 -0.018412420523825683 0 0 0 -0.014093786612213914 -0.029234500391575467 0.003471141495225193 0 0.003471141495225193 -0.016833787465888372 0 0 0 -0.011517071964365962 -0.046548574857473296 -0.0060754073589975709 0 -0.0060754073589975709 -0.021866673226598368 0 0 0 -0.017103812021017923 -0.056890684751116333 -0.009942436423271632 0 -0.009942436423271632 -0.02023475049382005 0 0 0 -0.019281358811234099 -0.04834300627844635 -0.004597207290157463 0 -0.004597207290157463 -0.023321732698780889 0 0 0 -0.017916184744306805 -0.046324585762366886 -0.0012060067641433195 0 -0.0012060067641433195 -0.018427640558126273 0 0 0 -0.016188056580123282 -0.063987821776552517 -0.0089900942126389417 0 -0.0089900942126389417 -0.021675097938132729 0 0 0 -0.021415729928671315 -0.047915933902137262 -0.01051505249756754 0 -0.01051505249756754 -0.019796249871127013 0 0 0 -0.016928045943316074 -0.041970163193780524 -0.0064813442532685693 0 -0.0064813442532685693 -0.016178990871160374 0 0 0 -0.014537288516235213 -0.044295565602323027 -0.00463317049783603 0 -0.00463317049783603 -0.015585886982703009 0 0 0 -0.014970363146256511 -0.026613757505325689 0.0013324700764813097 0 0.0013324700764813097 -0.010072109759902179 0 0 0 -0.0091714668163069731 -0.042333156555268092 -0.010253413803165632 0 -0.010253413803165632 -0.010262883462431073 0 0 0 -0.013149010004424795 -0.043600848427153061 -0.0094921143294123024 0 -0.0094921143294123024 -0.010225871097487516 0 0 0 -0.013456679881160158 -0.033703855841575522 0.0046239725757220677 0 0.0046239725757220677 -0.012137871392447451 0 0 0 -0.011460431808505745 -0.03252728989283693 -0.0024775042612630591 0 -0.0024775042612630591 -0.016279482535696055 0 0 0 -0.01220169310713325 -0.026199450940687652 0.0052019231932696613 0 0.0052019231932696613 -0.012119722189900643 0 0 0 -0.0095797932826470686 -0.018111993665641146 0.011343234900105872 0 0.011343234900105872 -0.0019644828848974921 0 0 0 -0.00501911913763467 -0.026786414397735908 0.011752202824386004 0 0.011752202824386004 -0.0017793435470981542 0 0 0 -0.0071414394862085138 -0.025469979215011748 0.010450466768995959 0 0.010450466768995959 9.0678348887152094e-06 0 0 0 -0.006365227845030753 -0.029004218946031016 0.0077207051268259157 0 0.0077207051268259157 -0.010182945834230128 0 0 0 -0.0097967911950652912 -0.028619336739073263 0.011969610523229427 0 0.011969610523229427 -0.002927329479250354 0 0 0 -0.007886666554580906 -0.027932386051549352 0.015216724969682799 0 0.015216724969682799 0.0091502049046762318 0 0 0 -0.004695545286718273 -0.03242196256290418 0.010235604091214792 0 0.010235604091214792 -0.00094457066472171392 0 0 0 -0.0083416333069064701 -0.031844001407972514 0.013019446762810912 0 0.013019446762810912 0.0099671385967710011 0 0 0 -0.0054692157028003729 -0.034605306566178773 0.008576933703950896 0 0.008576933703950896 -0.0005871937025377881 0 0 0 -0.0087981250671791376 -0.038708318286313687 0.0084320713732236353 0 0.0084320713732236353 -0.0018989964590894691 0 0 0 -0.010151828686350787 -0.032422326821688142 0.0072124401642811344 0 0.0072124401642811344 -0.0086117114331342118 0 0 0 -0.01025850956370559 -0.031373869595993094 0.0081678338108560639 0 0.0081678338108560639 -0.0080805175329100448 0 0 0 -0.0098635967822257864 -0.035188730570687513 0.0050082205224419498 0 0.0050082205224419498 -0.012225669834700671 0 0 0 -0.011853600101347049 -0.030917499355649795 0.0057469722632224954 0 0.0057469722632224954 -0.013965236330686475 0 0 0 -0.011220683921584065 -0.033465823235864278 0.0040325050751934492 0 0.0040325050751934492 -0.014601261266503142 0 0 0 -0.012016771125591855 -0.0319695835540382 0.0041025999633274215 0 0.0041025999633274215 -0.016815580298394691 0 0 0 -0.012196290963108227 -0.033055295550610687 0.00066320225474497836 0 0.00066320225474497836 -0.019539356126920714 0 0 0 -0.013148662919382853 -0.03194143865677964 0.0071334878109966145 0 0.0071334878109966145 -0.010295903843163597 0 0 0 -0.010559335624985806 -0.028873653560485855 0.006654030984860693 0 0.006654030984860693 -0.014133385651610889 0 0 0 -0.010751759803024178 -0.18169390055477605 -0.0046625267831243546 0 -0.0046625267831243546 -0.00447731201607178 0 0 0 -0.046542803142711968 -0.16770240461908548 -0.0032626241497522978 0 -0.0032626241497522978 -0.013259887265410258 0 0 0 -0.045240572971123917 -0.17052297953922607 -0.0020887663614209337 0 -0.0020887663614209337 -0.0014852078835328533 0 0 0 -0.04300204685568973 -0.16242102362785951 -0.0048887387006001058 0 -0.0048887387006001058 0.0018491474582615214 0 0 0 -0.040142969042399501 -0.17654515183865882 0.0091807240001796093 0 0.0091807240001796093 -0.0015546384133016539 0 0 0 -0.044524947562990108 -0.19089835376642167 0.018941796691593918 0 0.018941796691593918 -0.025995312194853432 0 0 0 -0.054223416490318789 -0.16724161316107247 0.018749656982598908 0 0.018749656982598908 -0.05564483951637135 0 0 0 -0.055721613169360952 -0.1553895975906395 0.010324573385696378 0 0.010324573385696378 -0.03355985706919537 0 0 0 -0.047237363664958724 -0.15164040841083271 0.0035507818122721239 0 0.0035507818122721239 -0.024190168358882085 0 0 0 -0.043957644192428702 -0.14100413577963916 -0.0026038163863039568 0 -0.0026038163863039568 -0.018181196541777182 0 0 0 -0.039796333080354067 -0.13227200265100436 0.00047875729470610756 0 0.00047875729470610756 -0.044114935516993713 0 0 0 -0.044096734541999506 -0.13225318168876066 0.00046287087541949275 0 0.00046287087541949275 -0.044054255392010938 0 0 0 -0.044076859270192906 -0.14154226211177265 -0.0037902586509360806 0 -0.0037902586509360806 -0.024214725341938866 0 0 0 -0.041439246863427884 -0.12174119417864204 -0.0082233886459659594 0 -0.0082233886459659594 -0.015557571375038952 0 0 0 -0.034324691388420259 -0.14676412477898493 -0.0088792966052129146 0 -0.0088792966052129146 -0.0030841605482222756 0 0 0 -0.037462071331801808 -0.16776452408872142 -0.010445277271244287 0 -0.010445277271244287 -0.0084336092855212125 0 0 0 -0.04404953334356064 -0.12057742085100243 -0.014317824030049456 0 -0.014317824030049456 -0.0079466865419367955 0 0 0 -0.032131026848234795 -0.15135002559720601 -0.0091249549785987864 0 -0.0091249549785987864 -0.017321528935423429 0 0 0 -0.042167888633157354 -0.11742178899334015 -0.010216218510236954 0 -0.010216218510236954 -0.017503235574026221 0 0 0 -0.033731256141841588 -0.11031758402836833 -0.0090942035493612305 0 -0.0090942035493612305 -0.025428981741832717 0 0 0 -0.033936641442550278 -0.11562124478622164 -0.013858602695305927 0 -0.013858602695305927 -0.017396143168593059 0 0 0 -0.033254346988703672 -0.11054427492025601 -0.010554639388191239 0 -0.010554639388191239 -0.025247916371992279 0 0 0 -0.033948047823062072 -0.11177504544474896 -0.0085808810723402035 0 -0.0085808810723402035 -0.027744421317248497 0 0 0 -0.034879866690499368 -0.095954292744073272 -0.0073792296481954775 0 -0.0073792296481954775 -0.031997046526190322 0 0 0 -0.031987834817565904 -0.095424225898079931 -0.011997245689434319 0 -0.011997245689434319 -0.024455614656668463 0 0 0 -0.029969960138687097 -0.091256275588938923 -0.0075216381887321538 0 -0.0075216381887321538 -0.025385872392229603 0 0 0 -0.029160536995292127 -0.087749277485091648 -0.013692500375456947 0 -0.013692500375456947 -0.026429203962243564 0 0 0 -0.028544620361833799 -0.077957738548384947 -0.0084614593830271371 0 -0.0084614593830271371 -0.025981013948303565 0 0 0 -0.025984688124172126 -0.069791578776949581 -0.0064081640297574847 0 -0.0064081640297574847 -0.023916438398029847 0 0 0 -0.023427004293744863 -0.07719825661782298 -0.014051021083812468 0 -0.014051021083812468 -0.023679509616383678 0 0 0 -0.025219441558551658 -0.085537886908237645 -0.013160574048576993 0 -0.013160574048576993 -0.020512991795887066 0 0 0 -0.026512719676031159 -0.085845249086604444 -0.0086757763143785506 0 -0.0086757763143785506 -0.023692845380334351 0 0 0 -0.027384523616734695 -0.070330813814175372 -0.013877796881441995 0 -0.013877796881441995 -0.023861219533651362 0 0 0 -0.02354800833695668 -0.063283485705465325 -0.010221279604977363 0 -0.010221279604977363 -0.020390296506363453 0 0 0 -0.020918445552957216 -0.086190891993810317 -0.017953735393277992 0 -0.017953735393277992 -0.020139281066767479 0 0 0 -0.026582543265144445 -0.065005136447997436 -0.01539254326801508 0 -0.01539254326801508 -0.01764461954119384 0 0 0 -0.02066243899729784 -0.08500330126813968 -0.016931868137991662 0 -0.016931868137991662 -0.0087494920855285055 0 0 0 -0.02343819833841701 -0.093708249865476906 -0.022455783271279114 0 -0.022455783271279114 -0.013932655801398769 0 0 0 -0.026910226416718905 -0.067210877823873416 -0.013163905079935876 0 -0.013163905079935876 -0.012866271197813996 0 0 0 -0.020019287255421854 -0.09236641419332571 -0.020408030760467995 0 -0.020408030760467995 -0.0092968911628233241 0 0 0 -0.025415826339037221 -0.087478723108957601 -0.026508649509005566 0 -0.026508649509005566 -0.0055139042257088822 0 0 0 -0.023248156833666607 -0.12167047091956501 -0.021158553288244016 0 -0.021158553288244016 -0.014535790067348162 0 0 0 -0.034051565246728255 -0.11993951587559741 -0.020938821719222921 0 -0.020938821719222921 -0.013772170889208887 0 0 0 -0.033427921691201574 -0.12083306655057464 -0.016767841787036476 0 -0.016767841787036476 -0.0075917246494428409 0 0 0 -0.032106197800004385 -0.090670125611081967 -0.015092453382133126 0 -0.015092453382133126 -0.013384365494673905 0 0 0 -0.026013622776438979 -0.10889334323922632 -0.015808299110457398 0 -0.015808299110457398 -0.019050136469372352 0 0 0 -0.031985869927149663 -0.14295216160528859 -0.015387309926922433 0 -0.015387309926922433 -0.012975724386528498 0 0 0 -0.038981971497954293 -0.13957759769667621 -0.015417228654988461 0 -0.015417228654988461 -0.0015244373571092068 0 0 0 -0.035275508763446331 -0.15775955506195527 -0.014622391915293206 0 -0.014622391915293206 -0.0041983753153158054 0 0 0 -0.040489482594317783 -0.14250145365924791 -0.023767036532405104 0 -0.023767036532405104 -0.0040863055950806637 0 0 0 -0.036646939813582122 -0.15279750821498783 -0.018595368695454417 0 -0.018595368695454417 -0.0079506427923317427 0 0 0 -0.040187037751829871 -0.12443648078362986 -0.029267975834911003 0 -0.029267975834911003 -0.0036263839295374023 0 0 0 -0.032015716178291853 -0.15326610244353178 -0.023903857369489523 0 -0.023903857369489523 0.0018020158196238589 0 0 0 -0.037866021655976981 -0.18781165415800749 -0.016298559603941991 0 -0.016298559603941991 -0.0065477738079577907 0 0 0 -0.048589856991491334 -0.19442783178040401 -0.019769493140002981 0 -0.019769493140002981 -0.0034389481677304101 0 0 0 -0.049466694987033634 -0.21742656534951499 -0.011311261277409196 0 -0.011311261277409196 -0.0012575554883182682 0 0 0 -0.054671030209458307 -0.18281140735901813 -0.008895043412288639 0 -0.008895043412288639 0.00015101671294204255 0 0 0 -0.045665097661518994 -0.19766593054756476 -0.0096546877879769444 0 -0.0096546877879769444 -0.0016423858075655662 0 0 0 -0.049827079088782561 -0.16120877930281072 -0.018199558004061891 0 -0.018199558004061891 -0.0018439382394569506 0 0 0 -0.040763179385566908 -0.18217778393391595 -0.0072355152057059363 0 -0.0072355152057059363 -0.0045065589452552395 0 0 0 -0.046671085719792817 -0.16590420488811466 -0.010389606083421331 0 -0.010389606083421331 0.0013831010039514896 0 0 0 -0.041130275971040769 -0.22415846063431313 -0.0097993045899131825 0 -0.0097993045899131825 0.0059418704708356085 0 0 0 -0.054554147540869541 -0.28717446675370817 -0.00065739443995962987 0 -0.00065739443995962987 -0.00018274510389448828 0 0 0 -0.071839302964400636 -0.21521193360769914 -0.022048365709939483 0 -0.022048365709939483 0.0064587293898061907 0 0 0 -0.052188301054473293 -0.21144646890508212 -0.0039140265849696987 0 -0.0039140265849696987 0.0031197912584707277 0 0 0 -0.05208166941165282 -0.26082352657698188 -0.0084346819523720817 0 -0.0084346819523720817 0.0022176941064800948 0 0 0 -0.064651458117625418 -0.23636304268022679 -0.010724970720745308 0 -0.010724970720745308 -0.00052140053498900274 0 0 0 -0.059221110803804003 -0.18994503271897087 -0.01136101550175618 0 -0.01136101550175618 0.0016599866857796575 0 0 0 -0.047071261508297796 -0.20433932637724123 -0.0094866744298041095 0 -0.0094866744298041095 0.0014338418556773813 0 0 0 -0.050726371130390899 -0.19973732518219633 -0.024174500420551165 0 -0.024174500420551165 0.0034943622257289642 0 0 0 -0.049060740739116884 -0.15436582420328027 -0.023527506887054114 0 -0.023527506887054114 0.003101801090310552 0 0 0 -0.037816005778242401 -0.1559851694953181 -0.024476272903640295 0 -0.024476272903640295 -0.00096748519311104508 0 0 0 -0.039238163672107307 -0.13341705202077175 -0.022419313126269748 0 -0.022419313126269748 -0.0084306715777090618 0 0 0 -0.035461930899620235 -0.15341737913560141 -0.032476571749108771 0 -0.032476571749108771 0.0099294298019825256 0 0 0 -0.035871987333404715 -0.17391609620358037 -0.015397748394832683 0 -0.015397748394832683 0.002684219766342949 0 0 0 -0.042807969109309368 -0.15795173983247196 -0.0093493507051036762 0 -0.0093493507051036762 0.010204027238647499 0 0 0 -0.036936928148456068 -0.10192744485949541 -0.023856156418097185 0 -0.023856156418097185 0.013266485135221162 0 0 0 -0.022165239931068517 -0.095070037791203724 -0.019345730174180203 0 -0.019345730174180203 0.032023243659470346 0 0 0 -0.015761698532933285 -0.070612384757043928 -0.029287827515378589 0 -0.029287827515378589 0.0088654570767491836 0 0 0 -0.015436731920073637 -0.14002864277589402 -0.020745249044165567 0 -0.020745249044165567 0.012992577398352106 0 0 0 -0.031759016344385479 -0.10829614096611105 -0.02953515191726315 0 -0.02953515191726315 0.0054683557497794411 0 0 0 -0.02570694630408292 -0.13881194973178634 -0.032044843536614812 0 -0.032044843536614812 0.00035999552291388071 0 0 0 -0.03461298855221813 -0.11160911852668705 -0.033498755188547613 0 -0.033498755188547613 -0.0048581318412911911 0 0 0 -0.029116812591994598 -0.10569547233198692 -0.022940593488488981 0 -0.022940593488488981 -0.0022124063876282352 0 0 0 -0.026976969679903776 -0.078659430497441771 -0.02950966558782056 0 -0.02950966558782056 0.00018021420970459889 0 0 0 -0.019619804071934296 -0.10722529498904851 -0.023039682007749675 0 -0.023039682007749675 0.004786653716783329 0 0 0 -0.025609660318066302 -0.07742130032474677 -0.018979042519965086 0 -0.018979042519965086 -0.0014469988687398627 0 0 0 -0.019717074798371641 -0.047946930964466249 -0.024918523972204523 0 -0.024918523972204523 0.0010860622688739496 0 0 0 -0.011715217173898083 -0.060909788928452592 -0.023543069488089062 0 -0.023543069488089062 -0.0062039031413017587 0 0 0 -0.016778423017438572 -0.034803122693370825 -0.017287726528503362 0 -0.017287726528503362 -0.0037108400453669255 0 0 0 -0.0096284906846844376 -0.060717796606613084 -0.013285400706737411 0 -0.013285400706737411 -0.0082553996318132164 0 0 0 -0.017243299059606573 -0.046145653987685782 -0.011450118132680881 0 -0.011450118132680881 0.005740217113711199 0 0 0 -0.010101359218493658 -0.018145007953741216 -0.019067206431277711 0 -0.019067206431277711 0.011741673506053291 0 0 0 -0.0016008336119219813 -0.067506827997007773 -0.018481024618479086 0 -0.018481024618479086 0.016248435224433977 0 0 0 -0.012814598193143449 -0.031635363874905009 -0.024242999153029698 0 -0.024242999153029698 0.02036216489845144 0 0 0 -0.0028182997441133506 -0.033008471791157165 -0.0090426123162991867 0 -0.0090426123162991867 0.029713932011472349 0 0 0 -0.00082363494492122824 -0.0043369180369535049 -0.00091301084400230437 0 -0.00091301084400230437 0.061717971155141216 0 0 0 0.014345263279546897 0.007023411538825533 -0.019591747713523899 0 -0.019591747713523899 0.045594522952310507 0 0 0 0.013154483622784027 -0.056290069945931026 -0.011226333431472391 0 -0.011226333431472391 0.039907874510135249 0 0 0 -0.0040955488589489442 -0.070810843499190451 -0.030070567279627994 0 -0.030070567279627994 0.043638855798392218 0 0 0 -0.0067929969251995515 -0.025385084730102037 -0.029088367695258424 0 -0.029088367695258424 0.092535166911098088 0 0 0 0.016787520545249013 -0.0017165505670148629 -0.013564333307935522 0 -0.013564333307935522 0.1708221486709266 0 0 0 0.042276399525977948 -0.0043710097748663607 0.032980709041962541 0 0.032980709041962541 0.14298950614811579 0 0 0 0.034654624093312339 -0.017281106805628443 0.030070948682123289 0 0.030070948682123289 0.18186908567842242 0 0 0 0.041146994718198493 -0.037470792930539898 0.026205525380114503 0 0.026205525380114503 0.11552259916874053 0 0 0 0.019512951559550129 -0.059600315843769222 -0.0078070953909472052 0 -0.0078070953909472052 0.086869325097061023 0 0 0 0.0068172523133229329 -0.039390107164836319 0.0068169819581831992 0 0.0068169819581831992 0.089661304906460515 0 0 0 0.01256779943540598 -0.078648505499961968 0.039908416871961283 0 0.039908416871961283 0.10077276600008744 0 0 0 0.0055310651250313481 -0.10330653843675247 0.024039353685193998 0 0.024039353685193998 0.056781760066444198 0 0 0 -0.01163119459257711 -0.12536683830918743 0.029767649810662627 0 0.029767649810662627 0.072791494838831294 0 0 0 -0.013143835867589049 -0.10902310166570334 -0.0057716941904925601 0 -0.0057716941904925601 0.031185561578157328 0 0 0 -0.019459385021886655 -0.13692671930920741 0.0023361139560462429 0 0.0023361139560462429 0.033033888883516882 0 0 0 -0.025973207606422605 -0.092090234874475069 -0.0019071115859191634 0 -0.0019071115859191634 0.083036493441567161 0 0 0 -0.0022634353582270117 -0.13538278876763288 -0.024726627796441247 0 -0.024726627796441247 0.036572002853185417 0 0 0 -0.024702696478611917 -0.17800771754688 -0.021277258455164122 0 -0.021277258455164122 0.015055521802935234 0 0 0 -0.04073804893598626 -0.18294610321984317 0.0018692958786569458 0 0.0018692958786569458 0.015045435136724183 0 0 0 -0.041975167020779802 -0.15342574495492356 -0.013829106528485652 0 -0.013829106528485652 0.029934488618490906 0 0 0 -0.030872814084108191 -0.17153938121405138 0.020826497713742231 0 0.020826497713742231 0.031721457216849186 0 0 0 -0.034954480999300479 -0.14417701875211514 0.017281856765360759 0 0.017281856765360759 0.019445543692943379 0 0 0 -0.031182868764792926 -0.19204873389979044 0.031804310676800729 0 0.031804310676800729 0.014555171352945928 0 0 0 -0.044373390636711085 -0.17435764520226235 0.021458291015842512 0 0.021458291015842512 0.039918574430304332 0 0 0 -0.033609767692989484 -0.18403316663893798 0.0042613254229830894 0 0.0042613254229830894 0.012336637843650911 0 0 0 -0.042924132198821963 -0.22207900846852308 0.013193974489260851 0 0.013193974489260851 0.01398421039862674 0 0 0 -0.052023699517473931 -0.21572337377899456 0.0057022003857798431 0 0.0057022003857798431 0.0043538523227302228 0 0 0 -0.052842380364066133 -0.28513718580731973 0.0070555811323205521 0 0.0070555811323205521 0.0082940228764334378 0 0 0 -0.069210790732721628 -0.23335519475773184 -0.0010363391333210181 0 -0.0010363391333210181 0.0028051326920290887 0 0 0 -0.057637515516425625 -0.29817561141314886 -0.0047620804026888537 0 -0.0047620804026888537 0.0048616619645487358 0 0 0 -0.073328487362149919 -0.23981143010529396 0.0040021572705331021 0 0.0040021572705331021 0.00035502988947239134 0 0 0 -0.059864100053955295 -0.20892128475206584 -0.013386804690358245 0 -0.013386804690358245 0.008551454435586775 0 0 0 -0.050092457579119835 -0.23508385452686925 -0.016760639019575529 0 -0.016760639019575529 0.0054394223494897975 0 0 0 -0.057411108044344905 -0.023019308977630396 0.027455097116182131 0 0.027455097116182131 0.037807755777375662 0 0 0 0.0036971116999363271 -0.018264526929180958 0.029962794068220736 0 0.029962794068220736 0.048448114854300672 0 0 0 0.0075458969812799426 -0.017083795547163612 0.031898482396398017 0 0.031898482396398017 0.048709913812717567 0 0 0 0.0079065295663885062 -0.031794133491573187 0.025495525527862169 0 0.025495525527862169 0.059874895831183439 0 0 0 0.0070201905849025664 -0.046499928156532505 0.01703390029826923 0 0.01703390029826923 0.065811811365948464 0 0 0 0.0048279708023539793 -0.041636769907000687 0.019995537232440456 0 0.019995537232440456 0.039264927255279254 0 0 0 -0.00059296066293036405 -0.056063558002897008 0.011007386493569752 0 0.011007386493569752 0.044903110047534132 0 0 0 -0.0027901119888407207 -0.030393742933531684 0.022244856656265296 0 0.022244856656265296 0.043094176846091223 0 0 0 0.0031751084781399055 -0.043068793432326537 0.014164683669023726 0 0.014164683669023726 0.022689033990342639 0 0 0 -0.0050949398604959797 -0.040805111969899853 0.01444188015178062 0 0.01444188015178062 0.036401997493954168 0 0 0 -0.0011007786189864092 -0.04042229319038982 0.010634333710812563 0 0.010634333710812563 0.0088790362522945948 0 0 0 -0.0078858142345238063 -0.031912650265751213 0.017689235007121561 0 0.017689235007121561 0.02490609174520983 0 0 0 -0.0017516396301353295 -0.031399343190880558 0.01574121215723584 0 0.01574121215723584 0.0078422556578206029 0 0 0 -0.0058892718832649904 -0.033083613091981622 0.019371466901901169 0 0.019371466901901169 0.026327502440986104 0 0 0 -0.0016890276627488932 -0.022342140839353868 0.022574414492751299 0 0.022574414492751299 0.022590767908531248 0 0 0 6.2156767294346826e-05 -0.020433748663624386 0.015826128511314132 0 0.015826128511314132 0.0070195005944890115 0 0 0 -0.0033535620172838593 -0.026083287828785932 0.01412495393343851 0 0.01412495393343851 0.0063891252636955678 0 0 0 -0.0049235406412726068 -0.028312837614436585 0.0015503236664946279 0 0.0015503236664946279 -0.0063064096687434346 0 0 0 -0.0086548118207950067 -0.013900902469822514 0.0077362129293889054 0 0.0077362129293889054 0.0093422470024858983 0 0 0 -0.001139663866834166 -0.016257211698557119 0.010304400148048671 0 0.010304400148048671 0.0035409052189601942 0 0 0 -0.0031790766198992459 -0.013771977883628453 0.021881844920535153 0 0.021881844920535153 0.022229841915409387 0 0 0 0.0021144660079452371 -0.032662297168127255 -0.003124743647398398 0 -0.003124743647398398 -0.0035805775561529585 0 0 0 -0.0090607186810700586 -0.020088747507843494 -0.007275878805956898 0 -0.007275878805956898 0.0012443267170203845 0 0 0 -0.0047111051977057877 -0.012973088943840277 0.0036328191650098901 0 0.0036328191650098901 0.014008880976807164 0 0 0 0.00025894800824171477 -0.002386041027571062 -0.0019736624841901855 0 -0.0019736624841901855 0.026030119621536563 0 0 0 0.0059110196484913752 0.01314868941874868 0.01493627787854503 0 0.01493627787854503 0.042255023129781688 0 0 0 0.013850928137132609 -0.0056174167971621281 0.022931950662468257 0 0.022931950662468257 0.024291380545167024 0 0 0 0.004668490937001224 0.0077531792963523825 0.018677379401869754 0 0.018677379401869754 0.021983553267193034 0 0 0 0.0074341831408863517 -0.0054970405123001033 0.023061107487163418 0 0.023061107487163418 0.038280180289896999 0 0 0 0.0081957849443992196 0.015008135687804999 0.027905982561038087 0 0.027905982561038087 0.0428243535497142 0 0 0 0.014458122309379803 -0.00035200908337162939 0.040935530562326683 0 0.040935530562326683 0.084495813988865409 0 0 0 0.021035951226373445 0.045872091223852426 0.044659702893681111 0 0.044659702893681111 0.078739538148034138 0 0 0 0.031152907342971645 0.01894627723649665 0.043023768838183707 0 0.043023768838183707 0.12399235021727709 0 0 0 0.035734656863443445 -0.0088501657599906192 0.044690944773027916 0 0.044690944773027916 0.12950585142111293 0 0 0 0.030163921415280515 0.0049153139678512203 0.037709469384859001 0 0.037709469384859001 0.086335393576393582 0 0 0 0.022812676886061201 0.042557388744595123 0.0017238448975632342 0 0.0017238448975632342 0.066589589669910354 0 0 0 0.027286744603626387 0.046005156183736878 0.019511967607418496 0 0.019511967607418496 0.10649671373724062 0 0 0 0.038125467480244382 0.052144936024293875 -0.0191105270473617 0 -0.0191105270473617 0.092007492669865076 0 0 0 0.036038107173539724 0.16091070360655663 -0.0067964486777061101 0 -0.0067964486777061101 0.1559283647639072 0 0 0 0.079209767092615943 0.072792563024404497 0.0015090522739286405 0 0.0015090522739286405 0.34662075057567582 0 0 0 0.10485332840002008 0.14735447096654306 0.11841577364912166 0 0.11841577364912166 0.24992588971882679 0 0 0 0.09932009017134244 0.022058259468198477 0.068071627901850396 0 0.068071627901850396 0.21493960605504614 0 0 0 0.059249466380811189 -0.041401743353536871 0.030191288448709205 0 0.030191288448709205 0.12194166334780018 0 0 0 0.020134979998565825 0.014669765358323733 0.047599802398736853 0 0.047599802398736853 0.1241180811321656 0 0 0 0.034696961622622313 -0.03821605171167114 -0.022847495593579528 0 -0.022847495593579528 0.24579548808350821 0 0 0 0.051894859092959239 -0.055554376887141134 -0.026487882134158508 0 -0.026487882134158508 0.13528120865774307 0 0 0 0.019931707942650485 -0.053027191435666546 -0.025695227459009179 0 -0.025695227459009179 0.1461292906819604 0 0 0 0.023275524811573481 -0.034995420103829833 0.027131898053173037 0 0.027131898053173037 0.13772519758467283 0 0 0 0.025682444370210736 -0.035475790646363414 0.028665428263380505 0 0.028665428263380505 0.078820963062686877 0 0 0 0.010836293104080838 -0.041577709311459883 0.021740666462083488 0 0.021740666462083488 0.12426755891855815 0 0 0 0.020672462401774581 -0.061143483136248192 0.0091606974583961776 0 0.0091606974583961776 0.080649393276571196 0 0 0 0.0048764775350807581 -0.04220780914009914 0.021845063568848834 0 0.021845063568848834 0.099013393307576095 0 0 0 0.014201396041869235 -0.040119248496836568 0.02443854056056427 0 0.02443854056056427 0.057143876219751782 0 0 0 0.0042561569307288244 -0.024430749986472877 0.035279655146179534 0 0.035279655146179534 0.087223361186856724 0 0 0 0.015698152800095955 -0.059950375335560691 0.012414236201924778 0 0.012414236201924778 0.05920711972591769 0 0 0 -0.00018581390241076412 -0.056412257880942208 0.0091571453322050987 0 0.0091571453322050987 0.083423518231115157 0 0 0 0.0067528150875432319 -0.056258961836806252 -0.025614360871110096 0 -0.025614360871110096 0.090699811080935749 0 0 0 0.0086102123110323777 -0.064600350362861408 -0.0080198391527223564 0 -0.0080198391527223564 0.081880191495714877 0 0 0 0.004319960283213342 -0.071152210324110843 -0.004286195573857933 0 -0.004286195573857933 0.072546641441029708 0 0 0 0.00034860777922972319 -0.055402437346922441 0.003428581409953009 0 0.003428581409953009 0.1099129765074484 0 0 0 0.013627634790131496 -0.059243223529030248 -0.023509457509761644 0 -0.023509457509761644 0.068345016367660355 0 0 0 0.0022754482096575225 -0.063776571066106597 -0.025099639502450574 0 -0.025099639502450574 0.053987354591854331 0 0 0 -0.0024473041185630595 -0.040560307856081314 -0.040787824506418852 0 -0.040787824506418852 0.060882209213634159 0 0 0 0.0050804753393882355 -0.049572499343357612 -0.039199522118589084 0 -0.039199522118589084 0.028033506077349168 0 0 0 -0.0053847483165020693 -0.057744027080048645 -0.028622193861148296 0 -0.028622193861148296 0.022854338359493492 0 0 0 -0.0087224221801387759 -0.038831966265323696 -0.038049373897451444 0 -0.038049373897451444 0.028048542745655936 0 0 0 -0.0026958558799169419 -0.037507861903019774 -0.036574606993981018 0 -0.036574606993981018 0.032094799009854298 0 0 0 -0.0013532657232913528 -0.046294863655707119 -0.030695927329108162 0 -0.030695927329108162 0.0038104863216795737 0 0 0 -0.010621094333506886 -0.020401976984716685 -0.02092934714570362 0 -0.02092934714570362 0.018628829888538756 0 0 0 -0.00044328677404451011 -0.029770924504006341 -0.026979309843953862 0 -0.026979309843953862 0.0041575908665710815 0 0 0 -0.0064033334093588079 -0.022467864777766799 -0.03556556848687735 0 -0.03556556848687735 0.0097828449587820665 0 0 0 -0.0031712549547461832 -0.0010892338631458163 -0.054700058783246318 0 -0.054700058783246318 0.049498473411831306 0 0 0 0.012102309887171408 -0.058919430930129274 -0.027840508430290629 0 -0.027840508430290629 0.089493042182641661 0 0 0 0.0076434028131281105 -0.037752401101131372 -0.045277662620341247 0 -0.045277662620341247 0.061698151745211247 0 0 0 0.0059864376610199721 -0.037617193556262446 -0.049671031603256262 0 -0.049671031603256262 0.074358607984831598 0 0 0 0.0091853536071422985 -0.033930391350103194 -0.058219444656906177 0 -0.058219444656906177 0.11715851688405526 0 0 0 0.020807031383488033 -0.064080854579710397 -0.050597389269185861 0 -0.050597389269185861 0.15670450503248845 0 0 0 0.023155912613194524 -0.019213226849142423 -0.048996507951204187 0 -0.048996507951204187 0.15534212452746751 0 0 0 0.034032224419581286 0.010966174420101199 -0.011672140243966983 0 -0.011672140243966983 0.44060647397633113 0 0 0 0.11289316209910807 -0.0049137608869183544 -0.017701131690646014 0 -0.017701131690646014 -0.015453621290690625 0 0 0 -0.0050918455444022501 0.029111570198546405 -0.077350403274117838 0 -0.077350403274117838 0.095528125716343476 0 0 0 0.03115992397872247 0.12574201166766891 0.16519775737312814 0 0.16519775737312814 0.28670944206000659 0 0 0 0.10311286343191885 0.019271383205816065 -0.10775267754597431 0 -0.10775267754597431 0.18965941823783117 0 0 0 0.052232700360911821 0.0077941865541340206 0.0015056468731532537 0 0.0015056468731532537 0.023113300844464724 0 0 0 0.0077268718496496854 0.2800907294646745 0.1398733772950615 0 0.1398733772950615 0.083692489955681904 0 0 0 0.090945804855089185 0.097507893353136366 0.04394458734088269 0 0.04394458734088269 0.049101885811430573 0 0 0 0.036652444791141707 0.01977851810153794 0.0036159167770527106 0 0.0036159167770527106 0.059430827974410412 0 0 0 0.01980233651898709 -0.08180358327249114 0.0054114102181137824 0 0.0054114102181137824 0.05671987739787665 0 0 0 -0.0062709264686536259 0.079518580480609335 0.037105679424304733 0 0.037105679424304733 0.041063797604842467 0 0 0 0.030145594521363006 0.027875272739626717 0.004985086739706524 0 0.004985086739706524 0.083739535881006064 0 0 0 0.027903702155158194 -0.069091783309769672 0.010301408276723156 0 0.010301408276723156 0.066527485030874522 0 0 0 -0.0006410745697237874 0.033680288122095225 0.033484349864845386 0 0.033484349864845386 0.026330241383037301 0 0 0 0.015002632376283076 -0.018660129499854294 -0.02844515980469324 0 -0.02844515980469324 -0.0021990389037067348 0 0 0 -0.0052147921008902642 -0.027828265753377365 0.0061786769286941712 0 0.0061786769286941712 0.041367679513286376 0 0 0 0.0033848534399772562 -0.027649939034022575 -0.011636507548887121 0 -0.011636507548887121 0.033886866770186097 0 0 0 0.0015592319340408667 -0.022173167651331996 -0.0067377561598214314 0 -0.0067377561598214314 0.023444431290610079 0 0 0 0.00031781590981953822 -0.04478682811351363 0.0029717324479599377 0 0.0029717324479599377 0.032642301854024391 0 0 0 -0.0030361315648722853 -0.033140986449712168 0.0042511851976257675 0 0.0042511851976257675 0.068589625536027099 0 0 0 0.0088621597715787259 -0.047271613779358346 0.0092219543247839542 0 0.0092219543247839542 0.079292102404656506 0 0 0 0.0080051221563245401 -0.02589058718102788 -0.0045041687037965933 0 -0.0045041687037965933 0.034369884084595403 0 0 0 0.0021198242258919087 0.01991411968216783 0.03419677437311508 0 0.03419677437311508 0.035634815605806835 0 0 0 0.013887233821993417 0.03054921061164817 0.021413427043047273 0 0.021413427043047273 0.074700576816690845 0 0 0 0.026312446857084892 0.047072882013326822 0.017979070141707392 0 0.017979070141707392 0.070717960715247941 0 0 0 0.02944771068214358 0.035053515889738568 0.0058151369098570545 0 0.0058151369098570545 0.10529882300782648 0 0 0 0.035088084724391261 0.016941950688826202 0.017564733728811236 0 0.017564733728811236 0.077537935365741717 0 0 0 0.023619971513641813 0.024672658781582757 0.020493299002077636 0 0.020493299002077636 0.080518507378104176 0 0 0 0.026297791539921733 -0.0022425533477474779 0.02874517896436557 0 0.02874517896436557 0.075564266152992499 0 0 0 0.018330428201311255 0.003815597946070115 0.01841899544709422 0 0.01841899544709422 0.094629995788176657 0 0 0 0.024611398433561638 -0.035508883340442304 0.0075942574859741985 0 0.0075942574859741985 0.10233773709028871 0 0 0 0.016707213437461593 0.042007641319608824 0.0063243500501039135 0 0.0063243500501039135 0.12618144171722401 0 0 0 0.042047270759208208 0.0088778238320709746 0.021253696522022025 0 0.021253696522022025 0.09968700169447775 0 0 0 0.02714120638163714 -0.039339193453083579 0.00075919005476945967 0 0.00075919005476945967 0.054097918510965209 0 0 0 0.0036896812644704319 -0.038699596704532768 -0.0009227465821435854 0 -0.0009227465821435854 0.030108274540918134 0 0 0 -0.0021478305409036724 -0.030779948385868644 0.0037333954431477412 0 0.0037333954431477412 0.088738526406243912 0 0 0 0.014489644505093796 -0.028428254918118956 -0.0023778988009956273 0 -0.0023778988009956273 0.059401826075320519 0 0 0 0.0077433927893003629 -0.037603559185330038 -0.0011730605992079021 0 -0.0011730605992079021 0.061653570712096539 0 0 0 0.0060125028816916393 -0.042841961872238848 -0.0065838833750488934 0 -0.0065838833750488934 0.018777603765518111 0 0 0 -0.0060160895266802329 -0.03430391816120934 -0.0085680513362128841 0 -0.0085680513362128841 0.021644337506698086 0 0 0 -0.0031648951636278344 -0.032539064496880044 -0.0069362805361421892 0 -0.0069362805361421892 0.022080451654127531 0 0 0 -0.0026146532106881282 -0.036716399765619155 -0.016943897040072931 0 -0.016943897040072931 -0.0045275456195293454 0 0 0 -0.010310986346287153 -0.036207909623573703 -0.010847145529547977 0 -0.010847145529547977 0.0043454189722822445 0 0 0 -0.0079656226628228577 -0.038114201563838407 -0.014053564224062662 0 -0.014053564224062662 -0.0077658288117425922 0 0 0 -0.011470007593895243 -0.035864122391303321 -0.016920857432560554 0 -0.016920857432560554 -0.011001703401272267 0 0 0 -0.011716456448143897 -0.038797115191411269 -0.021669393243291021 0 -0.021669393243291021 -0.0088568644335002 0 0 0 -0.011913494906227839 -0.034406774613331623 -0.016915603561451276 0 -0.016915603561451276 -0.0061650959902538813 0 0 0 -0.010142967650896383 -0.031931553642012861 -0.022548391682430599 0 -0.022548391682430599 -0.0038564920031102234 0 0 0 -0.0089470114112808197 -0.040469658753082727 -0.023378916726284074 0 -0.023378916726284074 -0.010906279658150164 0 0 0 -0.012843984602808167 -0.033428836910938522 -0.029016423938745747 0 -0.029016423938745747 -0.00067517607485340081 0 0 0 -0.0085260032464479912 -0.04232886044279649 -0.028233734658696802 0 -0.028233734658696802 0.0045399607565906885 0 0 0 -0.0094472249215514364 -0.035348667346567872 -0.020800119443071488 0 -0.020800119443071488 -0.0016850353103624593 0 0 0 -0.0092584256642325863 -0.035561497240910581 -0.0092115907722908619 0 -0.0092115907722908619 0.0058686026719490247 0 0 0 -0.0074232236422404757 -0.027125151581544341 -0.015724683547860357 0 -0.015724683547860357 0.0080148328964785784 0 0 0 -0.004777579671266392 -0.17199071063929305 0.018204974370257587 0 0.018204974370257587 -0.0014416848983653807 0 0 0 -0.043358098884414664 -0.17602802377981652 0.021277338699083822 0 0.021277338699083822 0.0017083666195238933 0 0 0 -0.043579914290073241 -0.14759935995588136 0.049497913840800378 0 0.049497913840800378 0.016037851628156741 0 0 0 -0.03289037708193121 -0.23203577878531978 0.022007389974205371 0 0.022007389974205371 0.0018903131314860211 0 0 0 -0.057536366413458495 -0.25171901004549763 0.016850617488065822 0 0.016850617488065822 0.0078204424663401717 0 0 0 -0.060974641894789239 -0.18372485840838698 0.026875599296537156 0 0.026875599296537156 -0.00078595659766136916 0 0 0 -0.046127703751511921 -0.18100045845648044 0.025180190743592235 0 0.025180190743592235 0.0034645514771238783 0 0 0 -0.044383976744839126 -0.15260152762613033 0.053932217087679923 0 0.053932217087679923 0.022457379441981562 0 0 0 -0.032536037046037136 -0.12795708386964488 0.054096629211695113 0 0.054096629211695113 0.023448160339973212 0 0 0 -0.026127230882418084 -0.10277526818859606 0.070374256557023673 0 0.070374256557023673 0.045933782453664085 0 0 0 -0.014210371433732938 -0.12638090010509373 0.0512721588932471 0 0.0512721588932471 0.0046432286480686535 0 0 0 -0.03043441786425638 -0.10401230685785792 0.069666629015403991 0 0.069666629015403991 0.019680113963701729 0 0 0 -0.021083048223539264 -0.13697438472499557 0.046294463590548174 0 0.046294463590548174 -0.00084573848677971242 0 0 0 -0.034455030802943876 -0.098501932900337819 0.064968436720355127 0 0.064968436720355127 0.0029434114443953607 0 0 0 -0.023889630363985503 -0.029108162109765578 0.08447372116243379 0 0.08447372116243379 0.022071506796315865 0 0 0 -0.0017591638283625533 -0.065357673572314812 0.076250317527027892 0 0.076250317527027892 0.016369287851270897 0 0 0 -0.012247096430261117 -0.012379580246243527 0.099706160135894922 0 0.099706160135894922 0.055488763436586819 0 0 0 0.010777295797585684 -0.064697824397707215 0.078532194584042037 0 0.078532194584042037 0.020840142593284927 0 0 0 -0.01096442045110535 -0.12482201309405139 0.051207494519689756 0 0.051207494519689756 0.026324643587944063 0 0 0 -0.024624342376526998 -0.082989725287959948 0.076753577610085166 0 0.076753577610085166 0.074838396353858111 0 0 0 -0.0020378322335253898 -0.076620767530706624 0.069275476646060874 0 0.069275476646060874 0.052187575764729377 0 0 0 -0.0061082979414943117 -0.032719207342855272 0.095699534770410155 0 0.095699534770410155 0.12232011476139348 0 0 0 0.022400226854634386 -0.0093395507099547359 0.10042055181406975 0 0.10042055181406975 0.19603986411522811 0 0 0 0.046675078351318344 0.034974343515328798 0.11809736226385648 0 0.11809736226385648 0.075136987303265679 0 0 0 0.027527832704648647 0.044338679378764193 0.099674972023983122 0 0.099674972023983122 0.072283093197444248 0 0 0 0.02915544314405201 -0.00040811230524939734 0.075587732642811267 0 0.075587732642811267 0.026864101782161143 0 0 0 0.0066139973692279641 0.019012301217228189 0.078936216538074477 0 0.078936216538074477 0.031825585610136375 0 0 0 0.012709471706841113 0.048126126265396474 0.040623650087191765 0 0.040623650087191765 0.033829761691215765 0 0 0 0.020488971989153448 -0.010374110855069334 0.065428570502729766 0 0.065428570502729766 0.014076673661079925 0 0 0 0.00092564070150270156 -0.020826098817116057 0.065064724736561441 0 0.065064724736561441 0.010659794653983479 0 0 0 -0.0025415760407829779 0.013566359282976004 0.049078290614915643 0 0.049078290614915643 0.031372220308034215 0 0 0 0.011234644897752721 -0.0015520951926426552 0.036658770507437044 0 0.036658770507437044 0.034690966841820714 0 0 0 0.0082847179122944592 0.0023455227784219268 0.037469524307953139 0 0.037469524307953139 0.048044712639611298 0 0 0 0.012597558854508417 -0.024503967605672194 0.040966455984830952 0 0.040966455984830952 0.039097020732964616 0 0 0 0.0036482632818233274 -0.020811837628116781 0.050128532588621474 0 0.050128532588621474 0.022666162349031183 0 0 0 0.00046358118022848949 -0.022365922820653639 0.061698000790058272 0 0.061698000790058272 0.010724232353138685 0 0 0 -0.0029104226168787939 -0.041209096996379813 0.057924945432502817 0 0.057924945432502817 0.0072115116296218029 0 0 0 -0.0084993963416894469 -0.038196276544075758 0.055507047277706834 0 0.055507047277706834 0.0086058954286363232 0 0 0 -0.0073975952788596366 -0.044151835433399844 0.060262485068597993 0 0.060262485068597993 0.0019481891213626312 0 0 0 -0.010550911578009359 -0.068798921079364472 0.064493953798038295 0 0.064493953798038295 -0.00083788763781100783 0 0 0 -0.017409202179293537 -0.043198880004140072 0.069651771469023238 0 0.069651771469023238 0.0070773330150206704 0 0 0 -0.0090303867472799615 -0.031420050199919114 0.061406605322097296 0 0.061406605322097296 0.0079961870044540362 0 0 0 -0.0058559657988661584 -0.066730111080065213 0.068129480942165976 0 0.068129480942165976 0.0017918873327928964 0 0 0 -0.016234555936818107 -0.072979301671963093 0.073533254681511173 0 0.073533254681511173 0.0084301356721527831 0 0 0 -0.016137291499952688 -0.10086195503536843 0.055260487097980371 0 0.055260487097980371 -0.0053981310440063268 0 0 0 -0.026565021519843857 -0.10228947552050727 0.05662949920562399 0 0.05662949920562399 0.009671500467745453 0 0 0 -0.023154493763190342 -0.094232427194884671 0.041968979714753232 0 0.041968979714753232 -0.0017096432166656683 0 0 0 -0.023985517602887363 -0.092583182306719858 0.058058626952074643 0 0.058058626952074643 -0.0013556761846396093 0 0 0 -0.023484714622839908 -0.062457516765297649 0.05528934868754809 0 0.05528934868754809 0.0018172495574551029 0 0 0 -0.015160066801960692 -0.054773394879509552 0.056094384870832847 0 0.056094384870832847 -0.0025308974731363953 0 0 0 -0.014326073088161195 -0.059547477946469529 0.042816873189831295 0 0.042816873189831295 0.0016246641012962471 0 0 0 -0.014480703461292821 -0.085232631320953267 0.045368639383314591 0 0.045368639383314591 -0.0069370536901960378 0 0 0 -0.023042421252787326 -0.084687258654569719 0.043770074669307324 0 0.043770074669307324 0.0021597103587467359 0 0 0 -0.02063188707395569 -0.088170791670082016 0.017200591296139101 0 0.017200591296139101 -0.0019508328449830969 0 0 0 -0.022530406128766556 -0.065523830535844763 0.016849700093636066 0 0.016849700093636066 0.00065992967261241375 0 0 0 -0.01621597521580842 -0.098724816828746453 0.01978786621262385 0 0.01978786621262385 0.00081634636688932005 0 0 0 -0.024477117615464339 -0.1332972039405762 0.019360851368933056 0 0.019360851368933056 -0.0021908115439179809 0 0 0 -0.033872003871123102 -0.13125069785840371 0.045039172061259847 0 0.045039172061259847 -0.0027104254947178941 0 0 0 -0.033490280838279873 -0.12305507442075803 0.021106642001259335 0 0.021106642001259335 -0.00065836624960047274 0 0 0 -0.030928360167589486 -0.012749218539943832 0.0079716642170484242 0 0.0079716642170484242 0.00093213389973451077 0 0 0 -0.0029542711600521049 -0.03645576613157564 0.015554679095911794 0 0.015554679095911794 -0.0064173671987068914 0 0 0 -0.010718283332570522 -0.028855435300120025 0.019814178692839635 0 0.019814178692839635 0.0038120663705267788 0 0 0 -0.0062608422323982005 -0.021160215559996143 0.010140832499000578 0 0.010140832499000578 0.00067145033385607178 0 0 0 -0.0051221913065355729 -0.0460183566912713 0.01222671529796493 0 0.01222671529796493 -0.0014239966362668 0 0 0 -0.011860588331884525 -0.053308821525023031 0.013643104616090147 0 0.013643104616090147 -0.0031049455030922601 0 0 0 -0.014103441757028712 -0.077764184480580756 0.035014237508740997 0 0.035014237508740997 -0.0066930303105570133 0 0 0 -0.021114303697783887 -0.051450132202354837 0.026244085868980527 0 0.026244085868980527 -0.0076066701500963063 0 0 0 -0.014764200588112786 -0.053506651666382687 0.041536739298772302 0 0.041536739298772302 -0.0039696547454308728 0 0 0 -0.014369076602953168 -0.048815955709947678 0.030764539842221161 0 0.030764539842221161 0.0035972188989674692 0 0 0 -0.01130468420274533 -0.059089364974519665 0.04371486236481853 0 0.04371486236481853 -0.003279245125405339 0 0 0 -0.015592152524981362 -0.044145055627914154 0.038829445068777613 0 0.038829445068777613 0.00016691249868205915 0 0 0 -0.01099453578230758 -0.034001433486112065 0.032250640951925647 0 0.032250640951925647 -0.0044677703838749139 0 0 0 -0.0096173009674969112 -0.03739578465546245 0.032939499616740475 0 0.032939499616740475 -0.0048311571508170559 0 0 0 -0.010556735451569654 -0.016092630694754639 0.022908655208975892 0 0.022908655208975892 -0.00072267031914119428 0 0 0 -0.0042038252534739584 -0.025717612264001044 0.035885199467788453 0 0.035885199467788453 0.0064137076980514962 0 0 0 -0.004825976141487498 -0.023123144007796137 0.040632271015842658 0 0.040632271015842658 0.012380200867800006 0 0 0 -0.0026857357849989771 -0.029922238832850612 0.044731057599602941 0 0.044731057599602941 0.017406710797324365 0 0 0 -0.0031288820088815061 -0.031643966835304571 0.039627633750411118 0 0.039627633750411118 -0.0015163462021172691 0 0 0 -0.0082900782593560152 -0.044081985616772901 0.048008385900403905 0 0.048008385900403905 -0.00032316723450342977 0 0 0 -0.011101288212818972 -0.035543559091797849 0.044958706537792992 0 0.044958706537792992 0.0038105381563573459 0 0 0 -0.0079332552338602369 -0.043223463298877808 0.051826092789697187 0 0.051826092789697187 -1.3230442041085519e-05 0 0 0 -0.010809173435229889 -0.033149560183603127 0.049912093346133002 0 0.049912093346133002 0.015533075854389566 0 0 0 -0.0044041210823031196 -0.034672084619370214 0.048327775251680916 0 0.048327775251680916 0.0096149451637828065 0 0 0 -0.0062642848638967408 -0.023188144408878453 0.044142081977148528 0 0.044142081977148528 0.031820880569518206 0 0 0 0.0021581840401596053 -0.020353271812916462 0.042843632706475399 0 0.042843632706475399 0.042572775681789743 0 0 0 0.0055548759672185977 -0.029488625975456539 0.051260513416664752 0 0.051260513416664752 0.016896817029846467 0 0 0 -0.0031479522364024071 -0.028946894721843641 0.042417637292515575 0 0.042417637292515575 0.040747165837743182 0 0 0 0.0029500677789748853 -0.0076177635034442304 0.029986951402718676 0 0.029986951402718676 0.078035720115664731 0 0 0 0.017604489153055347 -0.024132539971315925 0.040532105544773822 0 0.040532105544773822 0.047031332851284802 0 0 0 0.0057246982199918861 -0.023339204453910245 0.032067164273363424 0 0.032067164273363424 0.073805228289739233 0 0 0 0.012616505958956914 -0.026484618957867578 0.043230773739294959 0 0.043230773739294959 0.030640116535343154 0 0 0 0.0010388743943687828 -0.016334949049805036 0.037163900968752328 0 0.037163900968752328 0.047997885713847666 0 0 0 0.0079157341660103242 -0.017186990930644352 0.035142080549646515 0 0.035142080549646515 0.069863807837276859 0 0 0 0.013169204226658238 -0.0032073057120132198 0.028262767316417303 0 0.028262767316417303 0.057606316826975146 0 0 0 0.01359975277874037 -0.018464404873767659 0.027241234859549657 0 0.027241234859549657 0.070701887384576168 0 0 0 0.01305937062770246 -0.0029418447743481124 0.020603569247430897 0 0.020603569247430897 0.061931723238378922 0 0 0 0.014747469616007702 0.0022348272486607534 0.016808816548741223 0 0.016808816548741223 0.093430163265981747 0 0 0 0.023916247628660514 -0.0026413172218262559 0.0085901685933413852 0 0.0085901685933413852 0.093241602822526914 0 0 0 0.022650071400174721 0.0019422067751904547 0.0059250911534824979 0 0.0059250911534824979 0.076939271700241854 0 0 0 0.019720369618858632 0.0023362264682580403 0.013440723215925321 0 0.013440723215925321 0.044840333283879374 0 0 0 0.011794139938033688 -0.0015938151296484016 0.0058865557155884929 0 0.0058865557155884929 0.011482954449033578 0 0 0 0.002472284829845961 0.00064068627467683825 0.014748500093417662 0 0.014748500093417662 0.018186458661809013 0 0 0 0.0047067862341219069 -0.00017704953691799474 0.0095725942493829486 0 0.0095725942493829486 0.039985861523183175 0 0 0 0.0099522029965668501 -0.013406837528797455 0.022636435292211043 0 0.022636435292211043 0.0051631621698882135 0 0 0 -0.0020609188397273659 -0.011247886222690351 0.024285777023457633 0 0.024285777023457633 0.025702985851464355 0 0 0 0.003613774907193168 -0.011853478273462725 0.03065074326540973 0 0.03065074326540973 0.013637032030542784 0 0 0 0.00044588843926951505 -0.023738677105642814 0.037990424941094503 0 0.037990424941094503 0.020814283142618795 0 0 0 -0.00073109849075592148 -0.025067239368602223 0.030083336710493902 0 0.030083336710493902 -0.0054388261430453611 0 0 0 -0.0076265163779121181 -0.024866487786358527 0.01800956545638277 0 0.01800956545638277 -0.0055562091392723501 0 0 0 -0.0076056742314081771 -0.010195691671931684 0.0090602346867208472 0 0.0090602346867208472 -0.0010105424993387402 0 0 0 -0.002801558542817606 -0.0052115735698272658 0.0080540389807901569 0 0.0080540389807901569 -0.0019698777777339416 0 0 0 -0.0017953628368898578 -0.006467724109245232 0.018472602997221088 0 0.018472602997221088 -0.0026692139173603024 0 0 0 -0.0022842345066516057 -0.0019183133126974283 0.0066532010940152375 0 0.0066532010940152375 0.014913376851625415 0 0 0 0.0032487658847317746 -0.0043802955102755885 -1.9087110746163205e-05 0 -1.9087110746163205e-05 0.011996546256191868 0 0 0 0.0019040626864788479 -0.0023192554982025548 -0.00029746636674543581 0 -0.00029746636674543581 0.008541903837979703 0 0 0 0.001555662084943954 -0.0011686224616735963 0.0039585380711368856 0 0.0039585380711368856 -0.0011903186861461634 0 0 0 -0.00058973528695549504 -0.006459149146795351 0.0013124749519159984 0 0.0013124749519159984 0.0020049321589024061 0 0 0 -0.0011135542469733473 0.0023747647465355293 -5.7644927279554281e-05 0 -5.7644927279554281e-05 0.0046802060312032268 0 0 0 0.0017637426944348 -0.00044034645687585083 -0.0016605749494571498 0 -0.0016605749494571498 0.0031784348621641811 0 0 0 0.00068452210132186053 0.0029788533994032917 -0.0013829226395653874 0 -0.0013829226395653874 0.00060637077495862002 0 0 0 0.00089630604359047794 0.00055688269985310068 -0.0010979200221354901 0 -0.0010979200221354901 0.0014288378150906222 0 0 0 0.00049643012873568093 0.0016012886388576675 0.00075615133562866726 0 0.00075615133562866726 -0.0012676127187285502 0 0 0 8.3418980032501366e-05 -0.0079039004497327703 0.0039253757959922808 0 0.0039253757959922808 -0.0027464294861481164 0 0 0 -0.0026625824839698886 -0.0082002604874369389 0.0079559319783752431 0 0.0079559319783752431 -0.0049536417529001397 0 0 0 -0.0032884755600846027 -0.02687183837092999 -0.011403043423208137 0 -0.011403043423208137 0.0024670039969456603 0 0 0 -0.0061012085934960547 -0.023944577601533096 -0.012388494003885975 0 -0.012388494003885975 0.040101606658062838 0 0 0 0.0040392572641323732 -0.035792252075357467 -0.0094588193249536198 0 -0.0094588193249536198 0.03486441471500501 0 0 0 -0.00023195934008807262 -0.027925919831851422 -0.013888380018111601 0 -0.013888380018111601 0.015987080674713119 0 0 0 -0.0029847097892846466 -0.027299894130190516 -0.011920525224932865 0 -0.011920525224932865 -0.012643700327178653 0 0 0 -0.0099858986143422368 -0.024279241929784839 -0.010676801211585263 0 -0.010676801211585263 -0.012523641900563154 0 0 0 -0.0092007209575869775 -0.027751066306687028 -0.0067695245795815207 0 -0.0067695245795815207 -0.018441656093216796 0 0 0 -0.011548180599975894 -0.035256478959805437 -0.012150652262994908 0 -0.012150652262994908 -0.013302323198665977 0 0 0 -0.012139700539617826 -0.033195694432207268 -0.01132971785255589 0 -0.01132971785255589 -0.013260840256512973 0 0 0 -0.011614133672180005 -0.036769661008336584 -0.014352357363237034 0 -0.014352357363237034 -0.01561055076375728 0 0 0 -0.013095052943023454 -0.037001376432131028 -0.012614189085408803 0 -0.012614189085408803 0.0033235101546187362 0 0 0 -0.0084194665693781423 -0.038427328454226806 -0.011534029374577197 0 -0.011534029374577197 0.0027672770135577229 0 0 0 -0.0089150128601672707 -0.030638519828037628 -0.012529225160296087 0 -0.012529225160296087 0.00064442622361154944 0 0 0 -0.0074985234011065299 -0.028265392026384506 -0.010775758969259272 0 -0.010775758969259272 0.033217262320626162 0 0 0 0.0012379675735604279 -0.040401707993414637 -0.0067311519827095712 0 -0.0067311519827095712 0.026716181217598112 0 0 0 -0.003421381693954173 -0.026607770838705858 -0.0050923424057919275 0 -0.0050923424057919275 0.068410803607847348 0 0 0 0.010450758192285414 -0.020715477407807908 0.0021867573005686092 0 0.0021867573005686092 0.11097719292207575 0 0 0 0.022565428878566857 -0.013150404745382344 -0.00066524005692758514 0 -0.00066524005692758514 0.12819527492150562 0 0 0 0.028761217544030798 -0.031017879865529563 -0.0027342229267114382 0 -0.0027342229267114382 0.073459262353695598 0 0 0 0.010610345622041495 -0.015608239660287904 0.028362090418572405 0 0.028362090418572405 0.089088195861525499 0 0 0 0.018369989050309066 -0.0025411882007286835 0.017018323355549706 0 0.017018323355549706 0.12503997962296154 0 0 0 0.03062469785555777 -0.022378734806404482 0.0047639332738345364 0 0.0047639332738345364 0.11756398963177817 0 0 0 0.023796313706343442 0.048838758162808707 0.006601677062834487 0 0.006601677062834487 0.14669439225180667 0 0 0 0.048883287603653854 -0.023742184606751815 0.031599607470799818 0 0.031599607470799818 0.073164783980459447 0 0 0 0.012355649843426741 -0.00261231800415751 0.021428057777496345 0 0.021428057777496345 0.1304419905101879 0 0 0 0.031957418126507209 -0.0066210801442032341 0.021049554487800659 0 0.021049554487800659 0.12203039217155898 0 0 0 0.028852328006839151 0.055635389385813805 0.006668924990534798 0 0.006668924990534798 0.16708933908191564 0 0 0 0.055681182116932355 -0.016224629111680267 0.0012553158449092328 0 0.0012553158449092328 0.13419473508023527 0 0 0 0.029492526492138765 -0.019208568612928634 0.021174342363213937 0 0.021174342363213937 0.12967345040275546 0 0 0 0.027616220447456374 0.062190902460477419 0.0066047887504013456 0 0.0066047887504013456 0.18685253733534299 0 0 0 0.062260859948955097 -0.014872794460881522 0.025113575775896457 0 0.025113575775896457 0.11844073937111776 0 0 0 0.025891986227558839 -0.020631917116784942 -0.0077849583714491577 0 -0.0077849583714491577 0.082571643061968292 0 0 0 0.015484931486295844 -0.0047873727172205727 -0.0025380633335971847 0 -0.0025380633335971847 0.14000584757430701 0 0 0 0.033804618714271595 -0.019210820914689009 -0.0097533862951658667 0 -0.0097533862951658667 0.064174500652518507 0 0 0 0.011240919934457305 -0.024676193521580514 -0.0075830694961784018 0 -0.0075830694961784018 0.081914366304889796 0 0 0 0.01430954319582739 -0.011245391807696122 -0.011123329996888809 0 -0.011123329996888809 0.095726371366857479 0 0 0 0.021120244889790255 -0.013558924741539691 -0.013998369999392524 0 -0.013998369999392524 0.067400935538191042 0 0 0 0.013460502699162824 -0.0064938006572211604 6.8244653550653123e-05 0 6.8244653550653123e-05 0.14520389756624852 0 0 0 0.034677524227256812 0.0020630309944882075 -0.0060973763657424795 0 -0.0060973763657424795 0.15535154087122638 0 0 0 0.039353642966428709 -0.010845508669345194 -0.012791898984280292 0 -0.012791898984280292 0.096221830227251504 0 0 0 0.021344080389476605 -0.01575029182767107 0.016786910908987096 0 0.016786910908987096 0.16102115239984638 0 0 0 0.036317715143043827 0.068700798663881943 0.0064381351282764669 0 0.0064381351282764669 0.20604218913824471 0 0 0 0.068685746950531659 -0.0030503886017735626 -0.00095673854811406667 0 -0.00095673854811406667 0.1658800621807961 0 0 0 0.040707418394755529 -0.020276174651139733 0.020393646914790065 0 0.020393646914790065 0.15951429509041581 0 0 0 0.034809530109818798 0.0035758974366683627 0.024021474210316196 0 0.024021474210316196 0.14191151955917758 0 0 0 0.036371854248961444 -0.00051340731227433878 0.023046213965493223 0 0.023046213965493223 0.14031044550486271 0 0 0 0.034949259548147094 0.074150817988547627 0.0062864496473042349 0 0.0062864496473042349 0.2237298325122766 0 0 0 0.07447016262520606 -0.012509329703641381 0.0054692104678335518 0 0.0054692104678335518 0.17694514027369568 0 0 0 0.041108952642513241 0.0083793088235781972 0.0019143548019009415 0 0.0019143548019009415 0.15569230873276291 0 0 0 0.041017904389085272 -0.0057305773740316535 -0.012650653495519054 0 -0.012650653495519054 0.063379090780219305 0 0 0 0.014412128351546871 0.013981504142386247 -0.0044765999628634257 0 -0.0044765999628634257 0.16600511284078889 0 0 0 0.044996654245793799 0.0057269391736500252 -0.0042619149210137985 0 -0.0042619149210137985 0.1636153666192568 0 0 0 0.042335576448226775 0.020561007976574563 -0.0020765952383692277 0 -0.0020765952383692277 0.13991079174518783 0 0 0 0.040117949930440655 -0.0058726158492351521 -0.0087360373451976503 0 -0.0087360373451976503 0.063489842684364528 0 0 0 0.014404306708782344 0.00099204813238601419 -0.009528085373471773 0 -0.009528085373471773 0.0014038148085941948 0 0 0 0.00059896573524503838 0.0048252322137473658 -0.0057573131125291388 0 -0.0057573131125291388 0.050066347598900718 0 0 0 0.013722894953161924 -0.0045680905327723908 -0.0032212361949949808 0 -0.0032212361949949808 0.02183138327029498 0 0 0 0.0043158231843807449 -0.0049700447730725433 -0.015254726810117747 0 -0.015254726810117747 0.034894748021751687 0 0 0 0.0074811758121697963 -0.014595642102014028 -0.012827983400295118 0 -0.012827983400295118 0.0053782902742599559 0 0 0 -0.0023043379569385181 -0.021679376429059427 -0.012433851049066136 0 -0.012433851049066136 -0.0066476658487812923 0 0 0 -0.0070817605694602492 -0.014394940260783362 -0.014182958934996048 0 -0.014182958934996048 0.020507111466715688 0 0 0 0.0015280428014830538 -0.018878390230407882 -0.01591756705383468 0 -0.01591756705383468 0.03075718602336841 0 0 0 0.0029696989482401182 -0.020737939818761736 -0.0077731636206854748 0 -0.0077731636206854748 -0.026286466179799239 0 0 0 -0.011756101499640376 -0.014371273969287789 -0.010515555240698138 0 -0.010515555240698138 -0.0083714872323593995 0 0 0 -0.0056856903004117833 -0.010762129675193133 -0.0091099882447844838 0 -0.0091099882447844838 -0.018824360026357567 0 0 0 -0.0073966224253876889 -0.0067056043741760551 -0.013175337431875545 0 -0.013175337431875545 -0.0015923839214908586 0 0 0 -0.0020744970739167146 -0.0052212898704296351 -0.0037295205860650993 0 -0.0037295205860650993 -0.019443987716390332 0 0 0 -0.0061663193967051444 0.00049942520976453686 -0.0026255595300561513 0 -0.0026255595300561513 -0.0087367072319661787 0 0 0 -0.002059320505550355 -0.0013317321898015174 -0.0020859981568674968 0 -0.0020859981568674968 -0.0063456672238760784 0 0 0 -0.001919349853419385 -0.00028991847113679636 0.00056207873876587544 0 0.00056207873876587544 -0.018812302265789782 0 0 0 -0.0047755551842317834 -0.0011152297107635402 0.0017920256863768191 0 0.0017920256863768191 -0.011378831419577752 0 0 0 -0.0031235152825852953 -0.00058214901841857625 0.00069484802974867366 0 0.00069484802974867366 -0.018804177134710942 0 0 0 -0.0048465815382824906 -0.0034769132459578078 0.0025158243416076864 0 0.0025158243416076864 -0.02214399825216451 0 0 0 -0.0064052278745306002 -0.0079451801989409709 -0.0020753632807797295 0 -0.0020753632807797295 -0.022347131146807531 0 0 0 -0.0075730778364370144 0.002706143921525816 0.0045021755188506818 0 0.0045021755188506818 0.010127274717086529 0 0 0 0.003208354659653156 -0.0017088691052933869 0.0038441407002651751 0 0.0038441407002651751 -0.0031095522094082284 0 0 0 -0.0012046053286753899 -0.00039403573098434341 0.0071969613005519462 0 0.0071969613005519462 -0.013277802702835739 0 0 0 -0.0034179596084550345 -0.0046266916886694154 0.0102823862586017 0 0.0102823862586017 0.010920573450768689 0 0 0 0.0015734704405248601 -0.012412521449515657 0.0084548211294173115 0 0.0084548211294173115 -0.013105551681828032 0 0 0 -0.0063795182828360608 -0.021630722217845233 0.0045269176168600822 0 0.0045269176168600822 -0.016022042504357459 0 0 0 -0.0094131911805507285 -0.013501752844905124 0.0066909640232205025 0 0.0066909640232205025 0.0077687668967915124 0 0 0 -0.0014332464870283612 -0.017831596008707873 0.0085929805260052672 0 0.0085929805260052672 0.0061339911423310411 0 0 0 -0.0029244012165942079 -0.016416651758914325 0.00092478356285252694 0 0.00092478356285252694 -0.026328524115775243 0 0 0 -0.010686293968672433 -0.0076108972914437634 0.0066660013723893186 0 0.0066660013723893186 -0.01114205488839537 0 0 0 -0.0046882380449598249 -0.012351761142671058 -0.0021856418662058452 0 -0.0021856418662058452 -0.019057644477907809 0 0 0 -0.0078523514051446752 -0.024798901564813458 -0.0042171325002316462 0 -0.0042171325002316462 -0.023866720341863878 0 0 0 -0.012166405476669306 -0.029091319536887594 -0.0070027669797088077 0 -0.0070027669797088077 -0.016122675115848972 0 0 0 -0.011303498663184086 -0.030930309713998683 -0.0060934952443666146 0 -0.0060934952443666146 -0.020524650144063239 0 0 0 -0.012863739964515397 -0.026109318210079613 -0.0033309523092798499 0 -0.0033309523092798499 -0.0098496335382691758 0 0 0 -0.0089897379370871278 -0.021239643546261421 -0.0020967708349374226 0 -0.0020967708349374226 -0.016670126056972559 0 0 0 -0.0094774424008084099 -0.029972177571435082 -0.0011863686087562608 0 -0.0011863686087562608 -0.013720424392043684 0 0 0 -0.010923150490869699 -0.021069776526279393 0.00094416908596250959 0 0.00094416908596250959 -0.0098121487522456752 0 0 0 -0.0077204813196313227 -0.028108777246685701 0.00069315425098306904 0 0.00069315425098306904 0.0012594364081564002 0 0 0 -0.0067123352096323252 -0.021426655277161089 0.00049813248655231068 0 0.00049813248655231068 0.024771767810918499 0 0 0 0.00083627813343939428 -0.025768737225249416 -0.00088034272817227865 0 -0.00088034272817227865 0.00075864326106223068 0 0 0 -0.0062525234910468241 -0.033732980782646915 -0.0077090665058653085 0 -0.0077090665058653085 -0.0034194028086261818 0 0 0 -0.0092880958978182604 -0.038985773957124603 -0.0054040678085108124 0 -0.0054040678085108124 -0.0011126380150139337 0 0 0 -0.010024602993034593 -0.031741727841169805 -0.0065853322991313301 0 -0.0065853322991313301 0.02378958423284569 0 0 0 -0.0019880359020809715 -0.03805533338136239 -0.013935692143638212 0 -0.013935692143638212 -0.0028025196041117917 0 0 0 -0.010214463246368523 -0.040173624443247458 -0.015189737670455589 0 -0.015189737670455589 -0.011457483889540154 0 0 0 -0.012907777083196903 -0.036237273646330392 -0.014394637548620609 0 -0.014394637548620609 -0.013892840126627504 0 0 0 -0.012532528443239432 -0.033491347886256281 -0.0095399559869536743 0 -0.0095399559869536743 -0.012601886574894319 0 0 0 -0.011523308615287706 -0.034898347743550329 -0.010623216935813917 0 -0.010623216935813917 -0.017953183663447447 0 0 0 -0.01321288285174943 -0.035563112440071036 -0.0082967704482033167 0 -0.0082967704482033167 -0.014797069353955083 0 0 0 -0.012590045448506552 -0.019360711638443884 -0.021516675661773954 0 -0.021516675661773954 0.067589960211705602 0 0 0 0.012057312143315513 0.025466668574638925 -0.010971070831575891 0 -0.010971070831575891 0.076524502496544702 0 0 0 0.025497792767795905 -0.021796806257631141 -0.018007453600026313 0 -0.018007453600026313 0.060029142685120274 0 0 0 0.0095580841068722 -0.019638634427674384 -0.011933040844660847 0 -0.011933040844660847 0.057661773499229074 0 0 0 0.0095057847678886587 -0.031193335256999077 -0.010791708602488903 0 -0.010791708602488903 0.056484105295102838 0 0 0 0.0063226925095258846 -0.038499357171632637 -0.013607421128495722 0 -0.013607421128495722 0.018949228071239221 0 0 0 -0.0048875322750983885 -0.037574203480871704 -0.012315492781047127 0 -0.012315492781047127 0.030592876061965812 0 0 0 -0.0017453318547265284 -0.031550714968589855 -0.00354519979102208 0 -0.00354519979102208 0.017650170952329458 0 0 0 -0.0034751360040650159 -0.018345583582692837 -0.004647455032150527 0 -0.004647455032150527 0.065672273032447825 0 0 0 0.011831672362438761 -0.022472941302247529 -0.0056712700333813593 0 -0.0056712700333813593 0.047511537935670534 0 0 0 0.0062596491583557512 -0.01871876372050521 0.0011394091036951437 0 0.0011394091036951437 0.042840379446117738 0 0 0 0.0060304039314031666 -0.020103380759594613 -0.0002942013796327636 0 -0.0002942013796327636 0.029381878768348191 0 0 0 0.0023196245021885331 -0.0048446740584734693 -0.0049141982317972843 0 -0.0049141982317972843 0.078360062496860117 0 0 0 0.018378847109596669 0.00076439981248493938 -0.0044441168697166777 0 -0.0044441168697166777 0.077343834333873929 0 0 0 0.019527058536589759 -0.017054366868856863 -0.021955233977321686 0 -0.021955233977321686 0.063990964575272979 0 0 0 0.011734149426604112 -0.021671659402383525 -0.023997774084907997 0 -0.023997774084907997 0.062309914048299053 0 0 0 0.01015956366147891 0.033895231462981165 -0.010307272758313923 0 -0.010307272758313923 0.10181500731468386 0 0 0 0.033927559694416257 -0.0079905152351187336 -0.0080730616598386762 0 -0.0080730616598386762 0.07073145630233113 0 0 0 0.015685235266803099 -0.029613215208525723 -0.020039277164100699 0 -0.020039277164100699 0.067428794702383055 0 0 0 0.0094538948734645412 0.029654297157049338 -0.01074685697229389 0 -0.01074685697229389 0.089089696436214907 0 0 0 0.029685998398316066 -0.021867912540659118 -0.018509503326433752 0 -0.018509503326433752 0.087520270663058231 0 0 0 0.016413089530599834 0.038159914896624736 -0.0098061659557329185 0 -0.0098061659557329185 0.1145635589785669 0 0 0 0.03818086846879791 0.0041638603078145708 -0.0016253793787303504 0 -0.0016253793787303504 0.089423482249915365 0 0 0 0.023396835639432401 -0.022837195630951535 -0.019908293320684445 0 -0.019908293320684445 0.087279790765252635 0 0 0 0.016110648783575276 -0.0045527303342820513 -0.022956582195404307 0 -0.022956582195404307 0.074909572708372174 0 0 0 0.017589210593522475 -0.011460270873087319 0.0078952528838223679 0 0.0078952528838223679 0.03500410437542878 0 0 0 0.0058859583755853651 -0.0076243049174125055 0.005231548923410656 0 0.005231548923410656 0.047458054867259847 0 0 0 0.0099584374874618353 0.0010424338479778361 0.00012370645492598698 0 0.00012370645492598698 0.086232099381205574 0 0 0 0.021818633307295804 -0.0067192480419123596 0.0092660156581204633 0 0.0092660156581204633 0.048486781685151512 0 0 0 0.010441883410809774 -0.0037385016611578559 0.0086869994345075974 0 0.0086869994345075974 0.022586382308255715 0 0 0 0.0047119701617744369 0.011147456229369732 -0.00022660884189829034 0 -0.00022660884189829034 0.088713783082350173 0 0 0 0.02496530982792998 0.00787238493981951 0.0019053027053815841 0 0.0019053027053815841 0.08665792716105325 0 0 0 0.023632578025218232 0.015231995536328223 -0.0011857573353614703 0 -0.0011857573353614703 0.066889993369103506 0 0 0 0.02053049722635799 -0.0027341873520996818 0.0081523957993964169 0 0.0081523957993964169 0.022943338875418773 0 0 0 0.0050522878808297311 -0.0037297870059654903 -0.019422271535168623 0 -0.019422271535168623 0.074161018173797166 0 0 0 0.01760780779195803 0.041871579140419099 -0.0093641561477323561 0 -0.0093641561477323561 0.1258688266971312 0 0 0 0.041935101459387572 -0.0092139775904318544 -0.0075676960357448121 0 -0.0075676960357448121 0.09860149185238587 0 0 0 0.022346878565488337 0.0043906134442863731 -0.0040122043957193654 0 -0.0040122043957193654 0.081063207772380075 0 0 0 0.021363455304166612 -0.0014463985576556038 -0.0075606698501281544 0 -0.0075606698501281544 0.04619914680675663 0 0 0 0.011188187062275645 0.0013873003830835355 -0.00619326569552614 0 -0.00619326569552614 0.037301097455104876 0 0 0 0.0096720994595467149 -0.0026672298613517054 -0.017417676852141906 0 -0.017417676852141906 0.030430639584167363 0 0 0 0.0069408524307037478 -0.00083496359932877517 -0.015957127589518949 0 -0.015957127589518949 0.04495130654744095 0 0 0 0.011029085737028099 3.9208782497857086e-05 -0.011460821309413616 0 -0.011460821309413616 0.016601866504830642 0 0 0 0.0041602688218320694 -0.0010925631853542228 -0.012118067130077903 0 -0.012118067130077903 0.0035520742322483478 0 0 0 0.00061487776172342024 -0.00072230491323344026 -0.0055640376993130276 0 -0.0055640376993130276 0.0046628490483033858 0 0 0 0.00098513603376737535 -7.5859713860488171e-05 -0.0081063633041578154 0 -0.0081063633041578154 0.018730505927682422 0 0 0 0.0046636615534555387 -0.0090505560293242526 -0.020720286869712501 0 -0.020720286869712501 0.010933157260247128 0 0 0 0.00047065030773063565 -0.010745031338445898 -0.025154117837660639 0 -0.025154117837660639 0.002893331436901958 0 0 0 -0.0019629249753859157 -0.012292594304875615 -0.018428480014248239 0 -0.018428480014248239 0.0013730779969962636 0 0 0 -0.0027298790769697545 -0.021617793234741667 -0.030552625246388021 0 -0.030552625246388021 0.0071242258816472948 0 0 0 -0.0036233918382737595 -0.019156997719038574 -0.031438773288691158 0 -0.031438773288691158 0.033843424491067975 0 0 0 0.0036716066930072427 -0.016697559943377627 -0.024688308134445558 0 -0.024688308134445558 0.036521123088820939 0 0 0 0.0049558907863609392 -0.0062963623899150445 -0.024510099414301906 0 -0.024510099414301906 0.025407090654811171 0 0 0 0.0047776820662239761 0.00024207295222689051 0.00052218546996374293 0 0.00052218546996374293 0.001094900038162816 0 0 0 0.00033424324759712132 0.001912619364427659 0.00084890686657801417 0 0.00084890686657801417 0.00026546883842559765 0 0 0 0.00054452205071320314 -0.00042551692551284244 0.0010427662071812449 0 0.0010427662071812449 0.0020362147609688398 0 0 0 0.00040267445886399937 0.0016494078172157867 -0.0001353388902549657 0 -0.0001353388902549657 0.002668509462488089 0 0 0 0.0010794793199260244 -0.0052498226531252357 -0.001505418272018888 0 -0.001505418272018888 0.00063092716678347927 0 0 0 -0.0011547238715854391 -0.001165837866896613 -0.0035226352862703925 0 -0.0035226352862703925 -0.0025648856668469833 0 0 0 -0.00093268088343601008 -0.0012812512818838329 -0.00046375185143160413 0 -0.00046375185143160413 0.004322206372684434 0 0 0 0.00076023877269992823 -0.0033750851998113228 -0.0004883631608447736 0 -0.0004883631608447736 0.0067440538615047068 0 0 0 0.00084224216542329051 -0.0019156703837247525 -0.0056399311093280335 0 -0.0056399311093280335 0.0061933150519951699 0 0 0 0.0010694111670678263 -0.0058992851656536338 -0.014764112424497849 0 -0.014764112424497849 -0.0059809416803013882 0 0 0 -0.0029700567114887555 -0.020850863766078198 -0.023670853389531121 0 -0.023670853389531121 -0.0064112487603682489 0 0 0 -0.0068155281316116256 -0.019123197776475642 -0.013996121050158572 0 -0.013996121050158572 -0.0054973243463973809 0 0 0 -0.0061551305307183668 -0.0078873201971043638 -0.0077644910795673372 0 -0.0077644910795673372 -0.0021985895920275667 0 0 0 -0.0025214774472830381 -0.0044672986065030229 -0.0067609024650114868 0 -0.0067609024650114868 -0.0018122406942533975 0 0 0 -0.001569884825188772 -0.0068985248165729374 -0.0033007314069908311 0 -0.0033007314069908311 -0.0023093124356452499 0 0 0 -0.0023019593130546578 -0.0072036220525830696 -0.0058904435554952769 0 -0.0058904435554952769 -0.0034749155340181304 0 0 0 -0.0026696343966501335 0.00054988304429737234 -0.00077319480074833336 0 -0.00077319480074833336 -0.00088790255678183883 0 0 0 -8.4504878120839066e-05 -0.017876992904257927 -0.006948094932062031 0 -0.006948094932062031 0.0014418578136181637 0 0 0 -0.0041087837726594412 -0.010273349376133889 -0.0057510017244277734 0 -0.0057510017244277734 0.00040915729468826711 0 0 0 -0.0024660480203612112 -0.021235591611243776 -0.013281325043471792 0 -0.013281325043471792 0.0022615343659007081 0 0 0 -0.0047435143113360168 -0.026653031869969479 -0.01029609103161766 0 -0.01029609103161766 -0.0039597603174552631 0 0 0 -0.0076531980468562688 -0.030145278198313807 -0.022286899166080398 0 -0.022286899166080398 -0.005992668602591511 0 0 0 -0.0090344867002263296 -0.014469008605307199 -0.016661960778823537 0 -0.016661960778823537 0.0012975713105221054 0 0 0 -0.0032928593236962733 -0.026716526672906138 -0.024545932095512368 0 -0.024545932095512368 0.0018556955092376981 0 0 0 -0.006215207790917221 -0.030240995003661952 -0.029726036850365789 0 -0.029726036850365789 -0.0021158919158028588 0 0 0 -0.0080892217298662583 -0.041783871135067568 -0.026850318748810942 0 -0.026850318748810942 -0.0033214212291417661 0 0 0 -0.011276323091052448 -0.046416760061536499 -0.032821628897745564 0 -0.032821628897745564 6.6982841757656786e-06 0 0 0 -0.011602515444340211 -0.033712396603664901 -0.031532746430458447 0 -0.031532746430458447 0.0040048578053587525 0 0 0 -0.007426884699576336 -0.037320608506640762 -0.02456772816400743 0 -0.02456772816400743 -0.00037259359899222133 0 0 0 -0.0094233005264082736 -0.031818175232203871 -0.015455622926632717 0 -0.015455622926632717 -0.0020589829282948724 0 0 0 -0.0084692895401244916 -0.047717818822051505 -0.016586109374487901 0 -0.016586109374487901 -0.0033332449552232468 0 0 0 -0.012762765944318355 -0.037198352752309982 -0.011198484357559768 0 -0.011198484357559768 0.0029888205656320999 0 0 0 -0.0085523830466694983 -0.0404124959745642 -0.0089306085405662355 0 -0.0089306085405662355 -0.0031952380094715238 0 0 0 -0.010901933496008986 -0.033580156651363047 -0.0069346337455313822 0 -0.0069346337455313822 0.00032863074588940222 0 0 0 -0.0083128814763681058 -0.030499071502816 -0.033501324034439617 0 -0.033501324034439617 0.022565714858813646 0 0 0 -0.0019833391610007411 -0.024885515451554041 -0.033262764453459548 0 -0.033262764453459548 0.019486719341027747 0 0 0 -0.0013496990276312681 -0.02717747877968768 -0.028775549856198651 0 -0.028775549856198651 0.040185957452153254 0 0 0 0.0032521196681163378 -0.018228229318171252 -0.031132961980667839 0 -0.031132961980667839 0.022144603006217789 0 0 0 0.00097909342201152327 -0.022442224136723699 -0.031866765572598543 0 -0.031866765572598543 0.0045453308132961112 0 0 0 -0.0044742233308570079 -0.022202114993618016 -0.02655961671593543 0 -0.02655961671593543 0.0031833240486702774 0 0 0 -0.0047546977362370457 -0.028162176009285389 -0.03263055023201944 0 -0.03263055023201944 0.0091147656613776995 0 0 0 -0.0047618525869770334 -0.033593344154171256 -0.036009791034475769 0 -0.036009791034475769 0.0097635502024098209 0 0 0 -0.0059574484879404421 -0.031426522485789699 -0.035278816312597217 0 -0.035278816312597217 0.0057150204857996378 0 0 0 -0.0064278754999973486 -0.03326346412810488 -0.031512160628755614 0 -0.031512160628755614 0.0035302816960838257 0 0 0 -0.0074332956080054302 -0.039433532356889733 -0.036171149460473395 0 -0.036171149460473395 0.0078415584664534022 0 0 0 -0.0078979934726092216 -0.033122270838488621 -0.034829981094881404 0 -0.034829981094881404 0.019499767926227651 0 0 0 -0.0034056257280652424 -0.030093027979032239 -0.035552723661011254 0 -0.035552723661011254 0.020216198305813116 0 0 0 -0.0024692074183046975 -0.026852850677737572 -0.028296157627609508 0 -0.028296157627609508 0.039532767645530154 0 0 0 0.0031699792419482842 -0.028866444622687726 -0.030554488227613308 0 -0.030554488227613308 0.034204914172240475 0 0 0 0.0013346173873881595 -0.023694750239575013 -0.029163343750139181 0 -0.029163343750139181 0.033544121682872685 0 0 0 0.0024623428608243625 -0.032779369441778283 -0.034136146709370374 0 -0.034136146709370374 0.02225460688544123 0 0 0 -0.0026311906390842354 -0.024542498716919069 -0.031399994936035958 0 -0.031399994936035958 0.025000230460395619 0 0 0 0.00011443293586919303 -0.026870415528510216 -0.030692864554749927 0 -0.030692864554749927 0.025824564546568674 0 0 0 -0.00026146274548533022 -0.035453758250394429 -0.036722612265485677 0 -0.036722612265485677 0.015170762491311329 0 0 0 -0.005070748939770886 -0.031035826294893099 -0.034413603724133102 0 -0.034413603724133102 0.020361940584167737 0 0 0 -0.0026684714276814514 -0.035874525054577423 -0.038038042188796695 0 -0.038038042188796695 0.011099537656526118 0 0 0 -0.0061937468495126616 -0.039675620492850894 -0.035968514122658446 0 -0.035968514122658446 0.0053001761564983596 0 0 0 -0.0085938610840882168 -0.047464139741749234 -0.035098805767952879 0 -0.035098805767952879 0.0026627694347172021 0 0 0 -0.011200342576757952 -0.036394633674543098 -0.037138481376532556 0 -0.037138481376532556 0.011014968874769604 0 0 0 -0.0063449161999435955 -0.041450120830348158 -0.039652888184040724 0 -0.039652888184040724 0.007886766681536983 0 0 0 -0.0083908385372029048 -0.038237584466363383 -0.037794027819587073 0 -0.037794027819587073 0.0086493185900699959 0 0 0 -0.0073970664690734544 -0.050894024499907486 -0.03703121723609637 0 -0.03703121723609637 0.0053825237437143958 0 0 0 -0.011377875189048314 -0.049713524789207209 -0.040179961420189106 0 -0.040179961420189106 0.010771533906109187 0 0 0 -0.009735497720774533 -0.018371043328284542 -0.038866641205824518 0 -0.038866641205824518 0.018204332355165498 0 0 0 -4.167774327967777e-05 -0.013444200827814501 -0.029869885160233423 0 -0.029869885160233423 0.023749336399815579 0 0 0 0.0025762838930002419 -0.021619679816685222 -0.029558225664123534 0 -0.029558225664123534 0.028048567029031357 0 0 0 0.0016072218030865892 -0.036380795397153054 -0.038597231974376256 0 -0.038597231974376256 0.014060878705558277 0 0 0 -0.005579979172898597 -0.026038485425215141 -0.035654771848448896 0 -0.035654771848448896 0.017337945672021515 0 0 0 -0.0021751349382984619 -0.058884760836079408 -0.012437770390889114 0 -0.012437770390889114 0.0035606411188984222 0 0 0 -0.013831029929295191 -0.079362900099407677 -0.012085912874931992 0 -0.012085912874931992 -0.0032764345003895023 0 0 0 -0.020659833649949354 -0.056896950957560324 -0.011179043134576183 0 -0.011179043134576183 -0.0035314098159699436 0 0 0 -0.015107090193382536 -0.062433653232705666 -0.010745594257600105 0 -0.010745594257600105 0.00032312033457770895 0 0 0 -0.015527633224531767 -0.053722549997522018 -0.012717358580947621 0 -0.012717358580947621 -0.00056642318404431791 0 0 0 -0.01357224329539175 -0.05488116510372365 -0.027797195596405443 0 -0.027797195596405443 0.0020527947937138968 0 0 0 -0.013207092577502411 -0.056200720334431464 -0.026479127140884851 0 -0.026479127140884851 -5.2969853793438659e-05 0 0 0 -0.014063422547056392 -0.044005134634344079 -0.02656672100321833 0 -0.02656672100321833 0.00023721940668286479 0 0 0 -0.010941978806915276 -0.052500768304306389 -0.035810326178371321 0 -0.035810326178371321 0.0049064521996502464 0 0 0 -0.011898579026164091 -0.057331415910199079 -0.031614237605655404 0 -0.031614237605655404 0.0059427498218833641 0 0 0 -0.012847166522078846 -0.06057688627756963 -0.033697989756503177 0 -0.033697989756503177 0.0021374815928396629 0 0 0 -0.014609851171182631 -0.061920366738486221 -0.037517297500669677 0 -0.037517297500669677 0.0096409773817410782 0 0 0 -0.013069847339186147 -0.07168342549195908 -0.028180973501810591 0 -0.028180973501810591 0.0014358437706991772 0 0 0 -0.01756189543031509 -0.072693552497182512 -0.027607370960017641 0 -0.027607370960017641 0.0061813741300940084 0 0 0 -0.016628044591772084 -0.069269568819727012 -0.026922048120455067 0 -0.026922048120455067 0.00049727317866343768 0 0 0 -0.017193073910265921 -0.063204050945046553 -0.021856823500668865 0 -0.021856823500668865 0.0047914608140015025 0 0 0 -0.014603147532761263 -0.090994444293712395 -0.019520304693893098 0 -0.019520304693893098 -0.0011927930677875231 0 0 0 -0.023046809340375063 -0.084400043588679252 -0.009997258040429946 0 -0.009997258040429946 -0.00046735263103403479 0 0 0 -0.021216849054928266 -0.083286662321730986 -0.011823651281650083 0 -0.011823651281650083 0.0016839057349207209 0 0 0 -0.020400689146702455 -0.13210378768342323 -0.0096412322904485936 0 -0.0096412322904485936 0.001328498710905901 0 0 0 -0.032693822243129333 -0.10652013673758454 -0.010157971875109981 0 -0.010157971875109981 0.0014209957585038513 0 0 0 -0.026274785244770116 -0.10456126089467607 -0.0081271582000739251 0 -0.0081271582000739251 -0.00059318215512782491 0 0 0 -0.026288610762451009 -0.093050372156996061 -0.022970620245290063 0 -0.022970620245290063 0.0078813056299473078 0 0 0 -0.021292266631762188 -0.08962864775846946 -0.022289985142300572 0 -0.022289985142300572 0.00049725468413330809 0 0 0 -0.022282848268583955 -0.070539114768896183 -0.031743567646341231 0 -0.031743567646341231 0.005401002878071548 0 0 0 -0.016284527972706075 -0.070383735590222152 -0.033027858270232968 0 -0.033027858270232968 0.011979648524973907 0 0 0 -0.014601021766312061 -0.07292076665012881 -0.033023852878210858 0 -0.033023852878210858 0.021350701738510836 0 0 0 -0.012892516227904549 -0.085585121127433161 -0.023525836203175277 0 -0.023525836203175277 0.0018497529702638515 0 0 0 -0.020933842039292105 -0.085989074879528865 -0.02420011504673053 0 -0.02420011504673053 0.0099839554672964126 0 0 0 -0.019001279853058162 -0.10573714993763794 -0.011854632888012778 0 -0.011854632888012778 0.011333506907643565 0 0 0 -0.023600910757498594 -0.096928685430727135 -0.024169406362031715 0 -0.024169406362031715 0.0096525916198973993 0 0 0 -0.02181902345270742 -0.10886302697669159 -0.011182738363661349 0 -0.011182738363661349 0.0020987651160538912 0 0 0 -0.026691065465159369 -0.1107538263765584 -0.01245722196251145 0 -0.01245722196251145 0.00021253875309756864 0 0 0 -0.027635321905865151 -0.14000394437641703 -0.0067705289056268544 0 -0.0067705289056268544 0.003081619010043779 0 0 0 -0.034230581341593291 -0.03526350954202373 -0.039166940945618428 0 -0.039166940945618428 0.019591737428166889 0 0 0 -0.0039179430284642103 -0.0049550541229697043 -0.054427385870828349 0 -0.054427385870828349 0.041113139129483667 0 0 0 0.0090395212516285461 -0.035579491173961107 -0.041840423206990551 0 -0.041840423206990551 0.020023710357378099 0 0 0 -0.0038889452041458092 -0.039165112234684996 -0.038809065032479828 0 -0.038809065032479828 0.010912512584820178 0 0 0 -0.007063149912466149 -0.058698210994500566 -0.036768298435021288 0 -0.036768298435021288 0.011135148818975482 0 0 0 -0.011890765543881354 -0.057117623122932171 -0.039506490615430434 0 -0.039506490615430434 0.016564262867230006 0 0 0 -0.010138340063925555 -0.041786124469322533 -0.045478840200251058 0 -0.045478840200251058 0.025694909927412135 0 0 0 -0.0040228036354776064 -0.062608768130116066 -0.031710559275990757 0 -0.031710559275990757 0.025788102135801627 0 0 0 -0.0092051664985786652 -0.0851803410675539 -0.023622272842125619 0 -0.023622272842125619 0.01103755444670651 0 0 0 -0.01853569665521182 -0.080626404714964073 -0.018370770110224921 0 -0.018370770110224921 0.018157650550613053 0 0 0 -0.015617188541087727 -0.065519674645891812 -0.034833753562383246 0 -0.034833753562383246 0.028946037574390182 0 0 0 -0.0091434092678754353 -0.040809670553687616 -0.040426308718224231 0 -0.040426308718224231 0.037573578527130058 0 0 0 -0.00080902300663943105 -0.039786207955430641 -0.039192540703408239 0 -0.039192540703408239 0.039615595283423066 0 0 0 -4.2653168001893782e-05 -0.016407670725637313 -0.049224366482259807 0 -0.049224366482259807 0.057724797662580957 0 0 0 0.010329281734235862 0.0058085643978423654 -0.071619856014045635 0 -0.071619856014045635 0.11723000721279024 0 0 0 0.030759642902658126 -0.1521185638104065 0.008701243953675275 0 0.008701243953675275 0.06204596210501756 0 0 0 -0.02251815042634725 0.11507861351855575 -0.069868457533024897 0 -0.069868457533024897 0.056060722473313063 0 0 0 0.042784833997967231 0.0043290625187580702 -0.0025829942081110058 0 -0.0025829942081110058 0.013109151597626838 0 0 0 0.0043595535290962273 0.01307359596047275 -0.035360494011770993 0 -0.035360494011770993 0.009771771417561026 0 0 0 0.0057113418445084441 0.010297045356304158 -0.032894901447158287 0 -0.032894901447158287 0.024008879055999688 0 0 0 0.0085764811030760169 0.010708559149899172 -0.0065252747497567196 0 -0.0065252747497567196 0.032268248408207911 0 0 0 0.010744201889526772 0.04072111088178032 -0.02292756293146464 0 -0.02292756293146464 0.031569432151233645 0 0 0 0.018072635758253464 0.014496246371258787 -0.008808735448786343 0 -0.008808735448786343 0.043647898229065542 0 0 0 0.01453603615008108 0.0070969651715737658 -0.019247537864226616 0 -0.019247537864226616 0.030339571010208566 0 0 0 0.0093591340454456384 0.00036012622221676116 -0.032617517191760981 0 -0.032617517191760981 0.023533297897241345 0 0 0 0.0059733560298645405 -0.074624310067927441 -0.020355068681460448 0 -0.020355068681460448 0.017001092566567344 0 0 0 -0.014405804375340003 -0.088287031905569663 -0.022756359264845993 0 -0.022756359264845993 0.03080455217875766 0 0 0 -0.014370619931702938 -0.071100077099553641 -0.019061759193321925 0 -0.019061759193321925 0.026642126482714884 0 0 0 -0.011114487654209707 -0.11386727497001257 -0.023915420942547047 0 -0.023915420942547047 0.019305685240569692 0 0 0 -0.023640397432360724 -0.074219427779943586 -0.011192270560498652 0 -0.011192270560498652 0.039887810599286311 0 0 0 -0.008582904295164312 -0.081876746775609854 -0.0077083739401060669 0 -0.0077083739401060669 0.010485263609924772 0 0 0 -0.01784787079142125 -0.1037363842996071 -0.017494594646706732 0 -0.017494594646706732 0.1158734566148652 0 0 0 0.0030342680788145865 -0.076821680673974116 -0.0004146026722701146 0 -0.0004146026722701146 0.041198544513241925 0 0 0 -0.0089057840401830686 -0.066408210170771642 -0.014092513762784184 0 -0.014092513762784184 0.013314526920938485 0 0 0 -0.013273420812458303 -0.060157950827626101 -0.015321128010015179 0 -0.015321128010015179 0.040433829389986908 0 0 0 -0.0049310303594097965 -0.071083126780669872 -0.016684688770876741 0 -0.016684688770876741 0.038202369176512631 0 0 0 -0.0082201894010393121 -0.066306911944504665 -0.021523480933711509 0 -0.021523480933711509 0.041736473238251498 0 0 0 -0.0061426096765633265 -0.064024780205909515 -0.018926669463101897 0 -0.018926669463101897 0.061992252533486294 0 0 0 -0.00050813191810580947 -0.052270179535794631 -0.031120261864220261 0 -0.031120261864220261 0.043733454492868307 0 0 0 -0.002134181260731588 -0.045682593195188359 -0.032786084245511216 0 -0.032786084245511216 0.021521647610441466 0 0 0 -0.0060402363961867302 -0.05544189528776991 -0.023261183297028976 0 -0.023261183297028976 0.020663329734625258 0 0 0 -0.0086946413882861007 -0.052165354433798855 -0.026836276512332627 0 -0.026836276512332627 0.017193045951267971 0 0 0 -0.0087430771206326863 -0.05749524130197059 -0.022515314256975547 0 -0.022515314256975547 0.014852473618650386 0 0 0 -0.010660691920830023 -0.054613931548849089 -0.027425327650226899 0 -0.027425327650226899 0.0040495681412212742 0 0 0 -0.012641090851906961 -0.065754364224235487 -0.024465080619109833 0 -0.024465080619109833 0.017528683669037537 0 0 0 -0.012056420138799512 -0.054081328321900185 -0.024495460130561725 0 -0.024495460130561725 0.0084176928173184673 0 0 0 -0.011415908876145409 -0.054592694507292053 -0.025588582686803335 0 -0.025588582686803335 0.0075400720794489007 0 0 0 -0.011763155606960826 -0.060875071915782925 -0.024953452540310145 0 -0.024953452540310145 0.011238398311800069 0 0 0 -0.012409168400995707 -0.04987937897210773 -0.025917168291592643 0 -0.025917168291592643 0.00071314617703183147 0 0 0 -0.012291558198768981 -0.051529432596383928 -0.023834976440459107 0 -0.023834976440459107 0.0047360633084909676 0 0 0 -0.011698342321973254 -0.051584906763027516 -0.023866497533570813 0 -0.023866497533570813 0.014485518195284319 0 0 0 -0.0092748471419358269 -0.044910790791804683 -0.02729005542251807 0 -0.02729005542251807 -0.0033748666365498448 0 0 0 -0.012071414357088667 -0.047555782798757135 -0.027499223097562357 0 -0.027499223097562357 0.0063715482306850868 0 0 0 -0.010296058642018019 -0.049364355639395535 -0.026781877827650014 0 -0.026781877827650014 0.0014671011972243742 0 0 0 -0.011974313610542769 -0.044405070819259859 -0.024810045242550233 0 -0.024810045242550233 -0.0057174127835535188 0 0 0 -0.012530620900703379 -0.042156724184038409 -0.026105835078769346 0 -0.026105835078769346 -0.0026463906400735135 0 0 0 -0.011200778706028071 -0.041004474631174126 -0.018620390768682993 0 -0.018620390768682993 -0.013777406689163718 0 0 0 -0.013695470330084558 -0.04438533212147272 -0.020830332650618316 0 -0.020830332650618316 -0.0068809191140160042 0 0 0 -0.012816562808872195 -0.039313404498253088 -0.019764197445631765 0 -0.019764197445631765 -0.0098507096685386958 0 0 0 -0.012291028541697935 -0.049221692878584355 -0.019227281780434535 0 -0.019227281780434535 0.01493841797309628 0 0 0 -0.0085708187263720537 -0.044081651451083559 -0.019596935459619658 0 -0.019596935459619658 0.0009679452154690571 0 0 0 -0.010778426558903653 -0.049186197672169883 -0.021423254641033618 0 -0.021423254641033618 0.004481364119963277 0 0 0 -0.011176208388051632 -0.044018949306602856 -0.014652165867427569 0 -0.014652165867427569 -0.0015538502686250899 0 0 0 -0.011393199893807049 -0.04714080672246479 -0.015325297318974113 0 -0.015325297318974113 0.012170294533093262 0 0 0 -0.0087426280473428264 -0.038190047428874496 -0.01271381075913113 0 -0.01271381075913113 0.016329682736425433 0 0 0 -0.0054650911731123353 -0.040477242574017969 -0.015175333336813646 0 -0.015175333336813646 0.034218833082888422 0 0 0 -0.0015646023727824421 -0.049569488968898234 -0.018923858110879654 0 -0.018923858110879654 0.027816774664752186 0 0 0 -0.0054381785760364565 -0.047803910649740378 -0.01831806370254313 0 -0.01831806370254313 0.024880274282435777 0 0 0 -0.005730909091826164 -0.042169306031211357 -0.01329809507069446 0 -0.01329809507069446 0.050752981953239185 0 0 0 0.0021459189805070056 -0.016329315783604859 -0.017942706865923697 0 -0.017942706865923697 0.049315260334460431 0 0 0 0.0082464861377138376 0.02159666976138486 -0.010813311824116706 0 -0.010813311824116706 0.064920392394676826 0 0 0 0.021629265539015431 -0.03580445550946354 -0.014347086578058634 0 -0.014347086578058634 0.050774478974183745 0 0 0 0.0037425058661800792 -0.021609546756539477 -0.021800704185036546 0 -0.021800704185036546 0.054412397301742521 0 0 0 0.0082007126363007332 -0.014891889206144759 -0.020061769674547536 0 -0.020061769674547536 0.046379770858044456 0 0 0 0.0078719704129749934 -0.0085633589521619813 -0.016962279410269399 0 -0.016962279410269399 0.042334187742503415 0 0 0 0.0084427071975852197 -0.059246330235360245 -0.01772441729699134 0 -0.01772441729699134 0.042798271910564289 0 0 0 -0.004112014581198975 0.018004214537981702 -0.010150245131479935 0 -0.010150245131479935 0.054159561105916125 0 0 0 0.018040943910974456 -0.0058969144778255878 -0.018131887547620296 0 -0.018131887547620296 0.039032581773489783 0 0 0 0.0082839168239159378 -0.013884307614585145 -0.029389309168502409 0 -0.029389309168502409 0.024932360948738852 0 0 0 0.0027620133335384267 0.0053882022996381562 -0.017330370347330537 0 -0.017330370347330537 0.035727476130766433 0 0 0 0.010278919607601189 -0.068098822979459767 -0.019865730103190871 0 -0.019865730103190871 0.030975452886988442 0 0 0 -0.0092808425231178659 -0.060883269273315749 -0.025302227056863053 0 -0.025302227056863053 0.017062801175813019 0 0 0 -0.010955117024375655 -0.061531555499098861 -0.023220894708065626 0 -0.023220894708065626 0.018587034965365401 0 0 0 -0.010736130133433358 -0.052627922452132908 -0.018052583221905061 0 -0.018052583221905061 0.035619892080833382 0 0 0 -0.0042520075928248191 
</DataArray>
<DataArray type="Float64" Name="cross_section_updated" format="ascii">
1 1 1 1 1 1 1 1 1 1 1 1 1 1 1 1 1 1 1 1 1 1 1 1 1 1 1 1 1 1 1 1 1 1 1 1 1 1 1 1 1 1 1 1 1 1 1 1 1 1 1 1 1 1 1 1 1 1 1 1 1 1 1 1 1 1 1 1 1 1 1 1 1 1 1 1 1 1 1 1 1 1 1 1 1 1 1 1 1 1 1 1 1 1 1 1 1 1 1 1 1 1 1 1 1 1 1 1 1 1 1 1 1 1 1 1 1 1 1 1 1 1 1 1 1 1 1 1 1 1 1 1 1 1 1 1 1 1 1 1 1 1 1 1 1 1 1 1 1 1 1 1 1 1 1 1 1 1 1 1 1 1 1 1 1 1 1 1 1 1 1 1 1 1 1 1 1 1 1 1 1 1 1 1 1 1 1 1 1 1 1 1 1 1 1 1 1 1 1 1 1 1 1 1 1 1 1 1 1 1 1 1 1 1 1 1 1 1 1 1 1 1 1 1 1 1 1 1 1 1 1 1 1 1 1 1 1 1 1 1 1 1 1 1 1 1 1 1 1 1 1 1 1 1 1 1 1 1 1 1 1 1 1 1 1 1 1 1 1 1 1 1 1 1 1 1 1 1 1 1 1 1 1 1 1 1 1 1 1 1 1 1 1 1 1 1 1 1 1 1 1 1 1 1 1 1 1 1 1 1 1 1 1 1 1 1 1 1 1 1 1 1 1 1 1 1 1 1 1 1 1 1 1 1 1 1 1 1 1 1 1 1 1 1 1 1 1 1 1 1 1 1 1 1 1 1 1 1 1 1 1 1 1 1 1 1 1 1 1 1 1 1 1 1 1 1 1 1 1 1 1 1 1 1 1 1 1 1 1 1 1 1 1 1 1 1 1 1 1 1 1 1 1 1 1 1 1 1 1 1 1 1 1 1 1 1 1 1 1 1 1 1 1 1 1 1 1 1 1 1 1 1 1 1 1 1 1 1 1 1 1 1 1 1 1 1 1 1 1 1 1 1 1 1 1 1 1 1 1 1 1 1 1 1 1 1 1 1 1 1 1 1 1 1 1 1 1 1 1 1 1 1 1 1 1 1 1 1 1 1 1 1 1 1 1 1 1 1 1 1 1 1 1 1 1 1 1 1 1 1 1 1 1 1 1 1 1 1 1 1 1 1 1 1 1 1 1 1 1 1 1 1 1 1 1 1 1 1 0.0020384660724870377 1 1 0.0020990712286385583 1 1 0.0021395895843146196 1 1 1 1 1 1 1 1 1 1 1 1 1 0.0021755268457085879 1 1 1 1 1 0.0022103354273950394 1 1 1 1 1 1 1 1 1 1 1 1 1 1 1 1 1 1 1 1 1 1 1 1 1 1 1 1 1 1 1 1 1 1 1 1 1 1 1 1 1 1 1 1 1 1 1 1 1 1 1 1 1 1 1 1 1 1 1 1 1 1 1 1 1 1 1 1 1 1 1 1 1 1 1 1 1 1 1 1 1 1 1 1 1 1 1 1 1 1 1 1 1 1 1 1 1 1 1 1 1 1 1 1 1 1 1 1 1 1 1 1 1 1 1 1 1 1 1 1 1 1 1 1 1 1 1 1 1 1 1 1 1 1 1 1 1 1 1 1 1 1 1 1 1 1 1 1 1 1 1 1 1 1 1 1 1 1 1 1 1 1 1 1 1 1 1 1 0.0022445277616203823 1 1 1 0.0022785203924124585 1 1 0.0023114791934659698 1 1 1 1 1 1 1 1 1 1 1 0.0023433911054692828 1 1 1 1 0.0023731491747176763 1 1 1 1 1 1 1 1 1 1 1 1 1 1 1 1 1 1 1 1 1 1 1 1 1 1 1 1 1 1 1 1 1 1 1 1 1 1 1 1 1 1 1 1 1 1 1 1 1 1 1 1 1 1 1 1 1 1 0.0010637833871609361 1 1 1 1 1 1 1 1 1 1 1 1 1 1 0.0010848593095253345 1 1 0.0010742546225473736 1 0.0010954783631372113 1 1 1 1 1 1 1 1 1 1 1 1 1 0.0011049171565471795 1 1 1 1 1 1 1 1 1 1 1 1 1 1 1 1 1 1 1 1 1 1 1 1 1 1 1 1 1 1 1 1 1 1 1 1 1 1 1 1 1 1 1 1 1 1 1 1 1 1 1 1 1 1 1 1 1 1 1 1 1 1 1 1 1 1 1 1 1 1 1 1 1 1 1 1 1 1 1 1 1 1 1 1 1 1 1 1 1 1 1 1 1 1 1 1 1 1 1 1 1 1 1 1 1 1 1 1 1 1 1 1 1 1 1 1 1 1 1 1 1 1 1 1 1 1 1 1 1 1 1 1 1 1 1 1 0.0010109369975856632 1 1 0.0010269050581483514 1 0.0010363898275987306 1 1 1 1 1 1 1 1 1 1 1 1 1 1 1 1 1 1 1 1 1 1 1 1 1 1 1 1 1 1 1 1 1 1 1 1 1 1 1 1 1 1 1 1 1 1 1 0.0010541139085695767 1 1 1 1 1 0.001045148271493677 1 1 1 1 1 1 1 
</DataArray>
<DataArray type="Float64" Name="displacement_divergence" format="ascii">
-0.00010585432828413246 -0.00010714215282975581 -8.6526801610718157e-05 -9.0298247278092081e-05 -8.4691402557488394e-05 -8.4655513871861128e-05 -7.6193405993694454e-05 -8.3400760230485492e-05 -7.8745966492703759e-05 -6.8080581663260199e-05 -7.7646097729974065e-05 -6.3576028901020346e-05 -7.7104455499677052e-05 -7.0884305665732587e-05 -7.9233046891543984e-05 -7.8001484773775417e-05 -7.5021117347946314e-05 -8.3849997748852779e-05 -6.0106468768437001e-05 -5.979222165205298e-05 -6.2735059853143941e-05 -6.8144944734509701e-05 -6.9552680122960325e-05 -6.2212374049799862e-05 -6.8104371461432994e-05 -6.5293611538668405e-05 -6.6765112909976631e-05 -6.7420197830547654e-05 -5.8317566165020747e-05 -5.6985111293416937e-05 -5.4536962205409013e-05 -5.4809537416645436e-05 -5.0735270479806861e-05 -5.1255513352860258e-05 -5.517563395973242e-05 -6.33854097027664e-05 -6.2664977536141275e-05 -5.6408404970602509e-05 -6.0880621633710219e-05 -6.3109403943687671e-05 -5.5701492668071616e-05 -5.2247396842490404e-05 -5.4112665170328743e-05 -4.931907662267326e-05 -5.4144783957479739e-05 -5.0337508264127125e-05 -4.2657798463327393e-05 -4.7483320127837575e-05 -7.7114693048664919e-05 -7.2739072577261173e-05 -8.2015259640152606e-05 -7.5092828624807406e-05 -6.7901382006718263e-05 -7.1888601971255178e-05 -7.0146324346554079e-05 -7.1189049953268897e-05 -6.2309854391952792e-05 -7.1470527304686804e-05 -6.3398941270328979e-05 -6.9203066502073753e-05 -7.7232946587133596e-05 -7.7469831409147149e-05 -7.5590069619228513e-05 -8.5697190808852106e-05 -8.7694461275442719e-05 -7.5736651642969776e-05 -7.9308729560558267e-05 -9.2700840421787667e-05 -7.9540255591387316e-05 -7.7586802954329612e-05 -8.096414697977337e-05 -9.8662362801055811e-05 -5.9481626099776145e-05 -5.9339434399386283e-05 -7.0708985240113941e-05 -6.8589311730493392e-05 -6.1211543229684089e-05 -7.5290454137045724e-05 -7.0358310681421473e-05 -6.9410518017976565e-05 -6.2391515495280203e-05 -5.4343573328390234e-05 -5.4256291583912651e-05 -4.9777792433137278e-05 -4.7477143928115716e-05 -6.0708768931367501e-05 -4.240728673222322e-05 -4.5579313054413046e-05 -4.4058421200535473e-05 -3.3968602751326604e-05 -3.8156480802053409e-05 -3.8378919411603319e-05 -2.9042423825115531e-05 -2.5534807573310649e-05 -5.1825832953075952e-05 -5.3815704836155707e-05 -4.1764321833658616e-05 -4.1972049261736926e-05 -4.6846401157938077e-05 -4.9625168428843382e-05 -3.4532455673934607e-05 -4.5345011345353626e-05 -1.187155970327656e-05 -3.5580511150537744e-05 -2.5849526134044822e-05 -1.7703407865417916e-05 -6.367612938743423e-06 -8.6287076485912949e-06 -1.0386100440935766e-05 -9.5665995424844209e-06 1.7554177446355815e-05 -3.277780405719008e-05 -2.7825969807636797e-05 -2.4317127965039923e-05 -4.5572414911822907e-05 -4.2005695186672566e-05 -5.575403503454545e-05 -6.7032719781414502e-05 -6.4834503698999227e-05 -7.7509957134226171e-05 -9.4120313366796758e-05 -8.1394930449612635e-05 -7.7467343100196022e-05 -8.4226228918210359e-05 -7.6930175802134796e-05 -9.9381547593213669e-05 -8.4250981864133497e-05 -6.7224451185873607e-05 -5.6396057034417472e-05 -6.5843998993173069e-05 -1.9404481162523283e-06 -8.4496149663058651e-06 -1.1254271124272783e-05 -1.2118899395325287e-05 -7.067472894398766e-06 3.0992828195314697e-06 -4.661787832525561e-06 -6.5679060731670092e-06 -5.2845548151201824e-06 -8.2722413037968274e-06 -1.3159835088876522e-05 -6.1093846944477163e-06 -7.8781037867227207e-06 -3.2471305771963177e-06 6.3668442863359931e-07 6.0289917222883195e-05 -3.7633501838721319e-06 2.4011102304598655e-05 -8.4604073386321818e-06 5.4801695240393189e-05 2.2204841623439783e-05 5.0543159935649963e-05 9.5921375950265174e-06 6.571590881654832e-06 1.3511207193431181e-05 -7.6125207347139086e-06 -1.1111263013407287e-05 -4.7167957384678348e-07 -1.0781006412497721e-05 4.5391341679626202e-06 -2.0087248724276322e-05 -5.0194000404180149e-06 -1.4008517753905455e-05 -1.7772775673174256e-05 -2.2242560269309145e-05 -1.7656545862239153e-05 -2.1113936154531376e-05 -2.1263968167464239e-05 -2.9454348722684341e-05 -2.8058187169535633e-05 -3.0749934878022381e-05 -3.5885396991299683e-05 -3.7784788620848125e-05 -2.5065275307803401e-05 -2.4751511891927738e-05 -2.6954978979597017e-05 -2.9489594711559629e-05 -2.263005926482767e-05 -2.5693405346818027e-05 -1.8571031440873179e-05 -2.2845603973043635e-05 -2.1714458846887568e-05 -1.4603374510167895e-05 -2.1542406881598873e-05 -8.3940913959288174e-06 -1.3652477948688599e-05 -1.7786784150740531e-05 -4.5016673781670049e-06 -1.725781388142005e-05 6.440338730759712e-06 -1.359256476838252e-05 -9.8088872014140787e-07 -1.4110011481670451e-05 -7.2364368676782835e-06 -3.694744229851107e-06 -1.6850478076917721e-05 -1.2138309032419613e-05 -1.3952529963998353e-05 -1.9262222925176335e-05 -2.8091809929196999e-05 -2.1241553916867746e-05 -2.212278273676786e-05 -2.6945162672485095e-05 -2.9513847286157732e-05 -2.6949183025214754e-05 -2.3282660348857638e-05 -3.0726587436546838e-05 -3.0309909528758908e-05 -3.4523352710206339e-05 -2.9074652761069271e-05 -3.1884221839517318e-05 -2.5694398695373403e-05 -2.9518075877213544e-05 -2.5433695054316391e-05 -3.8181980893798605e-05 -3.8124702476149031e-05 -4.1872125099861583e-05 -3.7769382322883595e-05 -3.3307853297822183e-05 -3.1782709517295626e-05 -3.2282042618079286e-05 -2.9121363149996796e-05 -3.4177993921460097e-05 -3.6203997196746969e-05 -3.4949253234729573e-05 -3.5908453520136914e-05 -3.9713360730425712e-05 -4.4756257859989712e-05 -4.5279972273693215e-05 -4.407636442120742e-05 -4.8159292321749981e-05 -4.8424203935930815e-05 -5.071370011568703e-05 -4.9684776761341948e-05 -4.2185681403398553e-05 -4.7211035564676386e-05 -4.2065889631422923e-05 -4.1971788032330547e-05 -3.8897089963346848e-05 -3.7190427329561752e-05 -4.1158865175966793e-05 -4.1555706874304659e-05 -4.4620943330333426e-05 -4.6808246665246012e-05 -5.2001869569117869e-05 -5.3132004808464261e-05 -3.2815808312320598e-05 -2.9657368252062102e-05 -3.2855190768386652e-05 -3.338583091060564e-05 -3.6601944837052663e-05 -3.4932702504569115e-05 -3.8227270949288605e-05 -3.7237678031983467e-05 -3.4395096440178623e-05 -3.3953311476375255e-05 -3.1806064859125415e-05 -3.3265441059824752e-05 -3.4296736404383407e-05 -3.1860356705261469e-05 -3.2882780127532372e-05 -2.9339197335573881e-05 -3.4535338433316413e-05 -3.1364428035357213e-05 -3.0710270736619222e-05 -3.132223498890405e-05 -3.3048321061557886e-05 -3.0251893121706568e-05 -3.0954958672490176e-05 -3.3350718519163253e-05 -3.7182676757663788e-05 -3.3365842106379884e-05 -3.4536195518942768e-05 -3.0560521718842003e-05 -3.2345562848705377e-05 -3.5869170205570556e-05 -3.9244571941245347e-05 -3.7252467283076235e-05 -4.2411354001512278e-05 -5.1169876017769437e-05 -5.0821163033809482e-05 -6.0610449862152335e-05 -5.365394890755981e-05 -5.0557242399546586e-05 -4.575781067153024e-05 -5.5551669149537271e-05 -4.4293820130247451e-05 -3.985090733135559e-05 -3.5634933527926149e-05 -3.6470357715056125e-05 -3.5234466530534766e-05 -2.8792679910914907e-05 -4.2759530052544799e-05 -4.8203397028085232e-05 -4.4790461860767022e-05 -4.047014145030819e-05 -5.3539324821678246e-05 -4.2320114858290184e-05 -3.6343221290588028e-05 -3.7425907865641207e-05 -2.2928667040767485e-05 -3.2872525011061995e-05 -3.3641699702900368e-05 -2.8651079521264347e-05 -3.0504232767833089e-05 -2.394948320661766e-05 -1.2547797844086642e-05 -1.78535987155213e-05 -1.5913069612576894e-05 -2.4491977987663224e-05 -1.9716666386452268e-05 -1.1738863216795687e-05 -2.085408326726615e-05 -1.3673039257000926e-05 -2.1995312667947843e-05 -2.5379571715876974e-05 -2.5646273909263958e-05 -2.4658991955564449e-05 -2.9634000253367613e-05 -2.8051709803960169e-05 -3.0041927813979653e-05 -3.0490727407770561e-05 -3.2871657298457116e-05 -2.6398339062464517e-05 -2.6879399507560458e-05 -0.00011635700785677992 -0.00011310143242780973 -0.00010750511713922431 -0.00010035742260599867 -0.00011131236890747528 -0.00013555854122579696 -0.00013930403292340235 -0.00011809340916239683 -0.00010989411048107174 -9.9490832700885226e-05 -0.00011024183635499877 -0.00011019214817548225 -0.00010359811715856968 -8.5811728471050662e-05 -9.3655178329504453e-05 -0.00011012383335890158 -8.0327567120587015e-05 -0.00010541972158289333 -8.4328140354604048e-05 -8.4841603606375707e-05 -8.3135867471759189e-05 -8.4870119557655204e-05 -8.7199666726248405e-05 -7.9969587043914747e-05 -7.4924900346717743e-05 -7.2901342488230347e-05 -7.1361550904584507e-05 -6.4961720310430324e-05 -5.8567510734362148e-05 -6.3048603896379148e-05 -6.6281799190077924e-05 -6.8461309041836752e-05 -5.8870020842391686e-05 -5.2296113882392972e-05 -6.6456358162861093e-05 -5.1656097493244531e-05 -5.8595495846042587e-05 -6.7275566041797305e-05 -5.0048218138554657e-05 -6.3539565847593e-05 -5.8120392084166477e-05 -8.5128913116820751e-05 -8.3569804228003961e-05 -8.0265494500010863e-05 -6.5034056941097387e-05 -7.9964674817874129e-05 -9.7454928744885854e-05 -8.8188771908615819e-05 -0.00010122370648579443 -9.1617349533955369e-05 -0.00010046759437957472 -8.0039290445729571e-05 -9.4665054139942328e-05 -0.00012147464247872827 -0.00012366673746758416 -0.00013667757552364567 -0.00011416274415379742 -0.00012456769772195637 -0.00010190794846391732 -0.00011667771429948185 -0.00010282568992760188 -0.00013638536885217351 -0.00017959825741100147 -0.00013047075263618329 -0.0001302041735291319 -0.00016162864529406339 -0.00014805277700950993 -0.00011767815377074445 -0.00012681592782597717 -0.00012265185184779208 -9.4540014445606006e-05 -9.8095409180268297e-05 -8.8654827249050588e-05 -8.967996833351196e-05 -0.00010701992277327343 -9.2342320371140347e-05 -5.5413099827671499e-05 -3.940424633233332e-05 -3.859182980018417e-05 -7.9397540860963559e-05 -6.4267365760207359e-05 -8.653247138054555e-05 -7.2792031479986305e-05 -6.7442424199759489e-05 -4.9049510179835834e-05 -6.4024150795165562e-05 -4.9292686995929073e-05 -2.9288042934745204e-05 -4.1946057543596415e-05 -2.4071226711711057e-05 -4.3108247649016428e-05 -2.525339804623414e-05 -4.0020840298048903e-06 -3.2036495482858616e-05 -7.0457493602835803e-06 -2.0590873623030218e-06 3.586315819886722e-05 3.2886209056960026e-05 -1.0238872147372394e-05 -1.698249231299882e-05 4.1968801363122536e-05 0.0001056909988149449 8.6636560233280897e-05 0.00010286748679549647 4.8782378898875201e-05 1.7043130783307408e-05 3.1419498588514854e-05 1.3827662812578479e-05 -2.9077986481442939e-05 -3.2859589668972605e-05 -4.8648462554716412e-05 -6.4933019016056616e-05 -5.6585883955673688e-06 -6.1756741196529496e-05 -0.00010184512233996567 -0.00010493791755194961 -7.7182035210270322e-05 -8.7386202498251193e-05 -7.7957171911982614e-05 -0.00011093347659177767 -8.4024419232473749e-05 -0.00010731033049705442 -0.00013005924879368538 -0.00013210595091016537 -0.00017302697683180398 -0.00014409378879106445 -0.00018332121840537491 -0.00014966025013488798 -0.0001252311439478 -0.00014352777011086213 9.2427792498408194e-06 1.8864742453199805e-05 1.9766323915971214e-05 1.7550476462256388e-05 1.206992700588499e-05 -1.4824016573259133e-06 -6.9752799721017834e-06 7.9377711953497021e-06 -1.2737349651239938e-05 -2.7519465474660666e-06 -1.9714535586309526e-05 -4.37909907533834e-06 -1.4723179708162469e-05 -4.2225691568722275e-06 1.5539191823588929e-07 -8.3839050432096102e-06 -1.2308851603181492e-05 -2.1637029551987535e-05 -2.8491596670853522e-06 -7.9476915497481002e-06 5.2861650198631068e-06 -2.2651796702675177e-05 -1.1777762994264462e-05 6.4737002060434872e-07 1.4777549121228466e-05 3.4627320342831545e-05 1.1671227342503076e-05 1.8585457852215843e-05 2.048946236099808e-05 3.6145305773449543e-05 5.2589878065933623e-05 7.7882268357429036e-05 8.9336642158608623e-05 7.5409803538201332e-05 5.7031692215152958e-05 6.8216861509065975e-05 9.5313668700611133e-05 9.0095267933849583e-05 0.00019802441773153978 0.00026213332100005022 0.00024830022542835612 0.00014812366595202807 5.0337449996414496e-05 8.674240405655585e-05 0.00012973714773239814 4.9829269856626167e-05 5.8188812028933602e-05 6.4206110925526849e-05 2.7090732760202138e-05 5.1681156004436429e-05 1.2191193837701945e-05 3.5503490104673021e-05 1.0640392326822064e-05 3.9245382000239906e-05 -4.6453475602692277e-07 1.6882037718858058e-05 2.1525530777580966e-05 1.0799900708033409e-05 8.7151944807432912e-07 3.4069086975328763e-05 5.688620524143841e-06 -6.1182602964076629e-06 1.2701188348470566e-05 -1.3461870791255386e-05 -2.180605545034685e-05 -6.7396396997922874e-06 -3.3831643082285055e-06 -2.6552735833767344e-05 -1.1082169351111408e-06 -1.6008333523397078e-05 -7.9281373868653757e-06 3.0255774717928482e-05 1.9108507032820264e-05 1.4966094152549949e-05 2.2963384017855835e-05 5.2017578458720072e-05 5.7889781532986264e-05 8.5080561048953192e-05 0.00028223290524777024 -1.2729613861005613e-05 7.7899809946806192e-05 0.00025778215857979715 0.00013058175090227949 0.019317179624124214 0.00022736451213772315 9.1631111977854294e-05 0.049505841297467719 -1.5677316171634086e-05 7.5363986303407819e-05 0.069759255387895486 -1.6026864243093904e-06 3.750658094070795e-05 -1.3036980252225571e-05 8.4621335999431079e-06 3.8980798351021613e-06 7.9453977454887591e-07 -7.5903289121806677e-06 2.2155399428946726e-05 2.0012805390811359e-05 5.2995605647297847e-06 3.4718084554983229e-05 6.5781117142711763e-05 7.3619276705358741e-05 0.087720211810978138 5.9049928784104568e-05 6.574447884980471e-05 4.5826070503278676e-05 6.152849608390392e-05 4.1768033593654033e-05 0.10511817689802051 6.7853015954092311e-05 9.2242031611761198e-06 -5.3695763522590726e-06 3.6224111262734443e-05 1.9358481973250725e-05 1.5031257204229146e-05 -1.5040223816700747e-05 -7.9122379090695622e-06 -6.5366330267202554e-06 -2.5777465865717938e-05 -1.9914056657057084e-05 -2.8675018984738077e-05 -2.9291141120359784e-05 -2.9783737265569798e-05 -2.53574191272411e-05 -2.2367528528202023e-05 -3.2109961507020271e-05 -2.1315008116120103e-05 -2.3618062303878734e-05 -2.3146064160581455e-05 -1.8558059105600982e-05 -1.1943949178166204e-05 -0.00010839524721103664 -0.00010894978572518251 -8.2225942704827401e-05 -0.00014384091603364575 -0.00015243660473697332 -0.00011531925937877985 -0.00011095994186209753 -8.1340092615092736e-05 -6.5318077206044699e-05 -3.5525928584332267e-05 -7.6086044660641453e-05 -5.2707620558847292e-05 -8.6137577007359013e-05 -5.9724075909964064e-05 -4.3979095709057413e-06 -3.0617741075652811e-05 2.6943239493964349e-05 -2.7411051127763019e-05 -6.1560855941317823e-05 -5.0945805838136936e-06 -1.5270744853735122e-05 5.6000567136586235e-05 0.00011668769587829604 6.8819581761622077e-05 7.2888607860130243e-05 1.6534993423069841e-05 3.1773679267102766e-05 5.1222429972883326e-05 2.3141017537569149e-06 -6.3539401019582602e-06 2.8086612244382012e-05 2.0711794780736096e-05 3.1493897136271147e-05 9.1206582045586133e-06 1.1589529505711196e-06 -7.2760565421972102e-06 -2.1248490854224803e-05 -1.8493988197149178e-05 -2.6377278945025236e-05 -4.3523005448234918e-05 -2.2575966868199375e-05 -1.4639914497164945e-05 -4.0586389842044938e-05 -4.0343228749882293e-05 -6.6412553799609537e-05 -5.7886234407976151e-05 -5.9963794007219032e-05 -5.8711786557099754e-05 -3.7900167004900794e-05 -3.5815182720403283e-05 -3.6201758653232278e-05 -5.7606053131968853e-05 -5.157971768488933e-05 -5.6326015321915383e-05 -4.0539938039521085e-05 -6.1192794038660838e-05 -8.4680009677807339e-05 -8.3725702095699493e-05 -7.7320900418974053e-05 -7.3856779001308032e-06 -2.6795708331427831e-05 -1.5652105580995883e-05 -1.2805478266338273e-05 -2.9651470829712354e-05 -3.5258604392570531e-05 -5.2785759244460342e-05 -3.6910501470281774e-05 -3.5922691507385071e-05 -2.8261710506865059e-05 -3.8980381312453925e-05 -2.7486339455768359e-05 -2.4043252418741792e-05 -2.6391838628925159e-05 -1.0509563133683474e-05 -1.2064940353718502e-05 -6.7143394624972867e-06 -7.822205022202551e-06 -2.0725195648389934e-05 -2.7753220532047637e-05 -1.9833138084650401e-05 -2.702293358807455e-05 -1.1010302705757424e-05 -1.5660712159742442e-05 5.3954601003998351e-06 1.3887189918046321e-05 -7.8698805910061218e-06 7.3751694474382887e-06 4.4011222882639478e-05 1.4311745549980617e-05 3.1541264897391296e-05 2.5971859859228591e-06 1.9789335415026574e-05 3.2923010566645455e-05 3.3999381946850718e-05 3.2648426569254559e-05 3.6868674040020644e-05 5.9790619071652118e-05 5.6625178500436905e-05 4.9300924047146823e-05 2.9485349845087896e-05 6.1807120746160127e-06 1.1766965585303414e-05 2.488050749141664e-05 -5.1522970993186923e-06 9.0344372679846199e-06 1.1147210981750713e-06 -1.8277462268904282e-06 -1.9066290944779428e-05 -1.9014185578520248e-05 -7.0038963570443619e-06 -4.488407092224922e-06 -5.7105862666297774e-06 8.1219147118295407e-06 4.7601567161971544e-06 3.889155212362036e-06 -1.4743382173868294e-06 -2.783885617432813e-06 4.4093567360872082e-06 1.7113052533049983e-06 2.24076510897675e-06 1.2410753218389595e-06 2.08547450080733e-07 -6.6564562099255889e-06 -8.2211889002115415e-06 -1.5253021483740362e-05 1.0098143160331189e-05 -5.7989835022006879e-07 -7.4617744732117738e-06 -2.4964746535855744e-05 -2.3001802393967491e-05 -2.8870451499939933e-05 -3.0349251349044704e-05 -2.9035334180450086e-05 -3.2737632357558659e-05 -2.1048666423445256e-05 -2.2287532150418198e-05 -1.8746308502766288e-05 3.0949189339009048e-06 -8.5534542348852309e-06 2.6126895480713683e-05 5.641357219641715e-05 7.1903043860077197e-05 2.6525864055103624e-05 4.5924972625772595e-05 7.6561744638894112e-05 5.9490784265858623e-05 0.1222082190091346 3.0889124608568345e-05 7.9893545316267987e-05 7.2130820017096979e-05 0.1392029552923309 7.3731316230346761e-05 6.9040551118642289e-05 0.15565214987238776 6.4729965568896888e-05 3.8712328715739678e-05 8.4511546785678913e-05 2.810229983614312e-05 3.5773857989568401e-05 5.2800612224475661e-05 3.3651256747906999e-05 8.6693810568141949e-05 9.8384107416071885e-05 5.3360200973691808e-05 9.0794287857608354e-05 0.17171436737632914 0.00010176854598688886 8.7023825274546926e-05 9.092963562240357e-05 8.7373148870367387e-05 0.18617540656301515 0.00010277238160628314 0.00010254476097271294 3.6030320878867469e-05 0.00011249163561448459 0.00010583894112056714 0.00010029487482610144 3.6010766771955665e-05 1.4974143381124745e-06 3.4307237382904913e-05 1.0789557960951906e-05 1.8702939530424486e-05 -5.7608448923466768e-06 -1.7704401423650836e-05 3.8201070037078427e-06 7.4242473706001479e-06 -2.9390253749100414e-05 -1.4214225751029312e-05 -1.8491556063469504e-05 -5.1862426847918731e-06 -1.5415798491762688e-05 -5.148301263876217e-06 -4.7983746335483152e-06 -1.193888796057938e-05 -7.8087882064630215e-06 -1.2116453845705975e-05 -1.6013069686326314e-05 -1.8932694591092692e-05 8.0208866491325775e-06 -3.0115133216885703e-06 -8.5448990211377859e-06 3.9336761013124321e-06 -1.5948795707090065e-05 -2.353297795137688e-05 -3.5831162175713562e-06 -7.3110030414858169e-06 -2.6715734921680875e-05 -1.1720595112399467e-05 -1.9630878512861822e-05 -3.0416013691673136e-05 -2.8258746657960476e-05 -3.2159349911288666e-05 -2.2474344842717832e-05 -2.3693606002021044e-05 -2.7307876227174763e-05 -1.930120329907809e-05 -1.6780838024080995e-05 2.0906953335985898e-06 -1.5631308727617147e-05 -2.3220239744545733e-05 -2.5061507482586386e-05 -4.970089755202187e-06 -2.5536158115921148e-05 -3.2269442707992145e-05 -3.1331321108098772e-05 -2.8808271538219325e-05 -3.3032207129373445e-05 -3.1475113621266197e-05 3.0143280358288504e-05 0.063744481919489768 2.3895210267181177e-05 2.376446191972156e-05 1.5806731273814768e-05 -1.221883068774595e-05 -4.3633296368158483e-06 -8.6878400101625636e-06 2.9579180906097241e-05 1.5649122895889387e-05 1.5076009828507843e-05 5.7990612554715236e-06 4.5947117773991906e-05 4.881764634147431e-05 2.9335373566510099e-05 2.5398909153697072e-05 0.084818899236040635 3.9213088167007514e-05 2.3634737183660928e-05 0.074214995995790164 4.1032723826499046e-05 0.095452171171994768 5.8492089098581427e-05 4.0276621958939068e-05 4.3973026483806136e-05 1.4714895938963517e-05 2.4896093718654528e-05 5.4546583268239523e-05 2.610470852702479e-05 1.1779925404436088e-05 6.2413274569824871e-05 5.9081445063045336e-05 5.132624306589499e-05 1.2630719702074107e-05 4.4019519479894824e-05 0.10483775364846894 5.58671964137206e-05 5.3408638260416322e-05 2.7970467655688905e-05 2.4180248648867357e-05 1.7352131076759248e-05 2.757271434257122e-05 1.0400672054580208e-05 1.5371944043084292e-06 2.4628400844182129e-06 1.165915388363916e-05 1.176625769325982e-06 -4.9073124384650321e-06 -6.8246976924241261e-06 -9.0584795956840693e-06 9.1790167325181502e-06 1.2389726965901775e-05 1.1944205165560166e-05 8.3560811899334106e-07 1.3613051267832854e-06 1.0066861471606577e-06 2.6986982998144365e-06 -2.8868096789641876e-06 -2.3317022085894007e-06 1.9005969317505492e-06 2.1056054135580531e-06 2.6735279176698437e-06 -7.4251417787225826e-06 -1.703882032902935e-05 -1.5387826326795136e-05 -6.3036936182076127e-06 -3.924712062972264e-06 -5.7548982826369265e-06 -6.6740859916256286e-06 -2.1126219530232318e-07 -1.0271959431648776e-05 -6.1651200509030626e-06 -1.1858785778339539e-05 -1.9132995117139724e-05 -2.2586216750565633e-05 -8.232148309240267e-06 -1.5538019477293313e-05 -2.0223054324665195e-05 -2.8190807727630372e-05 -2.900628861085032e-05 -1.8567211748941257e-05 -2.3558251316020641e-05 -2.1173223850311966e-05 -3.190691486079731e-05 -2.1380957616673555e-05 -2.7254833740022327e-05 -2.0782203690920473e-05 -4.9583479025010809e-06 -3.3742475690780836e-06 8.1302991702908271e-06 2.4477335550288255e-06 -1.1185558327142259e-05 -1.1886744340592432e-05 -1.1904631467442653e-05 -1.4893621219850932e-05 -1.6069688749993194e-05 -1.8583239020013385e-05 -1.9744983681522935e-05 -8.5140643201636092e-06 -6.1730185457620906e-06 7.9249481048705196e-06 3.3365434684707977e-06 6.1558571520605766e-06 -6.5779765977111351e-06 2.8608233967287847e-07 -6.536568637142276e-07 -1.2676872349427163e-05 -6.6711785692038887e-06 -1.5484367123781763e-05 -2.1484652710220074e-05 -2.8000856441894823e-05 -1.5862290499858711e-05 -2.0977096343007505e-05 -1.8492666172683801e-05 -2.8444687972620578e-05 -2.4338744301936541e-05 -1.0419435819957606e-07 6.4407097325003358e-06 4.0180545077162129e-06 -1.3949947932246774e-05 -5.4378373457464064e-06 -3.4577574823238099e-05 -5.1649584124872725e-05 -3.7767725483456153e-05 -3.8819083061330216e-05 -3.3930608238479272e-05 -3.301773144375646e-05 -3.5158556367640521e-05 -2.7354947017288207e-05 -2.974644756541028e-05 -3.2117916305197209e-05 -3.6524627927956611e-05 -3.2674618347965637e-05 -4.3904738575787198e-05 -4.1570111479430176e-05 -4.2982684775664994e-05 -3.6507868831903525e-05 -5.7617023350938195e-05 -5.304212263732011e-05 -5.1001722866756208e-05 -8.1734555607823394e-05 -6.5686963111925411e-05 -6.5721526906127592e-05 -5.3230666579405256e-05 -5.5707120671459913e-05 -4.0711319931765674e-05 -3.6502554415780318e-05 -3.223129056976131e-05 -5.2334605098230437e-05 -4.7503199632645547e-05 -5.9002276893746377e-05 -5.4547558631768615e-05 -6.6727663662898278e-05 -6.908830476466286e-05 -8.557645335398312e-05 -9.7948575711603869e-06 2.2598803129071144e-05 -9.722363010364633e-06 -1.7657874781165715e-05 -2.9726913859703073e-05 -2.5345850159813718e-05 -1.0057009088693884e-05 -2.3012916246446325e-05 -4.633924163802974e-05 -3.9042971352719325e-05 -2.2858523169688402e-05 -2.0225575165987121e-06 -1.0663292000464338e-07 2.5823204335589776e-05 7.6899107256645335e-05 -5.6295376065868051e-05 0.00010696208499491816 0.010898883822740565 1.4278354611271094e-05 2.1441202757689897e-05 0.02686050472381693 4.5181589395633685e-05 0.036340090375202701 2.3397835113614092e-05 1.4933390074661442e-05 -3.601451093835018e-05 -3.5926549829257571e-05 -2.7786219135524228e-05 -5.9100993580901771e-05 -2.1457260737910817e-05 -4.4619676978553376e-05 7.5856701970365421e-06 -2.226446010045758e-05 -3.3183552031145782e-05 -1.2327575898524418e-05 -2.0550473502598294e-05 -1.5356524191408277e-05 -1.2703297952644125e-06 -5.3354531518288886e-06 -1.5100590990466866e-05 -2.1736603470715358e-05 -2.1857692801581963e-05 -2.6651729802075041e-05 -3.1602727129767557e-05 -3.0141050346998646e-05 -2.8539772190363415e-05 -2.9407889017402051e-05 -3.1022921002489458e-05 -3.0728895496922161e-05 -2.9245855804933005e-05 -2.3187117854839583e-05 -3.0178535892721645e-05 -2.5740146605044952e-05 -2.9935784026356943e-05 -3.1326552251758529e-05 -2.8001946765070109e-05 -3.423867582521146e-05 -3.2041407022180405e-05 -3.0727571354244792e-05 -2.1427046815930008e-05 -2.6946066397259133e-05 -2.794052097012905e-05 -2.8482999734517531e-05 -2.1856570118356932e-05 -1.3662727932780682e-05 -3.9115059319562656e-06 -1.3595446440091094e-05 -1.4327272729565562e-05 5.3647974512676701e-06 2.0616215344284607e-05 0.054073163847538561 9.3562646654500072e-06 2.0501781590751781e-05 1.9679926032437349e-05 2.1106767993963466e-05 -1.0280036452997403e-05 0.045102359777436138 2.0709792059789875e-05 6.9050333338457502e-06 2.5697299019003007e-05 -2.3202106307794801e-05 -2.7387792560939079e-05 -2.6840325333583404e-05 -1.0630018982062204e-05 
</DataArray>
</CellData>
</Piece>
</UnstructuredGrid>
</VTKFile>
