<?xml version="1.0"?>
<VTKFile type="UnstructuredGrid" version="0.1" byte_order="LittleEndian">
<UnstructuredGrid>
<Piece NumberOfPoints="3142" NumberOfCells="1054">
<Points>
<DataArray type="Float64" NumberOfComponents="3" format="ascii">
0 0 0 0.049999999999899652 0 0 0.02576622439977887 0.024532886826226379 0 0 0 0 0.02576622439977887 0.024532886826226379 0 0 0.050000000000207989 0 0.049999999999899652 0 0 0.053064897599215843 0.048131547304697528 0 0.02576622439977887 0.024532886826226379 0 0 0.050000000000207989 0 0.02576622439977887 0.024532886826226379 0 0.053064897599215843 0.048131547304697528 0 0 0.10000000000041601 0 0 0.050000000000207989 0 0.044310582753132287 0.101412518374475 0 0 0.15000000000062411 0 0 0.10000000000041601 0 0.044310582753132287 0.101412518374475 0 0.083411279318303222 0.089699755330707398 0 0.044310582753132287 0.101412518374475 0 0.053064897599215843 0.048131547304697528 0 0 0.050000000000207989 0 0.053064897599215843 0.048131547304697528 0 0.044310582753132287 0.101412518374475 0 0.083411279318303222 0.089699755330707398 0 0.065374659239632718 0.1448908038746782 0 0.044310582753132287 0.101412518374475 0 0.083411279318303222 0.089699755330707398 0 0.1053400320299198 0.12877248826361379 0 0.065374659239632718 0.1448908038746782 0 0.083411279318303222 0.089699755330707398 0 0.12372429750337779 0.095814237875728972 0 0.1053400320299198 0.12877248826361379 0 0.14332333627550789 0.14578431753966009 0 0.1053400320299198 0.12877248826361379 0 0.12372429750337779 0.095814237875728972 0 0.14618258501891079 0.062070108745602003 0 0.12372429750337779 0.095814237875728972 0 0.10266856499169109 0.044518360900210059 0 0.083411279318303222 0.089699755330707398 0 0.10266856499169109 0.044518360900210059 0 0.12372429750337779 0.095814237875728972 0 0.099999999999814668 0 0 0.14999999999970359 0 0 0.10266856499169109 0.044518360900210059 0 0.049999999999899652 0 0 0.099999999999814668 0 0 0.053064897599215843 0.048131547304697528 0 0.099999999999814668 0 0 0.10266856499169109 0.044518360900210059 0 0.053064897599215843 0.048131547304697528 0 0.083411279318303222 0.089699755330707398 0 0.053064897599215843 0.048131547304697528 0 0.10266856499169109 0.044518360900210059 0 0 0.25000000000104028 0 0 0.20000000000083221 0 0.044081577119474857 0.2271058242433576 0 0 0.20000000000083221 0 0.038512288486115001 0.1844147282893184 0 0.044081577119474857 0.2271058242433576 0 0.083105206071467416 0.20007701332709979 0 0.044081577119474857 0.2271058242433576 0 0.038512288486115001 0.1844147282893184 0 0 0.15000000000062411 0 0.065374659239632718 0.1448908038746782 0 0.038512288486115001 0.1844147282893184 0 0 0.15000000000062411 0 0.044310582753132287 0.101412518374475 0 0.065374659239632718 0.1448908038746782 0 0.083105206071467416 0.20007701332709979 0 0.038512288486115001 0.1844147282893184 0 0.065374659239632718 0.1448908038746782 0 0 0.20000000000083221 0 0 0.15000000000062411 0 0.038512288486115001 0.1844147282893184 0 0.065374659239632718 0.1448908038746782 0 0.1053400320299198 0.12877248826361379 0 0.106902708054812 0.16453234188234539 0 0.14332333627550789 0.14578431753966009 0 0.106902708054812 0.16453234188234539 0 0.1053400320299198 0.12877248826361379 0 0.083105206071467416 0.20007701332709979 0 0.065374659239632718 0.1448908038746782 0 0.106902708054812 0.16453234188234539 0 0.083105206071467416 0.20007701332709979 0 0.13737030665753211 0.20313708640667491 0 0.095326043202144745 0.24554465089224409 0 0.083105206071467416 0.20007701332709979 0 0.106902708054812 0.16453234188234539 0 0.13737030665753211 0.20313708640667491 0 0.083105206071467416 0.20007701332709979 0 0.095326043202144745 0.24554465089224409 0 0.044081577119474857 0.2271058242433576 0 0.049706944316556423 0.27522722923869108 0 0.044081577119474857 0.2271058242433576 0 0.095326043202144745 0.24554465089224409 0 0.13737030665753211 0.20313708640667491 0 0.14377654328998779 0.2442024734791064 0 0.095326043202144745 0.24554465089224409 0 0.17933913398461551 0.2350063570234002 0 0.14377654328998779 0.2442024734791064 0 0.13737030665753211 0.20313708640667491 0 0.17933913398461551 0.2350063570234002 0 0.13737030665753211 0.20313708640667491 0 0.18124454140915969 0.18790916706335251 0 0.14332333627550789 0.14578431753966009 0 0.18652628422869419 0.14162325200928061 0 0.18124454140915969 0.18790916706335251 0 0.14332333627550789 0.14578431753966009 0 0.13737030665753211 0.20313708640667491 0 0.106902708054812 0.16453234188234539 0 0.14332333627550789 0.14578431753966009 0 0.18124454140915969 0.18790916706335251 0 0.13737030665753211 0.20313708640667491 0 0.14332333627550789 0.14578431753966009 0 0.16141998738593399 0.10404039647458049 0 0.18652628422869419 0.14162325200928061 0 0.2185883431182947 0.18019736283949719 0 0.18652628422869419 0.14162325200928061 0 0.22985637510995899 0.1298347970200906 0 0.2185883431182947 0.18019736283949719 0 0.22985637510995899 0.1298347970200906 0 0.25557216766470708 0.15874861286892261 0 0.2185883431182947 0.18019736283949719 0 0.25557216766470708 0.15874861286892261 0 0.26429849586623999 0.19346700179430079 0 0.2185883431182947 0.18019736283949719 0 0.18124454140915969 0.18790916706335251 0 0.18652628422869419 0.14162325200928061 0 0.17933913398461551 0.2350063570234002 0 0.18124454140915969 0.18790916706335251 0 0.224700362040408 0.22206622194729711 0 0.2185883431182947 0.18019736283949719 0 0.224700362040408 0.22206622194729711 0 0.18124454140915969 0.18790916706335251 0 0.2185883431182947 0.18019736283949719 0 0.26429849586623999 0.19346700179430079 0 0.224700362040408 0.22206622194729711 0 0.25195515620380449 0.25883339815888678 0 0.21049769590865089 0.26857363548218488 0 0.224700362040408 0.22206622194729711 0 0.17933913398461551 0.2350063570234002 0 0.224700362040408 0.22206622194729711 0 0.21049769590865089 0.26857363548218488 0 0.14999999999970359 0 0 0.184418230509967 0.038773194583122873 0 0.14618258501891079 0.062070108745602003 0 0.19922788606653311 0.085920220746880993 0 0.14618258501891079 0.062070108745602003 0 0.184418230509967 0.038773194583122873 0 0.14999999999970359 0 0 0.19999999999955789 0 0 0.184418230509967 0.038773194583122873 0 0.14999999999970359 0 0 0.14618258501891079 0.062070108745602003 0 0.10266856499169109 0.044518360900210059 0 0.14618258501891079 0.062070108745602003 0 0.16141998738593399 0.10404039647458049 0 0.12372429750337779 0.095814237875728972 0 0.14332333627550789 0.14578431753966009 0 0.12372429750337779 0.095814237875728972 0 0.16141998738593399 0.10404039647458049 0 0.19922788606653311 0.085920220746880993 0 0.18652628422869419 0.14162325200928061 0 0.16141998738593399 0.10404039647458049 0 0.19922788606653311 0.085920220746880993 0 0.16141998738593399 0.10404039647458049 0 0.14618258501891079 0.062070108745602003 0 0.19922788606653311 0.085920220746880993 0 0.22985637510995899 0.1298347970200906 0 0.18652628422869419 0.14162325200928061 0 0.19922788606653311 0.085920220746880993 0 0.24218496799700481 0.089025544070598317 0 0.22985637510995899 0.1298347970200906 0 0.27474541102162192 0.11822029332053539 0 0.22985637510995899 0.1298347970200906 0 0.24218496799700481 0.089025544070598317 0 0.19922788606653311 0.085920220746880993 0 0.22668068146512929 0.045875643423131329 0 0.24218496799700481 0.089025544070598317 0 0.27499999999933927 0.060310814194988557 0 0.24218496799700481 0.089025544070598317 0 0.22668068146512929 0.045875643423131329 0 0.19922788606653311 0.085920220746880993 0 0.184418230509967 0.038773194583122873 0 0.22668068146512929 0.045875643423131329 0 0.19999999999955789 0 0 0.22668068146512929 0.045875643423131329 0 0.184418230509967 0.038773194583122873 0 0.19999999999955789 0 0 0.24999999999941211 0 0 0.22668068146512929 0.045875643423131329 0 0.24999999999941211 0 0 0.29999999999926641 0 0 0.27499999999933927 0.060310814194988557 0 0.24999999999941211 0 0 0.27499999999933927 0.060310814194988557 0 0.22668068146512929 0.045875643423131329 0 0.29999999999926641 0 0 0.32541448401678508 0.046215317981507749 0 0.27499999999933927 0.060310814194988557 0 0.29999999999926641 0 0 0.34999999999912063 0 0 0.32541448401678508 0.046215317981507749 0 0.35312867752657662 0.084946736076730367 0 0.32541448401678508 0.046215317981507749 0 0.3615861437013822 0.03582617922508851 0 0.35312867752657662 0.084946736076730367 0 0.3615861437013822 0.03582617922508851 0 0.39591832466117061 0.056982757562006353 0 0.34999999999912063 0 0 0.3615861437013822 0.03582617922508851 0 0.32541448401678508 0.046215317981507749 0 0.34999999999912063 0 0 0.3999999999989749 0 0 0.3615861437013822 0.03582617922508851 0 0.35312867752657662 0.084946736076730367 0 0.39823268594401579 0.1116623613130045 0 0.36246644853392812 0.1399454205365751 0 0.35312867752657662 0.084946736076730367 0 0.36246644853392812 0.1399454205365751 0 0.32215584939770009 0.1218492143506909 0 0.35312867752657662 0.084946736076730367 0 0.3096713403101819 0.085471541595262421 0 0.32541448401678508 0.046215317981507749 0 0.35312867752657662 0.084946736076730367 0 0.32215584939770009 0.1218492143506909 0 0.3096713403101819 0.085471541595262421 0 0.27474541102162192 0.11822029332053539 0 0.3096713403101819 0.085471541595262421 0 0.32215584939770009 0.1218492143506909 0 0.27499999999933927 0.060310814194988557 0 0.32541448401678508 0.046215317981507749 0 0.3096713403101819 0.085471541595262421 0 0.3096713403101819 0.085471541595262421 0 0.27474541102162192 0.11822029332053539 0 0.27499999999933927 0.060310814194988557 0 0.27499999999933927 0.060310814194988557 0 0.27474541102162192 0.11822029332053539 0 0.24218496799700481 0.089025544070598317 0 0.27474541102162192 0.11822029332053539 0 0.25557216766470708 0.15874861286892261 0 0.22985637510995899 0.1298347970200906 0 0.27474541102162192 0.11822029332053539 0 0.29336099386129338 0.15892013001050981 0 0.25557216766470708 0.15874861286892261 0 0.26429849586623999 0.19346700179430079 0 0.25557216766470708 0.15874861286892261 0 0.29336099386129338 0.15892013001050981 0 0.33084213324567391 0.16272720141332131 0 0.31255190597181792 0.19850845631528771 0 0.29336099386129338 0.15892013001050981 0 0.26429849586623999 0.19346700179430079 0 0.29336099386129338 0.15892013001050981 0 0.31255190597181792 0.19850845631528771 0 0.27474541102162192 0.11822029332053539 0 0.32215584939770009 0.1218492143506909 0 0.29336099386129338 0.15892013001050981 0 0.28040350263641872 0.23054717217092141 0 0.25195515620380449 0.25883339815888678 0 0.224700362040408 0.22206622194729711 0 0.26429849586623999 0.19346700179430079 0 0.28040350263641872 0.23054717217092141 0 0.224700362040408 0.22206622194729711 0 0.26429849586623999 0.19346700179430079 0 0.31255190597181792 0.19850845631528771 0 0.28040350263641872 0.23054717217092141 0 0.33758650185219202 0.23837101504325639 0 0.29132859388405002 0.27203693976649962 0 0.28040350263641872 0.23054717217092141 0 0.33758650185219202 0.23837101504325639 0 0.28040350263641872 0.23054717217092141 0 0.31255190597181792 0.19850845631528771 0 0.33758650185219202 0.23837101504325639 0 0.31255190597181792 0.19850845631528771 0 0.3572130504031617 0.1874703368446563 0 0.33758650185219202 0.23837101504325639 0 0.3572130504031617 0.1874703368446563 0 0.38831533174504851 0.2189834941785925 0 0.33758650185219202 0.23837101504325639 0 0.38831533174504851 0.2189834941785925 0 0.3786248352540974 0.27082301512024259 0 0.33084213324567391 0.16272720141332131 0 0.29336099386129338 0.15892013001050981 0 0.32215584939770009 0.1218492143506909 0 0.33084213324567391 0.16272720141332131 0 0.32215584939770009 0.1218492143506909 0 0.36246644853392812 0.1399454205365751 0 0.33084213324567391 0.16272720141332131 0 0.3572130504031617 0.1874703368446563 0 0.31255190597181792 0.19850845631528771 0 0.39801143831225599 0.16651381068160659 0 0.3572130504031617 0.1874703368446563 0 0.36246644853392812 0.1399454205365751 0 0.33084213324567391 0.16272720141332131 0 0.36246644853392812 0.1399454205365751 0 0.3572130504031617 0.1874703368446563 0 0.39801143831225599 0.16651381068160659 0 0.36246644853392812 0.1399454205365751 0 0.39823268594401579 0.1116623613130045 0 0.39801143831225599 0.16651381068160659 0 0.44288491854585582 0.14116182884956319 0 0.42905200079338551 0.19982395548231649 0 0.39801143831225599 0.16651381068160659 0 0.39823268594401579 0.1116623613130045 0 0.44288491854585582 0.14116182884956319 0 0.42377727103934271 0.25099357235810238 0 0.3786248352540974 0.27082301512024259 0 0.38831533174504851 0.2189834941785925 0 0.39801143831225599 0.16651381068160659 0 0.38831533174504851 0.2189834941785925 0 0.3572130504031617 0.1874703368446563 0 0.39801143831225599 0.16651381068160659 0 0.42905200079338551 0.19982395548231649 0 0.38831533174504851 0.2189834941785925 0 0.42377727103934271 0.25099357235810238 0 0.38831533174504851 0.2189834941785925 0 0.42905200079338551 0.19982395548231649 0 0.42377727103934271 0.25099357235810238 0 0.42905200079338551 0.19982395548231649 0 0.46429753744194407 0.22870891180733599 0 0.47357141910802508 0.1873585799078378 0 0.46429753744194407 0.22870891180733599 0 0.42905200079338551 0.19982395548231649 0 0.47357141910802508 0.1873585799078378 0 0.51729576145820033 0.1683240575987815 0 0.50760557329222289 0.20700468884612061 0 0.47357141910802508 0.1873585799078378 0 0.50760557329222289 0.20700468884612061 0 0.46429753744194407 0.22870891180733599 0 0.49695729691142171 0.25014895411178018 0 0.46429753744194407 0.22870891180733599 0 0.50760557329222289 0.20700468884612061 0 0.47357141910802508 0.1873585799078378 0 0.44288491854585582 0.14116182884956319 0 0.48466639505193998 0.1421439844745814 0 0.47357141910802508 0.1873585799078378 0 0.42905200079338551 0.19982395548231649 0 0.44288491854585582 0.14116182884956319 0 0.47357141910802508 0.1873585799078378 0 0.48466639505193998 0.1421439844745814 0 0.51729576145820033 0.1683240575987815 0 0.44288491854585582 0.14116182884956319 0 0.47881186583059909 0.093591717165689425 0 0.48466639505193998 0.1421439844745814 0 0.51076801031701946 0.1202837388510348 0 0.48466639505193998 0.1421439844745814 0 0.47881186583059909 0.093591717165689425 0 0.43698630808430822 0.080423614171545449 0 0.47881186583059909 0.093591717165689425 0 0.44288491854585582 0.14116182884956319 0 0.43698630808430822 0.080423614171545449 0 0.47040171442036788 0.044141676406503738 0 0.47881186583059909 0.093591717165689425 0 0.52375890611712683 0.059318771819432882 0 0.47881186583059909 0.093591717165689425 0 0.47040171442036788 0.044141676406503738 0 0.49999999999869432 0 0 0.52375890611712683 0.059318771819432882 0 0.47040171442036788 0.044141676406503738 0 0.44999999999882923 0 0 0.49999999999869432 0 0 0.47040171442036788 0.044141676406503738 0 0.44999999999882923 0 0 0.47040171442036788 0.044141676406503738 0 0.4320097814748517 0.037406712692169303 0 0.43698630808430822 0.080423614171545449 0 0.4320097814748517 0.037406712692169303 0 0.47040171442036788 0.044141676406503738 0 0.3999999999989749 0 0 0.4320097814748517 0.037406712692169303 0 0.39591832466117061 0.056982757562006353 0 0.43698630808430822 0.080423614171545449 0 0.39591832466117061 0.056982757562006353 0 0.4320097814748517 0.037406712692169303 0 0.3999999999989749 0 0 0.44999999999882923 0 0 0.4320097814748517 0.037406712692169303 0 0.3999999999989749 0 0 0.39591832466117061 0.056982757562006353 0 0.3615861437013822 0.03582617922508851 0 0.35312867752657662 0.084946736076730367 0 0.39591832466117061 0.056982757562006353 0 0.39823268594401579 0.1116623613130045 0 0.43698630808430822 0.080423614171545449 0 0.44288491854585582 0.14116182884956319 0 0.39823268594401579 0.1116623613130045 0 0.43698630808430822 0.080423614171545449 0 0.39823268594401579 0.1116623613130045 0 0.39591832466117061 0.056982757562006353 0 0.43249999999999988 0.43937499999999979 0 0.38707855792647411 0.42299362914874578 0 0.42161023666869668 0.39493916313643851 0 0.38083244760691543 0.38531983672244652 0 0.42161023666869668 0.39493916313643851 0 0.38707855792647411 0.42299362914874578 0 0.38083244760691543 0.38531983672244652 0 0.40076539126862748 0.34589349467022118 0 0.42161023666869668 0.39493916313643851 0 0.43249999999999988 0.43937499999999979 0 0.3908716102680424 0.47010282357248828 0 0.38707855792647411 0.42299362914874578 0 0.38244435121258652 0.51653317813019495 0 0.3908716102680424 0.47010282357248828 0 0.43507373378304309 0.49699695397193322 0 0.43249999999999988 0.43937499999999979 0 0.43507373378304309 0.49699695397193322 0 0.3908716102680424 0.47010282357248828 0 0.43249999999999988 0.43937499999999979 0 0.46111841286828259 0.46690301029591341 0 0.43507373378304309 0.49699695397193322 0 0.43249999999999988 0.43937499999999979 0 0.48858720058566618 0.43964267759203868 0 0.46111841286828259 0.46690301029591341 0 0.49102375406324739 0.49123754822244059 0 0.43507373378304309 0.49699695397193322 0 0.46111841286828259 0.46690301029591341 0 0.49102375406324739 0.49123754822244059 0 0.46111841286828259 0.46690301029591341 0 0.48858720058566618 0.43964267759203868 0 0.52289427570932567 0.3932284363388488 0 0.48858720058566618 0.43964267759203868 0 0.46655310992796922 0.39650496622958609 0 0.43249999999999988 0.43937499999999979 0 0.46655310992796922 0.39650496622958609 0 0.48858720058566618 0.43964267759203868 0 0.43249999999999988 0.43937499999999979 0 0.42161023666869668 0.39493916313643851 0 0.46655310992796922 0.39650496622958609 0 0.4409427642593301 0.35743108089689513 0 0.46655310992796922 0.39650496622958609 0 0.42161023666869668 0.39493916313643851 0 0.52289427570932567 0.3932284363388488 0 0.46655310992796922 0.39650496622958609 0 0.49077833859261139 0.35229981449445641 0 0.5 0.29999999999999999 0 0.49077833859261139 0.35229981449445641 0 0.46226845272279993 0.31901800744800313 0 0.4409427642593301 0.35743108089689513 0 0.46226845272279993 0.31901800744800313 0 0.49077833859261139 0.35229981449445641 0 0.4409427642593301 0.35743108089689513 0 0.41914690343363781 0.30688979866601612 0 0.46226845272279993 0.31901800744800313 0 0.4409427642593301 0.35743108089689513 0 0.49077833859261139 0.35229981449445641 0 0.46655310992796922 0.39650496622958609 0 0.5 0.29999999999999999 0 0.4604742573284204 0.27846934318264788 0 0.49695729691142171 0.25014895411178018 0 0.49695729691142171 0.25014895411178018 0 0.4604742573284204 0.27846934318264788 0 0.46429753744194407 0.22870891180733599 0 0.5 0.29999999999999999 0 0.46226845272279993 0.31901800744800313 0 0.4604742573284204 0.27846934318264788 0 0.41914690343363781 0.30688979866601612 0 0.4604742573284204 0.27846934318264788 0 0.46226845272279993 0.31901800744800313 0 0.42377727103934271 0.25099357235810238 0 0.46429753744194407 0.22870891180733599 0 0.4604742573284204 0.27846934318264788 0 0.42377727103934271 0.25099357235810238 0 0.4604742573284204 0.27846934318264788 0 0.41914690343363781 0.30688979866601612 0 0.42377727103934271 0.25099357235810238 0 0.41914690343363781 0.30688979866601612 0 0.3786248352540974 0.27082301512024259 0 0.36575549820117997 0.31677992835137742 0 0.3786248352540974 0.27082301512024259 0 0.41914690343363781 0.30688979866601612 0 0.4409427642593301 0.35743108089689513 0 0.42161023666869668 0.39493916313643851 0 0.40076539126862748 0.34589349467022118 0 0.4409427642593301 0.35743108089689513 0 0.40076539126862748 0.34589349467022118 0 0.41914690343363781 0.30688979866601612 0 0.36575549820117997 0.31677992835137742 0 0.41914690343363781 0.30688979866601612 0 0.40076539126862748 0.34589349467022118 0 0.40076539126862748 0.34589349467022118 0 0.33277555741076909 0.36432196682010132 0 0.36575549820117997 0.31677992835137742 0 0.38083244760691543 0.38531983672244652 0 0.33277555741076909 0.36432196682010132 0 0.40076539126862748 0.34589349467022118 0 0.36575549820117997 0.31677992835137742 0 0.33277555741076909 0.36432196682010132 0 0.32752639306529541 0.32610012995269699 0 0.33277555741076909 0.36432196682010132 0 0.29644548887253103 0.34914008784168082 0 0.32752639306529541 0.32610012995269699 0 0.33758650185219202 0.23837101504325639 0 0.3786248352540974 0.27082301512024259 0 0.33402499257867951 0.28911035184473982 0 0.36575549820117997 0.31677992835137742 0 0.33402499257867951 0.28911035184473982 0 0.3786248352540974 0.27082301512024259 0 0.36575549820117997 0.31677992835137742 0 0.32752639306529541 0.32610012995269699 0 0.33402499257867951 0.28911035184473982 0 0.29348325746214782 0.31350119524708198 0 0.33402499257867951 0.28911035184473982 0 0.32752639306529541 0.32610012995269699 0 0.33758650185219202 0.23837101504325639 0 0.33402499257867951 0.28911035184473982 0 0.29132859388405002 0.27203693976649962 0 0.29348325746214782 0.31350119524708198 0 0.29132859388405002 0.27203693976649962 0 0.33402499257867951 0.28911035184473982 0 0.29348325746214782 0.31350119524708198 0 0.24432083401701241 0.3006253385567515 0 0.29132859388405002 0.27203693976649962 0 0.25195515620380449 0.25883339815888678 0 0.29132859388405002 0.27203693976649962 0 0.24432083401701241 0.3006253385567515 0 0.25195515620380449 0.25883339815888678 0 0.28040350263641872 0.23054717217092141 0 0.29132859388405002 0.27203693976649962 0 0.27866744612395528 0.38416094670951489 0 0.29644548887253103 0.34914008784168082 0 0.33277555741076909 0.36432196682010132 0 0.29348325746214782 0.31350119524708198 0 0.32752639306529541 0.32610012995269699 0 0.29644548887253103 0.34914008784168082 0 0.29348325746214782 0.31350119524708198 0 0.29644548887253103 0.34914008784168082 0 0.25966125648670141 0.34351016742083729 0 0.29348325746214782 0.31350119524708198 0 0.25966125648670141 0.34351016742083729 0 0.24432083401701241 0.3006253385567515 0 0.27866744612395528 0.38416094670951489 0 0.25966125648670141 0.34351016742083729 0 0.29644548887253103 0.34914008784168082 0 0.27866744612395528 0.38416094670951489 0 0.22033343844674469 0.36963382230740238 0 0.25966125648670141 0.34351016742083729 0 0.27866744612395528 0.38416094670951489 0 0.29124338931648802 0.43334555462578611 0 0.24049127783545701 0.41270748208749802 0 0.29124338931648802 0.43334555462578611 0 0.25982634974572738 0.46097799597715272 0 0.24049127783545701 0.41270748208749802 0 0.27866744612395528 0.38416094670951489 0 0.31778888742534622 0.40581751814196781 0 0.29124338931648802 0.43334555462578611 0 0.27866744612395528 0.38416094670951489 0 0.33277555741076909 0.36432196682010132 0 0.31778888742534622 0.40581751814196781 0 0.33277555741076909 0.36432196682010132 0 0.35221190152536241 0.40457127605439203 0 0.31778888742534622 0.40581751814196781 0 0.34258405725730701 0.4444034294386992 0 0.31778888742534622 0.40581751814196781 0 0.35221190152536241 0.40457127605439203 0 0.34258405725730701 0.4444034294386992 0 0.29124338931648802 0.43334555462578611 0 0.31778888742534622 0.40581751814196781 0 0.34258405725730701 0.4444034294386992 0 0.35221190152536241 0.40457127605439203 0 0.38707855792647411 0.42299362914874578 0 0.38083244760691543 0.38531983672244652 0 0.38707855792647411 0.42299362914874578 0 0.35221190152536241 0.40457127605439203 0 0.38083244760691543 0.38531983672244652 0 0.35221190152536241 0.40457127605439203 0 0.33277555741076909 0.36432196682010132 0 0.38244435121258652 0.51653317813019495 0 0.35024835142131061 0.48654922671676981 0 0.3908716102680424 0.47010282357248828 0 0.34258405725730701 0.4444034294386992 0 0.3908716102680424 0.47010282357248828 0 0.35024835142131061 0.48654922671676981 0 0.34258405725730701 0.4444034294386992 0 0.38707855792647411 0.42299362914874578 0 0.3908716102680424 0.47010282357248828 0 0.34258405725730701 0.4444034294386992 0 0.31068898841644388 0.47541502461811092 0 0.29124338931648802 0.43334555462578611 0 0.35024835142131061 0.48654922671676981 0 0.33190227185843768 0.52715113583864037 0 0.31068898841644388 0.47541502461811092 0 0.34258405725730701 0.4444034294386992 0 0.35024835142131061 0.48654922671676981 0 0.31068898841644388 0.47541502461811092 0 0.28307294598219601 0.50789252727458634 0 0.25982634974572738 0.46097799597715272 0 0.31068898841644388 0.47541502461811092 0 0.29124338931648802 0.43334555462578611 0 0.31068898841644388 0.47541502461811092 0 0.25982634974572738 0.46097799597715272 0 0.28307294598219601 0.50789252727458634 0 0.23975172658309729 0.49475499200540818 0 0.25982634974572738 0.46097799597715272 0 0.22278230690790279 0.44824268025881547 0 0.23975172658309729 0.49475499200540818 0 0.19604738184454831 0.47787523520405789 0 0.22278230690790279 0.44824268025881547 0 0.19604738184454831 0.47787523520405789 0 0.191953871957803 0.42546416763755879 0 0.22278230690790279 0.44824268025881547 0 0.24049127783545701 0.41270748208749802 0 0.25982634974572738 0.46097799597715272 0 0.22278230690790279 0.44824268025881547 0 0.25982634974572738 0.46097799597715272 0 0.23975172658309729 0.49475499200540818 0 0.27866744612395528 0.38416094670951489 0 0.24049127783545701 0.41270748208749802 0 0.22033343844674469 0.36963382230740238 0 0.1650278706801647 0.38791388161335733 0 0.22033343844674469 0.36963382230740238 0 0.191953871957803 0.42546416763755879 0 0.22033343844674469 0.36963382230740238 0 0.24049127783545701 0.41270748208749802 0 0.191953871957803 0.42546416763755879 0 0.22278230690790279 0.44824268025881547 0 0.191953871957803 0.42546416763755879 0 0.24049127783545701 0.41270748208749802 0 0.15801167086041079 0.46008690540259539 0 0.13773355295499351 0.42497777642586831 0 0.191953871957803 0.42546416763755879 0 0.1650278706801647 0.38791388161335733 0 0.191953871957803 0.42546416763755879 0 0.13773355295499351 0.42497777642586831 0 0.1650278706801647 0.38791388161335733 0 0.13773355295499351 0.42497777642586831 0 0.1117088112799664 0.38831403004970022 0 0.15801167086041079 0.46008690540259539 0 0.113541300460994 0.46208784312094731 0 0.13773355295499351 0.42497777642586831 0 0.1216098864341134 0.50637075089503902 0 0.113541300460994 0.46208784312094731 0 0.15801167086041079 0.46008690540259539 0 0.1216098864341134 0.50637075089503902 0 0.15801167086041079 0.46008690540259539 0 0.16618607197337229 0.50652878253548905 0 0.15801167086041079 0.46008690540259539 0 0.19604738184454831 0.47787523520405789 0 0.16618607197337229 0.50652878253548905 0 0.15801167086041079 0.46008690540259539 0 0.191953871957803 0.42546416763755879 0 0.19604738184454831 0.47787523520405789 0 0.25195515620380449 0.25883339815888678 0 0.24432083401701241 0.3006253385567515 0 0.21049769590865089 0.26857363548218488 0 0.19670163708476801 0.31472518408333222 0 0.21049769590865089 0.26857363548218488 0 0.24432083401701241 0.3006253385567515 0 0.19670163708476801 0.31472518408333222 0 0.168349569971391 0.28054490850913671 0 0.21049769590865089 0.26857363548218488 0 0.19670163708476801 0.31472518408333222 0 0.22615676742807109 0.33458786033114157 0 0.18434624290945251 0.35208838264196463 0 0.19670163708476801 0.31472518408333222 0 0.24432083401701241 0.3006253385567515 0 0.22615676742807109 0.33458786033114157 0 0.24432083401701241 0.3006253385567515 0 0.25966125648670141 0.34351016742083729 0 0.22615676742807109 0.33458786033114157 0 0.22033343844674469 0.36963382230740238 0 0.22615676742807109 0.33458786033114157 0 0.25966125648670141 0.34351016742083729 0 0.22033343844674469 0.36963382230740238 0 0.18434624290945251 0.35208838264196463 0 0.22615676742807109 0.33458786033114157 0 0.1650278706801647 0.38791388161335733 0 0.18434624290945251 0.35208838264196463 0 0.22033343844674469 0.36963382230740238 0 0.1650278706801647 0.38791388161335733 0 0.14223753364722069 0.3341983344262433 0 0.18434624290945251 0.35208838264196463 0 0.1650278706801647 0.38791388161335733 0 0.1117088112799664 0.38831403004970022 0 0.14223753364722069 0.3341983344262433 0 0.19670163708476801 0.31472518408333222 0 0.18434624290945251 0.35208838264196463 0 0.14223753364722069 0.3341983344262433 0 0.19670163708476801 0.31472518408333222 0 0.14223753364722069 0.3341983344262433 0 0.168349569971391 0.28054490850913671 0 0.1247745017231483 0.27198077544791172 0 0.168349569971391 0.28054490850913671 0 0.14223753364722069 0.3341983344262433 0 0.1247745017231483 0.27198077544791172 0 0.14377654328998779 0.2442024734791064 0 0.168349569971391 0.28054490850913671 0 0.17933913398461551 0.2350063570234002 0 0.21049769590865089 0.26857363548218488 0 0.168349569971391 0.28054490850913671 0 0.17933913398461551 0.2350063570234002 0 0.168349569971391 0.28054490850913671 0 0.14377654328998779 0.2442024734791064 0 0.049706944316556423 0.27522722923869108 0 0.095326043202144745 0.24554465089224409 0 0.093851963071650835 0.30582068233324772 0 0.1247745017231483 0.27198077544791172 0 0.095326043202144745 0.24554465089224409 0 0.14377654328998779 0.2442024734791064 0 0.1247745017231483 0.27198077544791172 0 0.093851963071650835 0.30582068233324772 0 0.095326043202144745 0.24554465089224409 0 0.1247745017231483 0.27198077544791172 0 0.14223753364722069 0.3341983344262433 0 0.093851963071650835 0.30582068233324772 0 0.049706944316556423 0.27522722923869108 0 0.093851963071650835 0.30582068233324772 0 0.046389130980076937 0.32668781832131749 0 0.087545339447545459 0.35122518864182262 0 0.046389130980076937 0.32668781832131749 0 0.093851963071650835 0.30582068233324772 0 0.087545339447545459 0.35122518864182262 0 0.093851963071650835 0.30582068233324772 0 0.14223753364722069 0.3341983344262433 0 0.087545339447545459 0.35122518864182262 0 0.14223753364722069 0.3341983344262433 0 0.1117088112799664 0.38831403004970022 0 0.087545339447545459 0.35122518864182262 0 0.1117088112799664 0.38831403004970022 0 0.050583896093752537 0.38543522283434112 0 0.087545339447545459 0.35122518864182262 0 0.050583896093752537 0.38543522283434112 0 0.046389130980076937 0.32668781832131749 0 0 0.35000000000145642 0 0.046389130980076937 0.32668781832131749 0 0.050583896093752537 0.38543522283434112 0 0 0.35000000000145642 0 0 0.30000000000124832 0 0.046389130980076937 0.32668781832131749 0 0 0.30000000000124832 0 0.049706944316556423 0.27522722923869108 0 0.046389130980076937 0.32668781832131749 0 0 0.30000000000124832 0 0 0.25000000000104028 0 0.049706944316556423 0.27522722923869108 0 0 0.25000000000104028 0 0.044081577119474857 0.2271058242433576 0 0.049706944316556423 0.27522722923869108 0 0.078358742472063481 0.43365249433908948 0 0.113541300460994 0.46208784312094731 0 0.068743045408989428 0.48853989837882689 0 0.1216098864341134 0.50637075089503902 0 0.068743045408989428 0.48853989837882689 0 0.113541300460994 0.46208784312094731 0 0.113541300460994 0.46208784312094731 0 0.078358742472063481 0.43365249433908948 0 0.13773355295499351 0.42497777642586831 0 0.078358742472063481 0.43365249433908948 0 0.1117088112799664 0.38831403004970022 0 0.13773355295499351 0.42497777642586831 0 0.078358742472063481 0.43365249433908948 0 0.050583896093752537 0.38543522283434112 0 0.1117088112799664 0.38831403004970022 0 0.078358742472063481 0.43365249433908948 0 0.035463093262830522 0.42673416072819947 0 0.050583896093752537 0.38543522283434112 0 0 0.40000000000166441 0 0 0.35000000000145642 0 0.050583896093752537 0.38543522283434112 0 0 0.40000000000166441 0 0.050583896093752537 0.38543522283434112 0 0.035463093262830522 0.42673416072819947 0 0 0.45000000000187229 0 0 0.40000000000166441 0 0.035463093262830522 0.42673416072819947 0 0 0.45000000000187229 0 0.035463093262830522 0.42673416072819947 0 0.033550201249889847 0.46247875832467239 0 0 0.50000000000205869 0 0.033550201249889847 0.46247875832467239 0 0.068743045408989428 0.48853989837882689 0 0.078358742472063481 0.43365249433908948 0 0.068743045408989428 0.48853989837882689 0 0.033550201249889847 0.46247875832467239 0 0.078358742472063481 0.43365249433908948 0 0.033550201249889847 0.46247875832467239 0 0.035463093262830522 0.42673416072819947 0 0 0.50000000000205869 0 0 0.45000000000187229 0 0.033550201249889847 0.46247875832467239 0 0 0.50000000000205869 0 0.068743045408989428 0.48853989837882689 0 0.044576108720083309 0.53509043209532614 0 0 0.55000000000173355 0 0 0.50000000000205869 0 0.044576108720083309 0.53509043209532614 0 0 0.55000000000173355 0 0.044576108720083309 0.53509043209532614 0 0.034381862692950467 0.57372682250960894 0 0.077693244765132896 0.56932317963405099 0 0.034381862692950467 0.57372682250960894 0 0.044576108720083309 0.53509043209532614 0 0.068743045408989428 0.48853989837882689 0 0.085622222639554768 0.53333248912060549 0 0.044576108720083309 0.53509043209532614 0 0.1216098864341134 0.50637075089503902 0 0.085622222639554768 0.53333248912060549 0 0.068743045408989428 0.48853989837882689 0 0.077693244765132896 0.56932317963405099 0 0.044576108720083309 0.53509043209532614 0 0.085622222639554768 0.53333248912060549 0 0.077693244765132896 0.56932317963405099 0 0.085622222639554768 0.53333248912060549 0 0.1154888278694548 0.56733818459978413 0 0.085622222639554768 0.53333248912060549 0 0.1216098864341134 0.50637075089503902 0 0.1154888278694548 0.56733818459978413 0 0.077693244765132896 0.56932317963405099 0 0.1154888278694548 0.56733818459978413 0 0.1024350934457823 0.60772393977513839 0 0.086179601630648681 0.64647209519980475 0 0.050069554451969707 0.61308520079857043 0 0.1024350934457823 0.60772393977513839 0 0.077693244765132896 0.56932317963405099 0 0.1024350934457823 0.60772393977513839 0 0.050069554451969707 0.61308520079857043 0 0.077693244765132896 0.56932317963405099 0 0.050069554451969707 0.61308520079857043 0 0.034381862692950467 0.57372682250960894 0 0 0.60000000000138687 0 0 0.55000000000173355 0 0.034381862692950467 0.57372682250960894 0 0 0.65000000000104008 0 0 0.60000000000138687 0 0.050069554451969707 0.61308520079857043 0 0 0.60000000000138687 0 0.034381862692950467 0.57372682250960894 0 0.050069554451969707 0.61308520079857043 0 0 0.7000000000006934 0 0 0.65000000000104008 0 0.046634677244967337 0.671418230738282 0 0.086179601630648681 0.64647209519980475 0 0.046634677244967337 0.671418230738282 0 0.050069554451969707 0.61308520079857043 0 0 0.65000000000104008 0 0.050069554451969707 0.61308520079857043 0 0.046634677244967337 0.671418230738282 0 0 0.75000000000034661 0 0 0.7000000000006934 0 0.049706944316475897 0.72477277076253799 0 0 0.7000000000006934 0 0.046634677244967337 0.671418230738282 0 0.049706944316475897 0.72477277076253799 0 0 0.75000000000034661 0 0.049706944316475897 0.72477277076253799 0 0.04408157711937423 0.7728941757575627 0 0.049706944316475897 0.72477277076253799 0 0.1020579365089687 0.69352219419301997 0 0.090953281884486245 0.7564451946902494 0 0.1215415378367805 0.72939333680004137 0 0.090953281884486245 0.7564451946902494 0 0.1020579365089687 0.69352219419301997 0 0.049706944316475897 0.72477277076253799 0 0.046634677244967337 0.671418230738282 0 0.1020579365089687 0.69352219419301997 0 0.1215415378367805 0.72939333680004137 0 0.14335651144331049 0.75565258250209677 0 0.090953281884486245 0.7564451946902494 0 0.086179601630648681 0.64647209519980475 0 0.1020579365089687 0.69352219419301997 0 0.046634677244967337 0.671418230738282 0 0.086179601630648681 0.64647209519980475 0 0.1241190223511371 0.64391885572885044 0 0.1020579365089687 0.69352219419301997 0 0.086179601630648681 0.64647209519980475 0 0.1024350934457823 0.60772393977513839 0 0.1241190223511371 0.64391885572885044 0 0.16500388252850301 0.66612077714085194 0 0.1020579365089687 0.69352219419301997 0 0.1241190223511371 0.64391885572885044 0 0.15720202157091859 0.60665697304410315 0 0.16500388252850301 0.66612077714085194 0 0.1241190223511371 0.64391885572885044 0 0.15720202157091859 0.60665697304410315 0 0.19914261668318661 0.62286739485272158 0 0.16500388252850301 0.66612077714085194 0 0.16500388252850301 0.66612077714085194 0 0.15332765547575641 0.71200081858233666 0 0.1020579365089687 0.69352219419301997 0 0.1215415378367805 0.72939333680004137 0 0.15332765547575641 0.71200081858233666 0 0.14335651144331049 0.75565258250209677 0 0.1215415378367805 0.72939333680004137 0 0.1020579365089687 0.69352219419301997 0 0.15332765547575641 0.71200081858233666 0 0.16500388252850301 0.66612077714085194 0 0.19068556247388771 0.71028988922845504 0 0.15332765547575641 0.71200081858233666 0 0.18269480424590959 0.75905448272264375 0 0.14335651144331049 0.75565258250209677 0 0.15332765547575641 0.71200081858233666 0 0.18269480424590959 0.75905448272264375 0 0.15332765547575641 0.71200081858233666 0 0.19068556247388771 0.71028988922845504 0 0.18269480424590959 0.75905448272264375 0 0.19068556247388771 0.71028988922845504 0 0.2248999640082178 0.72584299459689172 0 0.2236846579037573 0.67380363126050236 0 0.2248999640082178 0.72584299459689172 0 0.19068556247388771 0.71028988922845504 0 0.2236846579037573 0.67380363126050236 0 0.26439878998046262 0.7048065392091396 0 0.2248999640082178 0.72584299459689172 0 0.25676291524611189 0.7436741304886243 0 0.22556077506376701 0.77837424984191617 0 0.2248999640082178 0.72584299459689172 0 0.25676291524611189 0.7436741304886243 0 0.2248999640082178 0.72584299459689172 0 0.26439878998046262 0.7048065392091396 0 0.2236846579037573 0.67380363126050236 0 0.16500388252850301 0.66612077714085194 0 0.19914261668318661 0.62286739485272158 0 0.2236846579037573 0.67380363126050236 0 0.19068556247388771 0.71028988922845504 0 0.16500388252850301 0.66612077714085194 0 0.2236846579037573 0.67380363126050236 0 0.19914261668318661 0.62286739485272158 0 0.2459498854893499 0.63248470766216769 0 0.2236846579037573 0.67380363126050236 0 0.2459498854893499 0.63248470766216769 0 0.27820712747429932 0.65530134213254643 0 0.22549374774072969 0.58452645269293457 0 0.2459498854893499 0.63248470766216769 0 0.19914261668318661 0.62286739485272158 0 0.26573297623774761 0.59828298563722948 0 0.2459498854893499 0.63248470766216769 0 0.22549374774072969 0.58452645269293457 0 0.22549374774072969 0.58452645269293457 0 0.19914261668318661 0.62286739485272158 0 0.18381867841758909 0.57774125163628387 0 0.20050006573841939 0.53248514016039872 0 0.22549374774072969 0.58452645269293457 0 0.18381867841758909 0.57774125163628387 0 0.26573297623774761 0.59828298563722948 0 0.22549374774072969 0.58452645269293457 0 0.25115337790845271 0.54719303014923271 0 0.20050006573841939 0.53248514016039872 0 0.25115337790845271 0.54719303014923271 0 0.22549374774072969 0.58452645269293457 0 0.20050006573841939 0.53248514016039872 0 0.23975172658309729 0.49475499200540818 0 0.25115337790845271 0.54719303014923271 0 0.20050006573841939 0.53248514016039872 0 0.16618607197337229 0.50652878253548905 0 0.19604738184454831 0.47787523520405789 0 0.20050006573841939 0.53248514016039872 0 0.19604738184454831 0.47787523520405789 0 0.23975172658309729 0.49475499200540818 0 0.20050006573841939 0.53248514016039872 0 0.18381867841758909 0.57774125163628387 0 0.14934928745814749 0.55042914607228977 0 0.20050006573841939 0.53248514016039872 0 0.14934928745814749 0.55042914607228977 0 0.16618607197337229 0.50652878253548905 0 0.1216098864341134 0.50637075089503902 0 0.16618607197337229 0.50652878253548905 0 0.14934928745814749 0.55042914607228977 0 0.1154888278694548 0.56733818459978413 0 0.1216098864341134 0.50637075089503902 0 0.14934928745814749 0.55042914607228977 0 0.15720202157091859 0.60665697304410315 0 0.1154888278694548 0.56733818459978413 0 0.14934928745814749 0.55042914607228977 0 0.15720202157091859 0.60665697304410315 0 0.1024350934457823 0.60772393977513839 0 0.1154888278694548 0.56733818459978413 0 0.15720202157091859 0.60665697304410315 0 0.1241190223511371 0.64391885572885044 0 0.1024350934457823 0.60772393977513839 0 0.18381867841758909 0.57774125163628387 0 0.19914261668318661 0.62286739485272158 0 0.15720202157091859 0.60665697304410315 0 0.15720202157091859 0.60665697304410315 0 0.14934928745814749 0.55042914607228977 0 0.18381867841758909 0.57774125163628387 0 0.15000000000062411 1 0 0.10000000000041601 1 0 0.10266856499240549 0.95548163909968886 0 0.083411279318375747 0.91030024466934134 0 0.10266856499240549 0.95548163909968886 0 0.053064897599294662 0.95186845269532028 0 0.050000000000207989 1 0 0.053064897599294662 0.95186845269532028 0 0.10000000000041601 1 0 0.10000000000041601 1 0 0.053064897599294662 0.95186845269532028 0 0.10266856499240549 0.95548163909968886 0 0.050000000000207989 1 0 0.025766224399875661 0.97546711317377799 0 0.053064897599294662 0.95186845269532028 0 0 1 0 0.025766224399875661 0.97546711317377799 0 0.050000000000207989 1 0 0 1 0 0 0.94999999999979179 0 0.025766224399875661 0.97546711317377799 0 0 0.94999999999979179 0 0.053064897599294662 0.95186845269532028 0 0.025766224399875661 0.97546711317377799 0 0 0.94999999999979179 0 0.0443105827531413 0.89858748162559932 0 0.053064897599294662 0.95186845269532028 0 0.083411279318375747 0.91030024466934134 0 0.053064897599294662 0.95186845269532028 0 0.0443105827531413 0.89858748162559932 0 0 0.94999999999979179 0 0 0.89999999999958358 0 0.0443105827531413 0.89858748162559932 0 0 0.89999999999958358 0 0 0.84999999999965292 0 0.0443105827531413 0.89858748162559932 0 0.083411279318375747 0.91030024466934134 0 0.0443105827531413 0.89858748162559932 0 0.065374659239661639 0.8551091961254178 0 0.083411279318375747 0.91030024466934134 0 0.065374659239661639 0.8551091961254178 0 0.10562472963403439 0.87143394428979881 0 0.083411279318375747 0.91030024466934134 0 0.1241151115713819 0.9045666525468371 0 0.10266856499240549 0.95548163909968886 0 0.14617343800780541 0.93808063414349496 0 0.10266856499240549 0.95548163909968886 0 0.1241151115713819 0.9045666525468371 0 0.14474682429600511 0.85524784522713515 0 0.1241151115713819 0.9045666525468371 0 0.10562472963403439 0.87143394428979881 0 0.083411279318375747 0.91030024466934134 0 0.10562472963403439 0.87143394428979881 0 0.1241151115713819 0.9045666525468371 0 0.14474682429600511 0.85524784522713515 0 0.10562472963403439 0.87143394428979881 0 0.1074251789111534 0.83564394292147814 0 0.083105206071452636 0.79992298667296435 0 0.1074251789111534 0.83564394292147814 0 0.065374659239661639 0.8551091961254178 0 0.065374659239661639 0.8551091961254178 0 0.1074251789111534 0.83564394292147814 0 0.10562472963403439 0.87143394428979881 0 0 0.84999999999965292 0 0.038512288486097702 0.8155852717111195 0 0.065374659239661639 0.8551091961254178 0 0 0.84999999999965292 0 0.065374659239661639 0.8551091961254178 0 0.0443105827531413 0.89858748162559932 0 0 0.84999999999965292 0 0 0.79999999999999982 0 0.038512288486097702 0.8155852717111195 0 0.083105206071452636 0.79992298667296435 0 0.065374659239661639 0.8551091961254178 0 0.038512288486097702 0.8155852717111195 0 0.083105206071452636 0.79992298667296435 0 0.038512288486097702 0.8155852717111195 0 0.04408157711937423 0.7728941757575627 0 0 0.79999999999999982 0 0.04408157711937423 0.7728941757575627 0 0.038512288486097702 0.8155852717111195 0 0 0.79999999999999982 0 0 0.75000000000034661 0 0.04408157711937423 0.7728941757575627 0 0.049706944316475897 0.72477277076253799 0 0.090953281884486245 0.7564451946902494 0 0.04408157711937423 0.7728941757575627 0 0.083105206071452636 0.79992298667296435 0 0.04408157711937423 0.7728941757575627 0 0.090953281884486245 0.7564451946902494 0 0.083105206071452636 0.79992298667296435 0 0.1382744753146134 0.79650574229207483 0 0.1074251789111534 0.83564394292147814 0 0.083105206071452636 0.79992298667296435 0 0.090953281884486245 0.7564451946902494 0 0.1382744753146134 0.79650574229207483 0 0.1382744753146134 0.79650574229207483 0 0.090953281884486245 0.7564451946902494 0 0.14335651144331049 0.75565258250209677 0 0.18269480424590959 0.75905448272264375 0 0.1382744753146134 0.79650574229207483 0 0.14335651144331049 0.75565258250209677 0 0.18269480424590959 0.75905448272264375 0 0.17777405986036951 0.81832336108265358 0 0.1382744753146134 0.79650574229207483 0 0.18269480424590959 0.75905448272264375 0 0.2248999640082178 0.72584299459689172 0 0.22556077506376701 0.77837424984191617 0 0.21858834311891909 0.81980263716112767 0 0.22556077506376701 0.77837424984191617 0 0.26104540868854792 0.81401944968719064 0 0.21858834311891909 0.81980263716112767 0 0.17777405986036951 0.81832336108265358 0 0.22556077506376701 0.77837424984191617 0 0.18269480424590959 0.75905448272264375 0 0.22556077506376701 0.77837424984191617 0 0.17777405986036951 0.81832336108265358 0 0.21858834311891909 0.81980263716112767 0 0.19741632902693801 0.86755867406447229 0 0.17777405986036951 0.81832336108265358 0 0.21858834311891909 0.81980263716112767 0 0.26104540868854792 0.81401944968719064 0 0.2401283238295133 0.85648409884788523 0 0.21858834311891909 0.81980263716112767 0 0.2401283238295133 0.85648409884788523 0 0.19741632902693801 0.86755867406447229 0 0.14474682429600511 0.85524784522713515 0 0.17777405986036951 0.81832336108265358 0 0.19741632902693801 0.86755867406447229 0 0.14474682429600511 0.85524784522713515 0 0.19741632902693801 0.86755867406447229 0 0.16206583317966519 0.89685560785156404 0 0.14474682429600511 0.85524784522713515 0 0.1382744753146134 0.79650574229207483 0 0.17777405986036951 0.81832336108265358 0 0.14474682429600511 0.85524784522713515 0 0.1074251789111534 0.83564394292147814 0 0.1382744753146134 0.79650574229207483 0 0.14474682429600511 0.85524784522713515 0 0.16206583317966519 0.89685560785156404 0 0.1241151115713819 0.9045666525468371 0 0.14617343800780541 0.93808063414349496 0 0.1241151115713819 0.9045666525468371 0 0.16206583317966519 0.89685560785156404 0 0.19901705110390991 0.9175543425573498 0 0.14617343800780541 0.93808063414349496 0 0.16206583317966519 0.89685560785156404 0 0.19901705110390991 0.9175543425573498 0 0.16206583317966519 0.89685560785156404 0 0.19741632902693801 0.86755867406447229 0 0.19901705110390991 0.9175543425573498 0 0.19741632902693801 0.86755867406447229 0 0.24536017905392571 0.90704567837671446 0 0.19741632902693801 0.86755867406447229 0 0.2401283238295133 0.85648409884788523 0 0.24536017905392571 0.90704567837671446 0 0.19901705110390991 0.9175543425573498 0 0.24536017905392571 0.90704567837671446 0 0.22850979588452081 0.95594428570238643 0 0.19901705110390991 0.9175543425573498 0 0.22850979588452081 0.95594428570238643 0 0.18474005699953849 0.96231585248064622 0 0.27609987656793722 0.94991445621608572 0 0.22850979588452081 0.95594428570238643 0 0.24536017905392571 0.90704567837671446 0 0.25000000000104028 1 0 0.20000000000083221 1 0 0.22850979588452081 0.95594428570238643 0 0.20000000000083221 1 0 0.18474005699953849 0.96231585248064622 0 0.22850979588452081 0.95594428570238643 0 0.20000000000083221 1 0 0.15000000000062411 1 0 0.18474005699953849 0.96231585248064622 0 0.19901705110390991 0.9175543425573498 0 0.18474005699953849 0.96231585248064622 0 0.14617343800780541 0.93808063414349496 0 0.15000000000062411 1 0 0.14617343800780541 0.93808063414349496 0 0.18474005699953849 0.96231585248064622 0 0.15000000000062411 1 0 0.10266856499240549 0.95548163909968886 0 0.14617343800780541 0.93808063414349496 0 0.35000000000145642 1 0 0.32544832635163229 0.95485394099568932 0 0.36184234618600131 0.96443954459096326 0 0.40000000000166441 1 0 0.35000000000145642 1 0 0.36184234618600131 0.96443954459096326 0 0.35752321586431363 0.9185439911803448 0 0.36184234618600131 0.96443954459096326 0 0.32544832635163229 0.95485394099568932 0 0.35752321586431363 0.9185439911803448 0 0.39641108128798319 0.94356127926187128 0 0.36184234618600131 0.96443954459096326 0 0.35000000000145642 1 0 0.30000000000124832 1 0 0.32544832635163229 0.95485394099568932 0 0.30000000000124832 1 0 0.25000000000104028 1 0 0.27609987656793722 0.94991445621608572 0 0.25000000000104028 1 0 0.22850979588452081 0.95594428570238643 0 0.27609987656793722 0.94991445621608572 0 0.30000000000124832 1 0 0.27609987656793722 0.94991445621608572 0 0.32544832635163229 0.95485394099568932 0 0.27609987656793722 0.94991445621608572 0 0.30864387279288652 0.89906554525974958 0 0.32544832635163229 0.95485394099568932 0 0.27270076654418179 0.87751467830216623 0 0.30864387279288652 0.89906554525974958 0 0.24536017905392571 0.90704567837671446 0 0.27609987656793722 0.94991445621608572 0 0.24536017905392571 0.90704567837671446 0 0.30864387279288652 0.89906554525974958 0 0.27270076654418179 0.87751467830216623 0 0.24536017905392571 0.90704567837671446 0 0.2401283238295133 0.85648409884788523 0 0.35752321586431363 0.9185439911803448 0 0.30864387279288652 0.89906554525974958 0 0.35864759629805099 0.87963482415279515 0 0.35752321586431363 0.9185439911803448 0 0.32544832635163229 0.95485394099568932 0 0.30864387279288652 0.89906554525974958 0 0.35752321586431363 0.9185439911803448 0 0.35864759629805099 0.87963482415279515 0 0.39767323751400468 0.89584229130535065 0 0.35864759629805099 0.87963482415279515 0 0.33403534827021109 0.84402799729020661 0 0.39536230704883951 0.84069429572832477 0 0.33403534827021109 0.84402799729020661 0 0.35642984951668422 0.80994399665655703 0 0.39536230704883951 0.84069429572832477 0 0.33403534827021109 0.84402799729020661 0 0.30857225866488791 0.81101973481716805 0 0.35642984951668422 0.80994399665655703 0 0.33403534827021109 0.84402799729020661 0 0.35864759629805099 0.87963482415279515 0 0.30864387279288652 0.89906554525974958 0 0.33403534827021109 0.84402799729020661 0 0.30864387279288652 0.89906554525974958 0 0.29209212897034281 0.84715728365233667 0 0.27270076654418179 0.87751467830216623 0 0.29209212897034281 0.84715728365233667 0 0.30864387279288652 0.89906554525974958 0 0.27270076654418179 0.87751467830216623 0 0.2401283238295133 0.85648409884788523 0 0.29209212897034281 0.84715728365233667 0 0.26104540868854792 0.81401944968719064 0 0.29209212897034281 0.84715728365233667 0 0.2401283238295133 0.85648409884788523 0 0.26104540868854792 0.81401944968719064 0 0.30857225866488791 0.81101973481716805 0 0.29209212897034281 0.84715728365233667 0 0.33403534827021109 0.84402799729020661 0 0.29209212897034281 0.84715728365233667 0 0.30857225866488791 0.81101973481716805 0 0.26104540868854792 0.81401944968719064 0 0.2792923945214143 0.77665808831789485 0 0.30857225866488791 0.81101973481716805 0 0.33123028043633618 0.77629643437932982 0 0.30857225866488791 0.81101973481716805 0 0.2792923945214143 0.77665808831789485 0 0.26104540868854792 0.81401944968719064 0 0.22556077506376701 0.77837424984191617 0 0.2792923945214143 0.77665808831789485 0 0.25676291524611189 0.7436741304886243 0 0.29904318922293632 0.74132814928635593 0 0.2792923945214143 0.77665808831789485 0 0.25676291524611189 0.7436741304886243 0 0.2792923945214143 0.77665808831789485 0 0.22556077506376701 0.77837424984191617 0 0.33123028043633618 0.77629643437932982 0 0.2792923945214143 0.77665808831789485 0 0.29904318922293632 0.74132814928635593 0 0.33123028043633618 0.77629643437932982 0 0.29904318922293632 0.74132814928635593 0 0.35415581127540569 0.73730480045900215 0 0.33123028043633618 0.77629643437932982 0 0.35642984951668422 0.80994399665655703 0 0.30857225866488791 0.81101973481716805 0 0.33123028043633618 0.77629643437932982 0 0.38586766253264881 0.78219501014812498 0 0.35642984951668422 0.80994399665655703 0 0.33123028043633618 0.77629643437932982 0 0.35415581127540569 0.73730480045900215 0 0.38586766253264881 0.78219501014812498 0 0.40326160981139969 0.73346192995102844 0 0.42676259796334498 0.76772545931379299 0 0.38586766253264881 0.78219501014812498 0 0.40326160981139969 0.73346192995102844 0 0.38586766253264881 0.78219501014812498 0 0.35415581127540569 0.73730480045900215 0 0.39536230704883951 0.84069429572832477 0 0.38586766253264881 0.78219501014812498 0 0.42609163930740518 0.80361684430568059 0 0.39536230704883951 0.84069429572832477 0 0.35642984951668422 0.80994399665655703 0 0.38586766253264881 0.78219501014812498 0 0.38586766253264881 0.78219501014812498 0 0.42676259796334498 0.76772545931379299 0 0.42609163930740518 0.80361684430568059 0 0.4656888918609538 0.78493261229743638 0 0.42676259796334498 0.76772545931379299 0 0.45582236402875981 0.73896743678908217 0 0.4656888918609538 0.78493261229743638 0 0.45582236402875981 0.73896743678908217 0 0.50945740445113552 0.75476055527778108 0 0.4656888918609538 0.78493261229743638 0 0.50945740445113552 0.75476055527778108 0 0.50731287292894423 0.78963574450233831 0 0.4656888918609538 0.78493261229743638 0 0.50731287292894423 0.78963574450233831 0 0.50627822638148745 0.8263979829520941 0 0.4656888918609538 0.78493261229743638 0 0.45677673713123867 0.84253684404072415 0 0.42609163930740518 0.80361684430568059 0 0.4656888918609538 0.78493261229743638 0 0.42609163930740518 0.80361684430568059 0 0.42676259796334498 0.76772545931379299 0 0.4656888918609538 0.78493261229743638 0 0.50627822638148745 0.8263979829520941 0 0.45677673713123867 0.84253684404072415 0 0.50202631463681879 0.87892870825713787 0 0.45677673713123867 0.84253684404072415 0 0.50627822638148745 0.8263979829520941 0 0.50202631463681879 0.87892870825713787 0 0.44003836461056539 0.88093474584252718 0 0.45677673713123867 0.84253684404072415 0 0.39536230704883951 0.84069429572832477 0 0.45677673713123867 0.84253684404072415 0 0.44003836461056539 0.88093474584252718 0 0.39536230704883951 0.84069429572832477 0 0.44003836461056539 0.88093474584252718 0 0.39767323751400468 0.89584229130535065 0 0.39536230704883951 0.84069429572832477 0 0.42609163930740518 0.80361684430568059 0 0.45677673713123867 0.84253684404072415 0 0.39536230704883951 0.84069429572832477 0 0.39767323751400468 0.89584229130535065 0 0.35864759629805099 0.87963482415279515 0 0.35752321586431363 0.9185439911803448 0 0.39767323751400468 0.89584229130535065 0 0.39641108128798319 0.94356127926187128 0 0.4367309254023824 0.92065556789053882 0 0.39641108128798319 0.94356127926187128 0 0.39767323751400468 0.89584229130535065 0 0.4367309254023824 0.92065556789053882 0 0.39767323751400468 0.89584229130535065 0 0.44003836461056539 0.88093474584252718 0 0.4367309254023824 0.92065556789053882 0 0.44003836461056539 0.88093474584252718 0 0.47401147028110507 0.91529957330468115 0 0.50202631463681879 0.87892870825713787 0 0.47401147028110507 0.91529957330468115 0 0.44003836461056539 0.88093474584252718 0 0.52122150208832174 0.94089974453840242 0 0.47135117303824892 0.95556877749289892 0 0.47401147028110507 0.91529957330468115 0 0.50202631463681879 0.87892870825713787 0 0.52122150208832174 0.94089974453840242 0 0.47401147028110507 0.91529957330468115 0 0.4367309254023824 0.92065556789053882 0 0.47401147028110507 0.91529957330468115 0 0.47135117303824892 0.95556877749289892 0 0.4367309254023824 0.92065556789053882 0 0.47135117303824892 0.95556877749289892 0 0.4308986359464303 0.96395712492906194 0 0.50000000000205869 1 0 0.47135117303824892 0.95556877749289892 0 0.52122150208832174 0.94089974453840242 0 0.50000000000205869 1 0 0.45000000000187229 1 0 0.47135117303824892 0.95556877749289892 0 0.45000000000187229 1 0 0.4308986359464303 0.96395712492906194 0 0.47135117303824892 0.95556877749289892 0 0.45000000000187229 1 0 0.40000000000166441 1 0 0.4308986359464303 0.96395712492906194 0 0.40000000000166441 1 0 0.39641108128798319 0.94356127926187128 0 0.4308986359464303 0.96395712492906194 0 0.4367309254023824 0.92065556789053882 0 0.4308986359464303 0.96395712492906194 0 0.39641108128798319 0.94356127926187128 0 0.40000000000166441 1 0 0.36184234618600131 0.96443954459096326 0 0.39641108128798319 0.94356127926187128 0 0.33122374654748771 0.57588941099433744 0 0.35765792684946668 0.6000687869219653 0 0.31502927232353312 0.6134992213375432 0 0.35864735590330371 0.63903383440414463 0 0.31502927232353312 0.6134992213375432 0 0.35765792684946668 0.6000687869219653 0 0.35864735590330371 0.63903383440414463 0 0.35765792684946668 0.6000687869219653 0 0.39743091024207589 0.6239520004230239 0 0.33122374654748771 0.57588941099433744 0 0.37272913873093971 0.56192925302619479 0 0.35765792684946668 0.6000687869219653 0 0.38244435121258652 0.51653317813019495 0 0.37272913873093971 0.56192925302619479 0 0.33190227185843768 0.52715113583864037 0 0.33122374654748771 0.57588941099433744 0 0.33190227185843768 0.52715113583864037 0 0.37272913873093971 0.56192925302619479 0 0.38244435121258652 0.51653317813019495 0 0.33190227185843768 0.52715113583864037 0 0.35024835142131061 0.48654922671676981 0 0.33122374654748771 0.57588941099433744 0 0.29110487519241501 0.56588143995431495 0 0.33190227185843768 0.52715113583864037 0 0.28307294598219601 0.50789252727458634 0 0.33190227185843768 0.52715113583864037 0 0.29110487519241501 0.56588143995431495 0 0.31068898841644388 0.47541502461811092 0 0.33190227185843768 0.52715113583864037 0 0.28307294598219601 0.50789252727458634 0 0.28307294598219601 0.50789252727458634 0 0.25115337790845271 0.54719303014923271 0 0.23975172658309729 0.49475499200540818 0 0.28307294598219601 0.50789252727458634 0 0.29110487519241501 0.56588143995431495 0 0.25115337790845271 0.54719303014923271 0 0.26573297623774761 0.59828298563722948 0 0.25115337790845271 0.54719303014923271 0 0.29110487519241501 0.56588143995431495 0 0.33122374654748771 0.57588941099433744 0 0.31502927232353312 0.6134992213375432 0 0.29110487519241501 0.56588143995431495 0 0.26573297623774761 0.59828298563722948 0 0.29110487519241501 0.56588143995431495 0 0.31502927232353312 0.6134992213375432 0 0.26573297623774761 0.59828298563722948 0 0.31502927232353312 0.6134992213375432 0 0.27820712747429932 0.65530134213254643 0 0.26573297623774761 0.59828298563722948 0 0.27820712747429932 0.65530134213254643 0 0.2459498854893499 0.63248470766216769 0 0.2236846579037573 0.67380363126050236 0 0.27820712747429932 0.65530134213254643 0 0.26439878998046262 0.7048065392091396 0 0.31378396441836959 0.70157213313026345 0 0.27820712747429932 0.65530134213254643 0 0.32263089806001177 0.66003674931826484 0 0.31378396441836959 0.70157213313026345 0 0.26439878998046262 0.7048065392091396 0 0.27820712747429932 0.65530134213254643 0 0.27820712747429932 0.65530134213254643 0 0.31502927232353312 0.6134992213375432 0 0.32263089806001177 0.66003674931826484 0 0.25676291524611189 0.7436741304886243 0 0.26439878998046262 0.7048065392091396 0 0.29904318922293632 0.74132814928635593 0 0.31378396441836959 0.70157213313026345 0 0.29904318922293632 0.74132814928635593 0 0.26439878998046262 0.7048065392091396 0 0.31378396441836959 0.70157213313026345 0 0.35415581127540569 0.73730480045900215 0 0.29904318922293632 0.74132814928635593 0 0.31378396441836959 0.70157213313026345 0 0.36622285152418499 0.69092437780804039 0 0.35415581127540569 0.73730480045900215 0 0.40326160981139969 0.73346192995102844 0 0.35415581127540569 0.73730480045900215 0 0.36622285152418499 0.69092437780804039 0 0.35864735590330371 0.63903383440414463 0 0.32263089806001177 0.66003674931826484 0 0.31502927232353312 0.6134992213375432 0 0.31378396441836959 0.70157213313026345 0 0.32263089806001177 0.66003674931826484 0 0.36622285152418499 0.69092437780804039 0 0.35864735590330371 0.63903383440414463 0 0.36622285152418499 0.69092437780804039 0 0.32263089806001177 0.66003674931826484 0 0.35864735590330371 0.63903383440414463 0 0.3977710372045391 0.65868194622830212 0 0.36622285152418499 0.69092437780804039 0 0.35864735590330371 0.63903383440414463 0 0.39743091024207589 0.6239520004230239 0 0.3977710372045391 0.65868194622830212 0 0.36622285152418499 0.69092437780804039 0 0.3977710372045391 0.65868194622830212 0 0.43323420005758778 0.6913544522562407 0 0.43846182030517877 0.64845797726506715 0 0.43323420005758778 0.6913544522562407 0 0.3977710372045391 0.65868194622830212 0 0.43846182030517877 0.64845797726506715 0 0.39743091024207589 0.6239520004230239 0 0.43545892161006339 0.61093128915313821 0 0.43846182030517877 0.64845797726506715 0 0.3977710372045391 0.65868194622830212 0 0.39743091024207589 0.6239520004230239 0 0.40326160981139969 0.73346192995102844 0 0.36622285152418499 0.69092437780804039 0 0.43323420005758778 0.6913544522562407 0 0.40326160981139969 0.73346192995102844 0 0.43323420005758778 0.6913544522562407 0 0.45582236402875981 0.73896743678908217 0 0.40326160981139969 0.73346192995102844 0 0.45582236402875981 0.73896743678908217 0 0.42676259796334498 0.76772545931379299 0 0.5 0.69999999999999996 0 0.45582236402875981 0.73896743678908217 0 0.43323420005758778 0.6913544522562407 0 0.5 0.69999999999999996 0 0.50945740445113552 0.75476055527778108 0 0.45582236402875981 0.73896743678908217 0 0.5 0.69999999999999996 0 0.43323420005758778 0.6913544522562407 0 0.47913475093885149 0.66010775372412711 0 0.43846182030517877 0.64845797726506715 0 0.47095389620662098 0.61892551373708504 0 0.47913475093885149 0.66010775372412711 0 0.43846182030517877 0.64845797726506715 0 0.43545892161006339 0.61093128915313821 0 0.47095389620662098 0.61892551373708504 0 0.43846182030517877 0.64845797726506715 0 0.47913475093885149 0.66010775372412711 0 0.43323420005758778 0.6913544522562407 0 0.50715858906372158 0.63295939104129484 0 0.47913475093885149 0.66010775372412711 0 0.47095389620662098 0.61892551373708504 0 0.50715858906372158 0.63295939104129484 0 0.47095389620662098 0.61892551373708504 0 0.5166924242153631 0.59825134841919447 0 0.46666084890304671 0.57634471035397938 0 0.5166924242153631 0.59825134841919447 0 0.47095389620662098 0.61892551373708504 0 0.46666084890304671 0.57634471035397938 0 0.47095389620662098 0.61892551373708504 0 0.43545892161006339 0.61093128915313821 0 0.4089290844030305 0.58728915500154233 0 0.43545892161006339 0.61093128915313821 0 0.39743091024207589 0.6239520004230239 0 0.43545892161006339 0.61093128915313821 0 0.4089290844030305 0.58728915500154233 0 0.46666084890304671 0.57634471035397938 0 0.4089290844030305 0.58728915500154233 0 0.42644501560315817 0.54603747078095544 0 0.46666084890304671 0.57634471035397938 0 0.4089290844030305 0.58728915500154233 0 0.37272913873093971 0.56192925302619479 0 0.42644501560315817 0.54603747078095544 0 0.4089290844030305 0.58728915500154233 0 0.35765792684946668 0.6000687869219653 0 0.37272913873093971 0.56192925302619479 0 0.4089290844030305 0.58728915500154233 0 0.39743091024207589 0.6239520004230239 0 0.35765792684946668 0.6000687869219653 0 0.38244435121258652 0.51653317813019495 0 0.42644501560315817 0.54603747078095544 0 0.37272913873093971 0.56192925302619479 0 0.38244435121258652 0.51653317813019495 0 0.43507373378304309 0.49699695397193322 0 0.42644501560315817 0.54603747078095544 0 0.46666084890304671 0.57634471035397938 0 0.47793794143994173 0.52940715638744962 0 0.53245488764484505 0.55078124999999989 0 0.49102375406324739 0.49123754822244059 0 0.47793794143994173 0.52940715638744962 0 0.43507373378304309 0.49699695397193322 0 0.43507373378304309 0.49699695397193322 0 0.47793794143994173 0.52940715638744962 0 0.42644501560315817 0.54603747078095544 0 0.46666084890304671 0.57634471035397938 0 0.42644501560315817 0.54603747078095544 0 0.47793794143994173 0.52940715638744962 0 0.49102375406324739 0.49123754822244059 0 0.53330375813596242 0.50827942741749099 0 0.47793794143994173 0.52940715638744962 0 0.53245488764484505 0.55078124999999989 0 0.47793794143994173 0.52940715638744962 0 0.53330375813596242 0.50827942741749099 0 0.53245488764484505 0.55078124999999989 0 0.53330375813596242 0.50827942741749099 0 0.57435499076887508 0.54267261987897775 0 0.57412547362576272 0.58273804879550706 0 0.53245488764484505 0.55078124999999989 0 0.57435499076887508 0.54267261987897775 0 0.57611405284611883 0.50165903596042916 0 0.57435499076887508 0.54267261987897775 0 0.53330375813596242 0.50827942741749099 0 0.57611405284611883 0.50165903596042916 0 0.62042975506801734 0.54295974692364424 0 0.57435499076887508 0.54267261987897775 0 0.57412547362576272 0.58273804879550706 0 0.57435499076887508 0.54267261987897775 0 0.62042975506801734 0.54295974692364424 0 0.57611405284611883 0.50165903596042916 0 0.61547661924074692 0.48539576058873962 0 0.62042975506801734 0.54295974692364424 0 0.6405463747586706 0.63290524857395714 0 0.5991018319127801 0.62925360607495295 0 0.63065402604362242 0.59661356661633302 0 0.57412547362576272 0.58273804879550706 0 0.63065402604362242 0.59661356661633302 0 0.5991018319127801 0.62925360607495295 0 0.57412547362576272 0.58273804879550706 0 0.62042975506801734 0.54295974692364424 0 0.63065402604362242 0.59661356661633302 0 0.57412547362576272 0.58273804879550706 0 0.5991018319127801 0.62925360607495295 0 0.5498280205245758 0.6290146943450976 0 0.46666084890304671 0.57634471035397938 0 0.53245488764484505 0.55078124999999989 0 0.5166924242153631 0.59825134841919447 0 0.57412547362576272 0.58273804879550706 0 0.5498280205245758 0.6290146943450976 0 0.5166924242153631 0.59825134841919447 0 0.57412547362576272 0.58273804879550706 0 0.5166924242153631 0.59825134841919447 0 0.53245488764484505 0.55078124999999989 0 0.50715858906372158 0.63295939104129484 0 0.5166924242153631 0.59825134841919447 0 0.5498280205245758 0.6290146943450976 0 0.50715858906372158 0.63295939104129484 0 0.52584555706968406 0.66664215091846768 0 0.47913475093885149 0.66010775372412711 0 0.50715858906372158 0.63295939104129484 0 0.5498280205245758 0.6290146943450976 0 0.52584555706968406 0.66664215091846768 0 0.5 0.69999999999999996 0 0.47913475093885149 0.66010775372412711 0 0.52584555706968406 0.66664215091846768 0 0.54999999999999993 0.69999999999999996 0 0.52584555706968406 0.66664215091846768 0 0.57484956128872922 0.66573805030881994 0 0.57484956128872922 0.66573805030881994 0 0.52584555706968406 0.66664215091846768 0 0.5498280205245758 0.6290146943450976 0 0.50945740445113552 0.75476055527778108 0 0.5 0.69999999999999996 0 0.55363780716230748 0.74348740161571747 0 0.5 0.69999999999999996 0 0.52584555706968406 0.66664215091846768 0 0.54999999999999993 0.69999999999999996 0 0.5 0.69999999999999996 0 0.54999999999999993 0.69999999999999996 0 0.5 0.69999999999999996 0 0.54999999999999993 0.69999999999999996 0 0.55363780716230748 0.74348740161571747 0 0.59999999999999976 0.69999999999999996 0 0.59636844454254345 0.75937156204589151 0 0.55363780716230748 0.74348740161571747 0 0.54999999999999993 0.69999999999999996 0 0.59999999999999976 0.69999999999999996 0 0.54999999999999993 0.69999999999999996 0 0.57484956128872922 0.66573805030881994 0 0.59999999999999976 0.69999999999999996 0 0.54999999999999993 0.69999999999999996 0 0.59999999999999976 0.69999999999999996 0 0.55363780716230748 0.74348740161571747 0 0.59999999999999976 0.69999999999999996 0 0.6499999999999998 0.69999999999999996 0 0.59999999999999976 0.69999999999999996 0 0.62460753523532009 0.66851202781000296 0 0.6499999999999998 0.69999999999999996 0 0.59999999999999976 0.69999999999999996 0 0.63221990677827677 0.73442891067859706 0 0.59636844454254345 0.75937156204589151 0 0.57484956128872922 0.66573805030881994 0 0.5498280205245758 0.6290146943450976 0 0.5991018319127801 0.62925360607495295 0 0.59999999999999976 0.69999999999999996 0 0.57484956128872922 0.66573805030881994 0 0.62460753523532009 0.66851202781000296 0 0.57484956128872922 0.66573805030881994 0 0.5991018319127801 0.62925360607495295 0 0.62460753523532009 0.66851202781000296 0 0.6405463747586706 0.63290524857395714 0 0.62460753523532009 0.66851202781000296 0 0.5991018319127801 0.62925360607495295 0 0.6405463747586706 0.63290524857395714 0 0.675261390228442 0.65996937624687813 0 0.62460753523532009 0.66851202781000296 0 0.6499999999999998 0.69999999999999996 0 0.62460753523532009 0.66851202781000296 0 0.675261390228442 0.65996937624687813 0 0.6499999999999998 0.69999999999999996 0 0.675261390228442 0.65996937624687813 0 0.69999999999999984 0.69999999999999996 0 0.6405463747586706 0.63290524857395714 0 0.67529834988829951 0.61613270668143583 0 0.675261390228442 0.65996937624687813 0 0.64753070846764316 0.77332939069435502 0 0.63221990677827677 0.73442891067859706 0 0.66427993341343905 0.73232764502436276 0 0.6499999999999998 0.69999999999999996 0 0.66427993341343905 0.73232764502436276 0 0.63221990677827677 0.73442891067859706 0 0.59999999999999976 0.69999999999999996 0 0.6499999999999998 0.69999999999999996 0 0.63221990677827677 0.73442891067859706 0 0.6499999999999998 0.69999999999999996 0 0.69999999999999984 0.69999999999999996 0 0.6499999999999998 0.69999999999999996 0 0.69999999999999984 0.69999999999999996 0 0.66427993341343905 0.73232764502436276 0 0.69999999999999984 0.69999999999999996 0 0.6916490518212759 0.75387992374886192 0 0.66427993341343905 0.73232764502436276 0 0.69999999999999984 0.69999999999999996 0 0.72501250972655151 0.74067302935308721 0 0.6916490518212759 0.75387992374886192 0 0.69999999999999984 0.69999999999999996 0 0.74999999999999989 0.69999999999999996 0 0.72501250972655151 0.74067302935308721 0 0.69999999999999984 0.69999999999999996 0 0.72500000000000064 0.67022701834392062 0 0.74999999999999989 0.69999999999999996 0 0.69999999999999984 0.69999999999999996 0 0.74999999999999989 0.69999999999999996 0 0.74999999999999989 0.69999999999999996 0 0.75841349681148107 0.75422312624214749 0 0.72501250972655151 0.74067302935308721 0 0.71406021706547751 0.63292083137662503 0 0.72500000000000064 0.67022701834392062 0 0.675261390228442 0.65996937624687813 0 0.71406021706547751 0.63292083137662503 0 0.675261390228442 0.65996937624687813 0 0.67529834988829951 0.61613270668143583 0 0.69999999999999984 0.69999999999999996 0 0.675261390228442 0.65996937624687813 0 0.72500000000000064 0.67022701834392062 0 0.71406021706547751 0.63292083137662503 0 0.74994237037456724 0.62775548192980357 0 0.72500000000000064 0.67022701834392062 0 0.7750489929959945 0.66593931409600093 0 0.72500000000000064 0.67022701834392062 0 0.74994237037456724 0.62775548192980357 0 0.71406021706547751 0.63292083137662503 0 0.71809016091162536 0.58185040402320831 0 0.74994237037456724 0.62775548192980357 0 0.77293540622714185 0.59448302402785813 0 0.74994237037456724 0.62775548192980357 0 0.71809016091162536 0.58185040402320831 0 0.71406021706547751 0.63292083137662503 0 0.67529834988829951 0.61613270668143583 0 0.71809016091162536 0.58185040402320831 0 0.67323294229744413 0.57556450033612505 0 0.67569444444444449 0.53500863336860327 0 0.71809016091162536 0.58185040402320831 0 0.67323294229744413 0.57556450033612505 0 0.71809016091162536 0.58185040402320831 0 0.67529834988829951 0.61613270668143583 0 0.7152569930854884 0.5237994455134295 0 0.77151014687832564 0.54436834383023036 0 0.71809016091162536 0.58185040402320831 0 0.7152569930854884 0.5237994455134295 0 0.73947346780852752 0.49062440112282169 0 0.77151014687832564 0.54436834383023036 0 0.7152569930854884 0.5237994455134295 0 0.67569444444444449 0.53500863336860327 0 0.69385896817107129 0.48377516041410151 0 0.7152569930854884 0.5237994455134295 0 0.71809016091162536 0.58185040402320831 0 0.67569444444444449 0.53500863336860327 0 0.67323294229744413 0.57556450033612505 0 0.62042975506801734 0.54295974692364424 0 0.67569444444444449 0.53500863336860327 0 0.6541250972820879 0.49999999999999989 0 0.69385896817107129 0.48377516041410151 0 0.67569444444444449 0.53500863336860327 0 0.6541250972820879 0.49999999999999989 0 0.67569444444444449 0.53500863336860327 0 0.62042975506801734 0.54295974692364424 0 0.6541250972820879 0.49999999999999989 0 0.62042975506801734 0.54295974692364424 0 0.61547661924074692 0.48539576058873962 0 0.67323294229744413 0.57556450033612505 0 0.63065402604362242 0.59661356661633302 0 0.62042975506801734 0.54295974692364424 0 0.6405463747586706 0.63290524857395714 0 0.63065402604362242 0.59661356661633302 0 0.67529834988829951 0.61613270668143583 0 0.67323294229744413 0.57556450033612505 0 0.67529834988829951 0.61613270668143583 0 0.63065402604362242 0.59661356661633302 0 0.60000000000138687 1 0 0.57382506491224949 0.9629411906298494 0 0.62065498684670595 0.95224934003983619 0 0.65000000000104008 1 0 0.60000000000138687 1 0 0.62065498684670595 0.95224934003983619 0 0.57724883562309992 0.92155686857100794 0 0.62065498684670595 0.95224934003983619 0 0.57382506491224949 0.9629411906298494 0 0.60000000000138687 1 0 0.55000000000173355 1 0 0.57382506491224949 0.9629411906298494 0 0.55000000000173355 1 0 0.50000000000205869 1 0 0.52122150208832174 0.94089974453840242 0 0.57724883562309992 0.92155686857100794 0 0.57382506491224949 0.9629411906298494 0 0.52122150208832174 0.94089974453840242 0 0.55000000000173355 1 0 0.52122150208832174 0.94089974453840242 0 0.57382506491224949 0.9629411906298494 0 0.57724883562309992 0.92155686857100794 0 0.52122150208832174 0.94089974453840242 0 0.54783390826260769 0.89287767010860219 0 0.50202631463681879 0.87892870825713787 0 0.54783390826260769 0.89287767010860219 0 0.52122150208832174 0.94089974453840242 0 0.55899371797446828 0.85003102233514438 0 0.5832743223239254 0.88483152652961872 0 0.54783390826260769 0.89287767010860219 0 0.57724883562309992 0.92155686857100794 0 0.54783390826260769 0.89287767010860219 0 0.5832743223239254 0.88483152652961872 0 0.57724883562309992 0.92155686857100794 0 0.5832743223239254 0.88483152652961872 0 0.61885627562261258 0.90282959257498208 0 0.57724883562309992 0.92155686857100794 0 0.61885627562261258 0.90282959257498208 0 0.62065498684670595 0.95224934003983619 0 0.61343887413683884 0.856862479058357 0 0.61885627562261258 0.90282959257498208 0 0.5832743223239254 0.88483152652961872 0 0.61343887413683884 0.856862479058357 0 0.60294066490120068 0.80851322453934582 0 0.65005442820240822 0.82644988530054031 0 0.61343887413683884 0.856862479058357 0 0.55899371797446828 0.85003102233514438 0 0.60294066490120068 0.80851322453934582 0 0.54782696902220018 0.79245182748204157 0 0.60294066490120068 0.80851322453934582 0 0.55899371797446828 0.85003102233514438 0 0.61343887413683884 0.856862479058357 0 0.5832743223239254 0.88483152652961872 0 0.55899371797446828 0.85003102233514438 0 0.50202631463681879 0.87892870825713787 0 0.55899371797446828 0.85003102233514438 0 0.54783390826260769 0.89287767010860219 0 0.50202631463681879 0.87892870825713787 0 0.50627822638148745 0.8263979829520941 0 0.55899371797446828 0.85003102233514438 0 0.54782696902220018 0.79245182748204157 0 0.55899371797446828 0.85003102233514438 0 0.50627822638148745 0.8263979829520941 0 0.54782696902220018 0.79245182748204157 0 0.50627822638148745 0.8263979829520941 0 0.50731287292894423 0.78963574450233831 0 0.54782696902220018 0.79245182748204157 0 0.50731287292894423 0.78963574450233831 0 0.50945740445113552 0.75476055527778108 0 0.54782696902220018 0.79245182748204157 0 0.50945740445113552 0.75476055527778108 0 0.55363780716230748 0.74348740161571747 0 0.54782696902220018 0.79245182748204157 0 0.55363780716230748 0.74348740161571747 0 0.59636844454254345 0.75937156204589151 0 0.54782696902220018 0.79245182748204157 0 0.59636844454254345 0.75937156204589151 0 0.60294066490120068 0.80851322453934582 0 0.64753070846764316 0.77332939069435502 0 0.60294066490120068 0.80851322453934582 0 0.59636844454254345 0.75937156204589151 0 0.64753070846764316 0.77332939069435502 0 0.59636844454254345 0.75937156204589151 0 0.63221990677827677 0.73442891067859706 0 0.64753070846764316 0.77332939069435502 0 0.65005442820240822 0.82644988530054031 0 0.60294066490120068 0.80851322453934582 0 0.64753070846764316 0.77332939069435502 0 0.68024162096458085 0.79868546898116533 0 0.65005442820240822 0.82644988530054031 0 0.64753070846764316 0.77332939069435502 0 0.6916490518212759 0.75387992374886192 0 0.68024162096458085 0.79868546898116533 0 0.64753070846764316 0.77332939069435502 0 0.66427993341343905 0.73232764502436276 0 0.6916490518212759 0.75387992374886192 0 0.6916490518212759 0.75387992374886192 0 0.72501250972655151 0.74067302935308721 0 0.72500000000000064 0.7952620967744265 0 0.72501250972655151 0.74067302935308721 0 0.75841349681148107 0.75422312624214749 0 0.72500000000000064 0.7952620967744265 0 0.72500000000000064 0.7952620967744265 0 0.68024162096458085 0.79868546898116533 0 0.6916490518212759 0.75387992374886192 0 0.72500000000000064 0.7952620967744265 0 0.68697391633157634 0.84450604838764298 0 0.68024162096458085 0.79868546898116533 0 0.72500000000000064 0.7952620967744265 0 0.72863726579783861 0.85390518901155588 0 0.68697391633157634 0.84450604838764298 0 0.72500000000000064 0.7952620967744265 0 0.76901770135486491 0.84293557325473656 0 0.72863726579783861 0.85390518901155588 0 0.7250000000005199 0.89375000000045834 0 0.68697391633157634 0.84450604838764298 0 0.72863726579783861 0.85390518901155588 0 0.7250000000005199 0.89375000000045834 0 0.66412543161245952 0.88015090885499059 0 0.68697391633157634 0.84450604838764298 0 0.68697391633157634 0.84450604838764298 0 0.66412543161245952 0.88015090885499059 0 0.65005442820240822 0.82644988530054031 0 0.68697391633157634 0.84450604838764298 0 0.65005442820240822 0.82644988530054031 0 0.68024162096458085 0.79868546898116533 0 0.61343887413683884 0.856862479058357 0 0.65005442820240822 0.82644988530054031 0 0.66412543161245952 0.88015090885499059 0 0.61343887413683884 0.856862479058357 0 0.66412543161245952 0.88015090885499059 0 0.61885627562261258 0.90282959257498208 0 0.65507451745379841 0.92229208810758578 0 0.61885627562261258 0.90282959257498208 0 0.66412543161245952 0.88015090885499059 0 0.65507451745379841 0.92229208810758578 0 0.62065498684670595 0.95224934003983619 0 0.61885627562261258 0.90282959257498208 0 0.65507451745379841 0.92229208810758578 0 0.68987011941058407 0.92105047536677087 0 0.68015064798562208 0.95924320340003011 0 0.65507451745379841 0.92229208810758578 0 0.66412543161245952 0.88015090885499059 0 0.68987011941058407 0.92105047536677087 0 0.7250000000005199 0.89375000000045834 0 0.68987011941058407 0.92105047536677087 0 0.66412543161245952 0.88015090885499059 0 0.7250000000005199 0.89375000000045834 0 0.72863726579783861 0.85390518901155588 0 0.76891166905518427 0.88835469571185499 0 0.7250000000005199 0.89375000000045834 0 0.75729602384198635 0.92353652857884294 0 0.7250000000005199 0.94981617647078953 0 0.7250000000005199 0.89375000000045834 0 0.7250000000005199 0.94981617647078953 0 0.68987011941058407 0.92105047536677087 0 0.7250000000005199 0.94981617647078953 0 0.68015064798562208 0.95924320340003011 0 0.68987011941058407 0.92105047536677087 0 0.75000000000034661 1 0 0.7000000000006934 1 0 0.7250000000005199 0.94981617647078953 0 0.75000000000034661 1 0 0.7250000000005199 0.94981617647078953 0 0.770759834363826 0.95919399014344442 0 0.7000000000006934 1 0 0.68015064798562208 0.95924320340003011 0 0.7250000000005199 0.94981617647078953 0 0.7000000000006934 1 0 0.65000000000104008 1 0 0.68015064798562208 0.95924320340003011 0 0.65507451745379841 0.92229208810758578 0 0.68015064798562208 0.95924320340003011 0 0.62065498684670595 0.95224934003983619 0 0.65000000000104008 1 0 0.62065498684670595 0.95224934003983619 0 0.68015064798562208 0.95924320340003011 0 0.84999999999965292 1 0 0.85170973911348691 0.93569607295217616 0 0.89898474358632463 0.95391965591118966 0 0.84999999999965292 1 0 0.81486180804382891 0.96321394949790495 0 0.85170973911348691 0.93569607295217616 0 0.79680861578988083 0.92656778056766709 0 0.85170973911348691 0.93569607295217616 0 0.81486180804382891 0.96321394949790495 0 0.84999999999965292 1 0 0.79999999999999982 1 0 0.81486180804382891 0.96321394949790495 0 0.79999999999999982 1 0 0.770759834363826 0.95919399014344442 0 0.81486180804382891 0.96321394949790495 0 0.79999999999999982 1 0 0.75000000000034661 1 0 0.770759834363826 0.95919399014344442 0 0.7250000000005199 0.94981617647078953 0 0.75729602384198635 0.92353652857884294 0 0.770759834363826 0.95919399014344442 0 0.79680861578988083 0.92656778056766709 0 0.81486180804382891 0.96321394949790495 0 0.770759834363826 0.95919399014344442 0 0.79680861578988083 0.92656778056766709 0 0.75729602384198635 0.92353652857884294 0 0.76891166905518427 0.88835469571185499 0 0.79680861578988083 0.92656778056766709 0 0.770759834363826 0.95919399014344442 0 0.75729602384198635 0.92353652857884294 0 0.7250000000005199 0.89375000000045834 0 0.76891166905518427 0.88835469571185499 0 0.75729602384198635 0.92353652857884294 0 0.79680861578988083 0.92656778056766709 0 0.76891166905518427 0.88835469571185499 0 0.81159157511211755 0.88795995483179491 0 0.85170973911348691 0.93569607295217616 0 0.81159157511211755 0.88795995483179491 0 0.85600844944837662 0.88483418979512773 0 0.79680861578988083 0.92656778056766709 0 0.81159157511211755 0.88795995483179491 0 0.85170973911348691 0.93569607295217616 0 0.90416666666660628 0.9041666666666166 0 0.85170973911348691 0.93569607295217616 0 0.85600844944837662 0.88483418979512773 0 0.82709327591091286 0.84937141670920724 0 0.88088768115933802 0.84674609810493673 0 0.85600844944837662 0.88483418979512773 0 0.82709327591091286 0.84937141670920724 0 0.84725310900444062 0.80779732082917555 0 0.88088768115933802 0.84674609810493673 0 0.82709327591091286 0.84937141670920724 0 0.80041942726660109 0.81543261647703358 0 0.84725310900444062 0.80779732082917555 0 0.82709327591091286 0.84937141670920724 0 0.85600844944837662 0.88483418979512773 0 0.81159157511211755 0.88795995483179491 0 0.76901770135486491 0.84293557325473656 0 0.81159157511211755 0.88795995483179491 0 0.76891166905518427 0.88835469571185499 0 0.82709327591091286 0.84937141670920724 0 0.81159157511211755 0.88795995483179491 0 0.76901770135486491 0.84293557325473656 0 0.76901770135486491 0.84293557325473656 0 0.76891166905518427 0.88835469571185499 0 0.72863726579783861 0.85390518901155588 0 0.76901770135486491 0.84293557325473656 0 0.77094201086366854 0.79647480515688507 0 0.80041942726660109 0.81543261647703358 0 0.82709327591091286 0.84937141670920724 0 0.76901770135486491 0.84293557325473656 0 0.80041942726660109 0.81543261647703358 0 0.80185942888539485 0.77452061303608133 0 0.80041942726660109 0.81543261647703358 0 0.77094201086366854 0.79647480515688507 0 0.72500000000000064 0.7952620967744265 0 0.75841349681148107 0.75422312624214749 0 0.77094201086366854 0.79647480515688507 0 0.72500000000000064 0.7952620967744265 0 0.77094201086366854 0.79647480515688507 0 0.76901770135486491 0.84293557325473656 0 0.80185942888539485 0.77452061303608133 0 0.77094201086366854 0.79647480515688507 0 0.75841349681148107 0.75422312624214749 0 0.80185942888539485 0.77452061303608133 0 0.75841349681148107 0.75422312624214749 0 0.78578450296893509 0.73292684821144505 0 0.80185942888539485 0.77452061303608133 0 0.85491058998424563 0.76004753345552634 0 0.84725310900444062 0.80779732082917555 0 0.80185942888539485 0.77452061303608133 0 0.81864958914779962 0.73589050177899629 0 0.85491058998424563 0.76004753345552634 0 0.80185942888539485 0.77452061303608133 0 0.84725310900444062 0.80779732082917555 0 0.80041942726660109 0.81543261647703358 0 0.90299850604011456 0.79563452813489832 0 0.84725310900444062 0.80779732082917555 0 0.85491058998424563 0.76004753345552634 0 0.90299850604011456 0.79563452813489832 0 0.85491058998424563 0.76004753345552634 0 0.89999166460796554 0.74528934923809909 0 0.90299850604011456 0.79563452813489832 0 0.94399509803918602 0.75600490196082126 0 0.95386563387742829 0.80414874155775029 0 0.90299850604011456 0.79563452813489832 0 0.89999166460796554 0.74528934923809909 0 0.94399509803918602 0.75600490196082126 0 0.94399509803918602 0.75600490196082126 0 0.97435614836745565 0.77499999999987745 0 0.95386563387742829 0.80414874155775029 0 0.94399509803918602 0.75600490196082126 0 0.97166519676947294 0.73337114490064459 0 0.97435614836745565 0.77499999999987745 0 1 0.74999999999993494 0 0.97435614836745565 0.77499999999987745 0 0.97166519676947294 0.73337114490064459 0 1 0.74999999999993494 0 1 0.7999999999998193 0 0.97435614836745565 0.77499999999987745 0 1 0.7999999999998193 0 0.95386563387742829 0.80414874155775029 0 0.97435614836745565 0.77499999999987745 0 1 0.84999999999982645 0 0.95391631417670719 0.89584263333814784 0 0.93677536231884972 0.85000000000000286 0 1 0.84999999999982645 0 0.93677536231884972 0.85000000000000286 0 0.95386563387742829 0.80414874155775029 0 1 0.7999999999998193 0 1 0.84999999999982645 0 0.95386563387742829 0.80414874155775029 0 0.90416666666660628 0.9041666666666166 0 0.88088768115933802 0.84674609810493673 0 0.93677536231884972 0.85000000000000286 0 0.90299850604011456 0.79563452813489832 0 0.95386563387742829 0.80414874155775029 0 0.93677536231884972 0.85000000000000286 0 0.90299850604011456 0.79563452813489832 0 0.93677536231884972 0.85000000000000286 0 0.88088768115933802 0.84674609810493673 0 0.90299850604011456 0.79563452813489832 0 0.88088768115933802 0.84674609810493673 0 0.84725310900444062 0.80779732082917555 0 0.90416666666660628 0.9041666666666166 0 0.85600844944837662 0.88483418979512773 0 0.88088768115933802 0.84674609810493673 0 0.90416666666660628 0.9041666666666166 0 0.89898474358632463 0.95391965591118966 0 0.85170973911348691 0.93569607295217616 0 0.90416666666660628 0.9041666666666166 0 0.95391631417670719 0.89584263333814784 0 0.94399509803919068 0.9439950980391687 0 0.90416666666660628 0.9041666666666166 0 0.94399509803919068 0.9439950980391687 0 0.89898474358632463 0.95391965591118966 0 0.90416666666660628 0.9041666666666166 0 0.93677536231884972 0.85000000000000286 0 0.95391631417670719 0.89584263333814784 0 1 0.84999999999982645 0 1 0.8999999999998336 0 0.95391631417670719 0.89584263333814784 0 1 0.8999999999998336 0 1 0.94999999999997109 0 0.97435614836744289 0.92499999999990257 0 1 0.8999999999998336 0 0.97435614836744289 0.92499999999990257 0 0.95391631417670719 0.89584263333814784 0 0.94399509803919068 0.9439950980391687 0 0.95391631417670719 0.89584263333814784 0 0.97435614836744289 0.92499999999990257 0 0.94399509803919068 0.9439950980391687 0 0.97435614836744289 0.92499999999990257 0 0.97166519676946206 0.96662885509935492 0 1 0.94999999999997109 0 0.97166519676946206 0.96662885509935492 0 0.97435614836744289 0.92499999999990257 0 1 1 0 0.97166519676946206 0.96662885509935492 0 1 0.94999999999997109 0 1 1 0 0.94999999999979179 1 0 0.97166519676946206 0.96662885509935492 0 0.94999999999979179 1 0 0.94399509803919068 0.9439950980391687 0 0.97166519676946206 0.96662885509935492 0 0.94999999999979179 1 0 0.89999999999958358 1 0 0.89898474358632463 0.95391965591118966 0 0.94999999999979179 1 0 0.89898474358632463 0.95391965591118966 0 0.94399509803919068 0.9439950980391687 0 0.89999999999958358 1 0 0.84999999999965292 1 0 0.89898474358632463 0.95391965591118966 0 0.86956835336234861 0.571283299838105 0 0.81723410853263523 0.59419663659258926 0 0.82862096804812391 0.55037090955459045 0 0.83758014339878906 0.63222013025741819 0 0.81723410853263523 0.59419663659258926 0 0.87159648282691515 0.61285406320581504 0 0.83758014339878906 0.63222013025741819 0 0.79884539758237771 0.62875045078114233 0 0.81723410853263523 0.59419663659258926 0 0.86956835336234861 0.571283299838105 0 0.87159648282691515 0.61285406320581504 0 0.81723410853263523 0.59419663659258926 0 0.86956835336234861 0.571283299838105 0 0.82862096804812391 0.55037090955459045 0 0.86907294890112186 0.52008116128001669 0 0.82862096804812391 0.55037090955459045 0 0.81441713509985358 0.51161854125224959 0 0.86907294890112186 0.52008116128001669 0 0.84723782639812573 0.48638347960178252 0 0.86907294890112186 0.52008116128001669 0 0.81441713509985358 0.51161854125224959 0 0.82862096804812391 0.55037090955459045 0 0.77151014687832564 0.54436834383023036 0 0.81441713509985358 0.51161854125224959 0 0.77846603114747959 0.49850927265137401 0 0.81441713509985358 0.51161854125224959 0 0.77151014687832564 0.54436834383023036 0 0.77846603114747959 0.49850927265137401 0 0.77151014687832564 0.54436834383023036 0 0.73947346780852752 0.49062440112282169 0 0.77293540622714185 0.59448302402785813 0 0.71809016091162536 0.58185040402320831 0 0.77151014687832564 0.54436834383023036 0 0.81723410853263523 0.59419663659258926 0 0.77293540622714185 0.59448302402785813 0 0.77151014687832564 0.54436834383023036 0 0.82862096804812391 0.55037090955459045 0 0.81723410853263523 0.59419663659258926 0 0.77151014687832564 0.54436834383023036 0 0.77293540622714185 0.59448302402785813 0 0.81723410853263523 0.59419663659258926 0 0.79884539758237771 0.62875045078114233 0 0.77293540622714185 0.59448302402785813 0 0.79884539758237771 0.62875045078114233 0 0.74994237037456724 0.62775548192980357 0 0.7750489929959945 0.66593931409600093 0 0.74994237037456724 0.62775548192980357 0 0.79884539758237771 0.62875045078114233 0 0.74999999999999989 0.69999999999999996 0 0.72500000000000064 0.67022701834392062 0 0.7750489929959945 0.66593931409600093 0 0.79999999999999982 0.69999999999999996 0 0.7750489929959945 0.66593931409600093 0 0.82457059160610424 0.66831947184359608 0 0.7750489929959945 0.66593931409600093 0 0.79884539758237771 0.62875045078114233 0 0.82457059160610424 0.66831947184359608 0 0.74999999999999989 0.69999999999999996 0 0.78578450296893509 0.73292684821144505 0 0.75841349681148107 0.75422312624214749 0 0.74999999999999989 0.69999999999999996 0 0.79999999999999982 0.69999999999999996 0 0.78578450296893509 0.73292684821144505 0 0.74999999999999989 0.69999999999999996 0 0.7750489929959945 0.66593931409600093 0 0.79999999999999982 0.69999999999999996 0 0.74999999999999989 0.69999999999999996 0 0.79999999999999982 0.69999999999999996 0 0.80185942888539485 0.77452061303608133 0 0.78578450296893509 0.73292684821144505 0 0.81864958914779962 0.73589050177899629 0 0.79999999999999982 0.69999999999999996 0 0.81864958914779962 0.73589050177899629 0 0.78578450296893509 0.73292684821144505 0 0.84999999999999987 0.69999999999999996 0 0.85491058998424563 0.76004753345552634 0 0.81864958914779962 0.73589050177899629 0 0.79999999999999982 0.69999999999999996 0 0.84999999999999987 0.69999999999999996 0 0.79999999999999982 0.69999999999999996 0 0.82457059160610424 0.66831947184359608 0 0.84999999999999987 0.69999999999999996 0 0.79999999999999982 0.69999999999999996 0 0.84999999999999987 0.69999999999999996 0 0.81864958914779962 0.73589050177899629 0 0.84999999999999987 0.69999999999999996 0 0.89999999999999991 0.69999999999999996 0 0.84999999999999987 0.69999999999999996 0 0.89999166460796554 0.74528934923809909 0 0.85491058998424563 0.76004753345552634 0 0.83758014339878906 0.63222013025741819 0 0.82457059160610424 0.66831947184359608 0 0.79884539758237771 0.62875045078114233 0 0.84999999999999987 0.69999999999999996 0 0.82457059160610424 0.66831947184359608 0 0.87712158428786946 0.65709029563313581 0 0.83758014339878906 0.63222013025741819 0 0.87159648282691515 0.61285406320581504 0 0.87712158428786946 0.65709029563313581 0 0.83758014339878906 0.63222013025741819 0 0.87712158428786946 0.65709029563313581 0 0.82457059160610424 0.66831947184359608 0 0.91750694127105259 0.63017627779935648 0 0.92057473616084773 0.66770436535372446 0 0.87712158428786946 0.65709029563313581 0 0.91750694127105259 0.63017627779935648 0 0.87712158428786946 0.65709029563313581 0 0.87159648282691515 0.61285406320581504 0 0.84999999999999987 0.69999999999999996 0 0.87712158428786946 0.65709029563313581 0 0.89999999999999991 0.69999999999999996 0 0.89999999999999991 0.69999999999999996 0 0.87712158428786946 0.65709029563313581 0 0.92057473616084773 0.66770436535372446 0 0.91750694127105259 0.63017627779935648 0 0.9578014258160763 0.65787212321113708 0 0.92057473616084773 0.66770436535372446 0 0.84999999999999987 0.69999999999999996 0 0.89999999999999991 0.69999999999999996 0 0.89999166460796554 0.74528934923809909 0 0.89999999999999991 0.69999999999999996 0 0.94999999999999996 0.69999999999999996 0 0.89999999999999991 0.69999999999999996 0 0.92057473616084773 0.66770436535372446 0 0.94999999999999996 0.69999999999999996 0 0.89999999999999991 0.69999999999999996 0 0.94999999999999996 0.69999999999999996 0 0.89999166460796554 0.74528934923809909 0 0.94999999999999996 0.69999999999999996 0 0.94399509803918602 0.75600490196082126 0 0.89999166460796554 0.74528934923809909 0 0.94999999999999996 0.69999999999999996 0 0.97166519676947294 0.73337114490064459 0 0.94399509803918602 0.75600490196082126 0 0.94999999999999996 0.69999999999999996 0 1 0.69999999999999996 0 1 0.69999999999999996 0 0.97166519676947294 0.73337114490064459 0 0.94999999999999996 0.69999999999999996 0 1 0.69999999999999996 0 1 0.74999999999993494 0 0.97166519676947294 0.73337114490064459 0 0.91750694127105259 0.63017627779935648 0 0.95867599106212187 0.60011091146651041 0 0.9578014258160763 0.65787212321113708 0 0.94999999999999996 0.69999999999999996 0 0.92057473616084773 0.66770436535372446 0 0.9578014258160763 0.65787212321113708 0 1 0.69999999999999996 0 0.94999999999999996 0.69999999999999996 0 0.9578014258160763 0.65787212321113708 0 1 0.69999999999999996 0 0.9578014258160763 0.65787212321113708 0 1 0.64999999999986979 0 1 0.64999999999986979 0 0.9578014258160763 0.65787212321113708 0 0.95867599106212187 0.60011091146651041 0 1 0.54999999999963112 0 0.95867599106212187 0.60011091146651041 0 0.93732437411268477 0.55911392101136159 0 1 0.59999999999973963 0 1 0.64999999999986979 0 0.95867599106212187 0.60011091146651041 0 1 0.54999999999963112 0 1 0.59999999999973963 0 0.95867599106212187 0.60011091146651041 0 0.91750694127105259 0.63017627779935648 0 0.91143117093204207 0.58709913730335972 0 0.95867599106212187 0.60011091146651041 0 0.93732437411268477 0.55911392101136159 0 0.95867599106212187 0.60011091146651041 0 0.91143117093204207 0.58709913730335972 0 0.86956835336234861 0.571283299838105 0 0.90900154012161016 0.53607784105648792 0 0.91143117093204207 0.58709913730335972 0 0.86956835336234861 0.571283299838105 0 0.91143117093204207 0.58709913730335972 0 0.87159648282691515 0.61285406320581504 0 0.91750694127105259 0.63017627779935648 0 0.87159648282691515 0.61285406320581504 0 0.91143117093204207 0.58709913730335972 0 0.91696753777131557 0.497780560203536 0 0.90900154012161016 0.53607784105648792 0 0.86907294890112186 0.52008116128001669 0 0.86956835336234861 0.571283299838105 0 0.86907294890112186 0.52008116128001669 0 0.90900154012161016 0.53607784105648792 0 0.93732437411268477 0.55911392101136159 0 0.90900154012161016 0.53607784105648792 0 0.95631871884947484 0.51827533208233789 0 0.93732437411268477 0.55911392101136159 0 0.91143117093204207 0.58709913730335972 0 0.90900154012161016 0.53607784105648792 0 0.91696753777131557 0.497780560203536 0 0.95631871884947484 0.51827533208233789 0 0.90900154012161016 0.53607784105648792 0 1 0.54999999999963112 0 0.93732437411268477 0.55911392101136159 0 0.95631871884947484 0.51827533208233789 0 1 0.49999999999950101 0 1 0.54999999999963112 0 0.95631871884947484 0.51827533208233789 0 1 0.49999999999950101 0 0.95631871884947484 0.51827533208233789 0 0.96228564064454991 0.48206450662049471 0 1 0.44999999999963131 0 1 0.49999999999950101 0 0.96228564064454991 0.48206450662049471 0 1 0.44999999999963131 0 0.96228564064454991 0.48206450662049471 0 0.93814194660195893 0.44426664081746747 0 0.91696753777131557 0.497780560203536 0 0.93814194660195893 0.44426664081746747 0 0.96228564064454991 0.48206450662049471 0 0.91696753777131557 0.497780560203536 0 0.96228564064454991 0.48206450662049471 0 0.95631871884947484 0.51827533208233789 0 1 0.34999999999993492 0 1 0.39999999999978308 0 0.95871855522754235 0.40006508612975411 0 1 0.39999999999978308 0 1 0.44999999999963131 0 0.95871855522754235 0.40006508612975411 0 1 0.44999999999963131 0 0.93814194660195893 0.44426664081746747 0 0.95871855522754235 0.40006508612975411 0 0.91750694127107502 0.36982372220068471 0 0.95871855522754235 0.40006508612975411 0 0.90594285160987287 0.4141265964174129 0 0.93814194660195893 0.44426664081746747 0 0.90594285160987287 0.4141265964174129 0 0.95871855522754235 0.40006508612975411 0 0.90594285160987287 0.4141265964174129 0 0.88594198078881503 0.46167788676578442 0 0.86411095495256451 0.42388805655111889 0 0.86411095495256451 0.42388805655111889 0 0.86844634540301924 0.38530937474099819 0 0.90594285160987287 0.4141265964174129 0 0.91750694127107502 0.36982372220068471 0 0.90594285160987287 0.4141265964174129 0 0.86844634540301924 0.38530937474099819 0 0.91696753777131557 0.497780560203536 0 0.88594198078881503 0.46167788676578442 0 0.93814194660195893 0.44426664081746747 0 0.93814194660195893 0.44426664081746747 0 0.88594198078881503 0.46167788676578442 0 0.90594285160987287 0.4141265964174129 0 0.91696753777131557 0.497780560203536 0 0.86907294890112186 0.52008116128001669 0 0.88594198078881503 0.46167788676578442 0 0.84723782639812573 0.48638347960178252 0 0.88594198078881503 0.46167788676578442 0 0.86907294890112186 0.52008116128001669 0 0.84723782639812573 0.48638347960178252 0 0.81441713509985358 0.51161854125224959 0 0.81400510706333218 0.47357325943904899 0 0.84723782639812573 0.48638347960178252 0 0.81400510706333218 0.47357325943904899 0 0.84925632466077294 0.45359738909549091 0 0.81973119833356312 0.43505687159469048 0 0.84925632466077294 0.45359738909549091 0 0.81400510706333218 0.47357325943904899 0 0.84723782639812573 0.48638347960178252 0 0.84925632466077294 0.45359738909549091 0 0.88594198078881503 0.46167788676578442 0 0.86411095495256451 0.42388805655111889 0 0.84925632466077294 0.45359738909549091 0 0.81973119833356312 0.43505687159469048 0 0.86411095495256451 0.42388805655111889 0 0.88594198078881503 0.46167788676578442 0 0.84925632466077294 0.45359738909549091 0 0.86411095495256451 0.42388805655111889 0 0.81308179852519835 0.39754945808726527 0 0.86844634540301924 0.38530937474099819 0 0.83573492347052902 0.36590755630746369 0 0.86844634540301924 0.38530937474099819 0 0.81308179852519835 0.39754945808726527 0 0.86411095495256451 0.42388805655111889 0 0.81973119833356312 0.43505687159469048 0 0.81308179852519835 0.39754945808726527 0 0.77354604466818633 0.40378688774472771 0 0.81973119833356312 0.43505687159469048 0 0.77972660463949339 0.45529290596363098 0 0.77354604466818633 0.40378688774472771 0 0.81308179852519835 0.39754945808726527 0 0.81973119833356312 0.43505687159469048 0 0.77354604466818633 0.40378688774472771 0 0.78145581580700685 0.34881365920033602 0 0.81308179852519835 0.39754945808726527 0 0.77354604466818633 0.40378688774472771 0 0.77972660463949339 0.45529290596363098 0 0.73483647259922602 0.44789725365921768 0 0.73483647259922602 0.44789725365921768 0 0.77972660463949339 0.45529290596363098 0 0.73947346780852752 0.49062440112282169 0 0.77846603114747959 0.49850927265137401 0 0.73947346780852752 0.49062440112282169 0 0.77972660463949339 0.45529290596363098 0 0.77846603114747959 0.49850927265137401 0 0.77972660463949339 0.45529290596363098 0 0.81400510706333218 0.47357325943904899 0 0.77846603114747959 0.49850927265137401 0 0.81400510706333218 0.47357325943904899 0 0.81441713509985358 0.51161854125224959 0 0.81973119833356312 0.43505687159469048 0 0.81400510706333218 0.47357325943904899 0 0.77972660463949339 0.45529290596363098 0 0.79999999999999982 0.29999999999999999 0 0.77075983436335049 0.25919399014334171 0 0.81486180804364938 0.26321394949780091 0 0.74999999999999989 0.29999999999999999 0 0.79999999999999982 0.29999999999999999 0 0.74999999999999989 0.29999999999999999 0 0.77075983436335049 0.25919399014334171 0 0.79999999999999982 0.29999999999999999 0 0.74999999999999989 0.29999999999999999 0 0.79999999999999982 0.29999999999999999 0 0.78145581580700685 0.34881365920033602 0 0.74999999999999989 0.29999999999999999 0 0.78145581580700685 0.34881365920033602 0 0.73090396928863699 0.33699297293167962 0 0.77354604466818633 0.40378688774472771 0 0.74764719760526988 0.3719647154012321 0 0.78145581580700685 0.34881365920033602 0 0.78145581580700685 0.34881365920033602 0 0.74764719760526988 0.3719647154012321 0 0.73090396928863699 0.33699297293167962 0 0.83573492347052902 0.36590755630746369 0 0.81308179852519835 0.39754945808726527 0 0.78145581580700685 0.34881365920033602 0 0.79999999999999982 0.29999999999999999 0 0.82500000000000062 0.33010209762754811 0 0.78145581580700685 0.34881365920033602 0 0.83573492347052902 0.36590755630746369 0 0.78145581580700685 0.34881365920033602 0 0.82500000000000062 0.33010209762754811 0 0.83573492347052902 0.36590755630746369 0 0.82500000000000062 0.33010209762754811 0 0.87430060258887643 0.34056085888204451 0 0.83573492347052902 0.36590755630746369 0 0.87430060258887643 0.34056085888204451 0 0.86844634540301924 0.38530937474099819 0 0.84999999999999987 0.29999999999999999 0 0.87430060258887643 0.34056085888204451 0 0.82500000000000062 0.33010209762754811 0 0.84999999999999987 0.29999999999999999 0 0.89999999999999991 0.29999999999999999 0 0.87430060258887643 0.34056085888204451 0 0.84999999999999987 0.29999999999999999 0 0.81486180804364938 0.26321394949780091 0 0.8517097391133297 0.2356960729520409 0 0.84999999999999987 0.29999999999999999 0 0.8517097391133297 0.2356960729520409 0 0.89898474358614167 0.25391965591104898 0 0.84999999999999987 0.29999999999999999 0 0.89999999999999991 0.29999999999999999 0 0.79999999999999982 0.29999999999999999 0 0.84999999999999987 0.29999999999999999 0 0.82500000000000062 0.33010209762754811 0 0.79999999999999982 0.29999999999999999 0 0.81486180804364938 0.26321394949780091 0 0.84999999999999987 0.29999999999999999 0 0.79999999999999982 0.29999999999999999 0 0.84999999999999987 0.29999999999999999 0 0.84999999999999987 0.29999999999999999 0 0.89898474358614167 0.25391965591104898 0 0.89999999999999991 0.29999999999999999 0 0.89999999999999991 0.29999999999999999 0 0.94999999999999996 0.29999999999999999 0 0.89999999999999991 0.29999999999999999 0 0.94999999999999996 0.29999999999999999 0 0.92012390126144183 0.33123581297173937 0 0.89999999999999991 0.29999999999999999 0 0.89898474358614167 0.25391965591104898 0 0.94999999999999996 0.29999999999999999 0 0.94999999999999996 0.29999999999999999 0 0.89898474358614167 0.25391965591104898 0 0.94399509803921056 0.24399509803922639 0 0.91750694127107502 0.36982372220068471 0 0.86844634540301924 0.38530937474099819 0 0.87430060258887643 0.34056085888204451 0 0.91750694127107502 0.36982372220068471 0 0.87430060258887643 0.34056085888204451 0 0.92012390126144183 0.33123581297173937 0 0.89999999999999991 0.29999999999999999 0 0.92012390126144183 0.33123581297173937 0 0.87430060258887643 0.34056085888204451 0 0.91750694127107502 0.36982372220068471 0 0.92012390126144183 0.33123581297173937 0 0.95780851984364423 0.34215720972155339 0 0.91750694127107502 0.36982372220068471 0 0.95780851984364423 0.34215720972155339 0 0.95871855522754235 0.40006508612975411 0 0.94999999999999996 0.29999999999999999 0 0.95780851984364423 0.34215720972155339 0 0.92012390126144183 0.33123581297173937 0 1 0.29999999999999999 0 0.95780851984364423 0.34215720972155339 0 0.94999999999999996 0.29999999999999999 0 1 0.29999999999999999 0 1 0.34999999999993492 0 0.95780851984364423 0.34215720972155339 0 1 0.34999999999993492 0 0.95871855522754235 0.40006508612975411 0 0.95780851984364423 0.34215720972155339 0 0.94999999999999996 0.29999999999999999 0 0.94399509803921056 0.24399509803922639 0 0.97166519676951801 0.26662885509932011 0 0.94999999999999996 0.29999999999999999 0 1 0.29999999999999999 0 1 0.29999999999999999 0 0.94999999999999996 0.29999999999999999 0 0.97166519676951801 0.26662885509932011 0 1 0.29999999999999999 0 0.97166519676951801 0.26662885509932011 0 1 0.24999999999987299 0 1 0.24999999999987299 0 0.97166519676951801 0.26662885509932011 0 0.97435614836740092 0.22499999999981049 0 1 0.19999999999974799 0 1 0.24999999999987299 0 0.97435614836740092 0.22499999999981049 0 0.94399509803921056 0.24399509803922639 0 0.95391631417672862 0.19584263333809451 0 0.97435614836740092 0.22499999999981049 0 0.94399509803921056 0.24399509803922639 0 0.97435614836740092 0.22499999999981049 0 0.97166519676951801 0.26662885509932011 0 1 0.19999999999974799 0 0.97435614836740092 0.22499999999981049 0 0.95391631417672862 0.19584263333809451 0 1 0.14999999999961891 0 0.95391631417672862 0.19584263333809451 0 0.93677536231883773 0.14999999999999089 0 1 0.14999999999961891 0 0.93677536231883773 0.14999999999999089 0 0.95386563387744361 0.1041487415577465 0 1 0.14999999999961891 0 1 0.19999999999974799 0 0.95391631417672862 0.19584263333809451 0 0.90416666666668166 0.20416666666667119 0 0.93677536231883773 0.14999999999999089 0 0.95391631417672862 0.19584263333809451 0 0.90416666666668166 0.20416666666667119 0 0.88088768115941807 0.14674609810479519 0 0.93677536231883773 0.14999999999999089 0 0.90299850604006393 0.09563452813493091 0 0.93677536231883773 0.14999999999999089 0 0.88088768115941807 0.14674609810479519 0 0.90416666666668166 0.20416666666667119 0 0.85600844944842547 0.1848341897950983 0 0.88088768115941807 0.14674609810479519 0 0.90416666666668166 0.20416666666667119 0 0.89898474358614167 0.25391965591104898 0 0.8517097391133297 0.2356960729520409 0 0.90416666666668166 0.20416666666667119 0 0.94399509803921056 0.24399509803922639 0 0.89898474358614167 0.25391965591104898 0 0.90416666666668166 0.20416666666667119 0 0.95391631417672862 0.19584263333809451 0 0.94399509803921056 0.24399509803922639 0 0.94999999999986839 0 0 0.97166519676946894 0.033371144900598393 0 0.94399509803922566 0.056004901960802607 0 1 0 0 0.97166519676946894 0.033371144900598393 0 0.94999999999986839 0 0 1 0 0 1 0.049999999999896842 0 0.97166519676946894 0.033371144900598393 0 1 0.049999999999896842 0 0.97435614836748241 0.074999999999825387 0 0.97166519676946894 0.033371144900598393 0 0.94399509803922566 0.056004901960802607 0 0.97166519676946894 0.033371144900598393 0 0.97435614836748241 0.074999999999825387 0 0.94399509803922566 0.056004901960802607 0 0.97435614836748241 0.074999999999825387 0 0.95386563387744361 0.1041487415577465 0 1 0.099999999999753911 0 0.95386563387744361 0.1041487415577465 0 0.97435614836748241 0.074999999999825387 0 1 0.049999999999896842 0 1 0.099999999999753911 0 0.97435614836748241 0.074999999999825387 0 1 0.099999999999753911 0 1 0.14999999999961891 0 0.95386563387744361 0.1041487415577465 0 0.90299850604006393 0.09563452813493091 0 0.95386563387744361 0.1041487415577465 0 0.93677536231883773 0.14999999999999089 0 0.90299850604006393 0.09563452813493091 0 0.88088768115941807 0.14674609810479519 0 0.84725310900442086 0.10779732082922661 0 0.90299850604006393 0.09563452813493091 0 0.85491058998398861 0.060047533455626502 0 0.899991664607802 0.045289349238254978 0 0.90299850604006393 0.09563452813493091 0 0.94399509803922566 0.056004901960802607 0 0.95386563387744361 0.1041487415577465 0 0.90299850604006393 0.09563452813493091 0 0.899991664607802 0.045289349238254978 0 0.94399509803922566 0.056004901960802607 0 0.94999999999986839 0 0 0.94399509803922566 0.056004901960802607 0 0.899991664607802 0.045289349238254978 0 0.84999999999960507 0 0 0.89999999999973679 0 0 0.899991664607802 0.045289349238254978 0 0.89999999999973679 0 0 0.94999999999986839 0 0 0.899991664607802 0.045289349238254978 0 0.79999999999947335 0 0 0.84999999999960507 0 0 0.81864958914740749 0.035890501779055867 0 0.84999999999960507 0 0 0.899991664607802 0.045289349238254978 0 0.85491058998398861 0.060047533455626502 0 0.80185942888501827 0.074520613036224564 0 0.81864958914740749 0.035890501779055867 0 0.85491058998398861 0.060047533455626502 0 0.84999999999960507 0 0 0.85491058998398861 0.060047533455626502 0 0.81864958914740749 0.035890501779055867 0 0.80185942888501827 0.074520613036224564 0 0.85491058998398861 0.060047533455626502 0 0.84725310900442086 0.10779732082922661 0 0.90299850604006393 0.09563452813493091 0 0.84725310900442086 0.10779732082922661 0 0.85491058998398861 0.060047533455626502 0 0.80185942888501827 0.074520613036224564 0 0.84725310900442086 0.10779732082922661 0 0.80076557130237269 0.1154587552654202 0 0.82709327591102189 0.14937141670914489 0 0.80076557130237269 0.1154587552654202 0 0.84725310900442086 0.10779732082922661 0 0.80185942888501827 0.074520613036224564 0 0.80076557130237269 0.1154587552654202 0 0.76878382444651716 0.097147941686331368 0 0.72525833953073282 0.1032114801687094 0 0.76878382444651716 0.097147941686331368 0 0.77144070960558853 0.14311854477243749 0 0.77144070960558853 0.14311854477243749 0 0.76878382444651716 0.097147941686331368 0 0.80076557130237269 0.1154587552654202 0 0.80185942888501827 0.074520613036224564 0 0.76878382444651716 0.097147941686331368 0 0.7527966693318906 0.053051678021508272 0 0.80185942888501827 0.074520613036224564 0 0.78393852574753176 0.032039079577822822 0 0.81864958914740749 0.035890501779055867 0 0.80185942888501827 0.074520613036224564 0 0.7527966693318906 0.053051678021508272 0 0.78393852574753176 0.032039079577822822 0 0.74999999999934175 0 0 0.78393852574753176 0.032039079577822822 0 0.7527966693318906 0.053051678021508272 0 0.74999999999934175 0 0 0.79999999999947335 0 0 0.78393852574753176 0.032039079577822822 0 0.79999999999947335 0 0 0.81864958914740749 0.035890501779055867 0 0.78393852574753176 0.032039079577822822 0 0.79680861578956375 0.22656778056752541 0 0.81283102246527783 0.1881007222486438 0 0.8517097391133297 0.2356960729520409 0 0.8517097391133297 0.2356960729520409 0 0.81283102246527783 0.1881007222486438 0 0.85600844944842547 0.1848341897950983 0 0.79680861578956375 0.22656778056752541 0 0.8517097391133297 0.2356960729520409 0 0.81486180804364938 0.26321394949780091 0 0.90416666666668166 0.20416666666667119 0 0.8517097391133297 0.2356960729520409 0 0.85600844944842547 0.1848341897950983 0 0.82709327591102189 0.14937141670914489 0 0.88088768115941807 0.14674609810479519 0 0.85600844944842547 0.1848341897950983 0 0.82709327591102189 0.14937141670914489 0 0.84725310900442086 0.10779732082922661 0 0.88088768115941807 0.14674609810479519 0 0.82709327591102189 0.14937141670914489 0 0.85600844944842547 0.1848341897950983 0 0.81283102246527783 0.1881007222486438 0 0.77144070960558853 0.14311854477243749 0 0.81283102246527783 0.1881007222486438 0 0.76587607630038135 0.18880039518954719 0 0.82709327591102189 0.14937141670914489 0 0.81283102246527783 0.1881007222486438 0 0.77144070960558853 0.14311854477243749 0 0.82709327591102189 0.14937141670914489 0 0.77144070960558853 0.14311854477243749 0 0.80076557130237269 0.1154587552654202 0 0.77144070960558853 0.14311854477243749 0 0.76587607630038135 0.18880039518954719 0 0.72634814642510737 0.16106886917518889 0 0.79680861578956375 0.22656778056752541 0 0.75668890529066124 0.2244279804069782 0 0.76587607630038135 0.18880039518954719 0 0.79680861578956375 0.22656778056752541 0 0.76587607630038135 0.18880039518954719 0 0.81283102246527783 0.1881007222486438 0 0.79680861578956375 0.22656778056752541 0 0.81486180804364938 0.26321394949780091 0 0.77075983436335049 0.25919399014334171 0 0.79680861578956375 0.22656778056752541 0 0.77075983436335049 0.25919399014334171 0 0.75668890529066124 0.2244279804069782 0 0.72500000000000064 0.2498161764706 0 0.75668890529066124 0.2244279804069782 0 0.77075983436335049 0.25919399014334171 0 0.72500000000001008 0.19776155966387679 0 0.75668890529066124 0.2244279804069782 0 0.72500000000000064 0.2498161764706 0 0.72500000000001008 0.19776155966387679 0 0.72500000000000064 0.2498161764706 0 0.69397719155551807 0.2245125647000914 0 0.72500000000000064 0.2498161764706 0 0.67933712972090698 0.25920070958121938 0 0.69397719155551807 0.2245125647000914 0 0.72500000000001008 0.19776155966387679 0 0.69397719155551807 0.2245125647000914 0 0.6865991819015953 0.189116534044597 0 0.72500000000001008 0.19776155966387679 0 0.76587607630038135 0.18880039518954719 0 0.75668890529066124 0.2244279804069782 0 0.72500000000001008 0.19776155966387679 0 0.72634814642510737 0.16106886917518889 0 0.76587607630038135 0.18880039518954719 0 0.72525833953073282 0.1032114801687094 0 0.77144070960558853 0.14311854477243749 0 0.72634814642510737 0.16106886917518889 0 0.72525833953073282 0.1032114801687094 0 0.72634814642510737 0.16106886917518889 0 0.68391457121233579 0.14440470121196541 0 0.72500000000001008 0.19776155966387679 0 0.6865991819015953 0.189116534044597 0 0.72634814642510737 0.16106886917518889 0 0.68391457121233579 0.14440470121196541 0 0.72634814642510737 0.16106886917518889 0 0.6865991819015953 0.189116534044597 0 0.68391457121233579 0.14440470121196541 0 0.6865991819015953 0.189116534044597 0 0.64011864159029941 0.18789607982138171 0 0.6236733212988993 0.14864538214901801 0 0.65290632656860115 0.11434202593454081 0 0.68391457121233579 0.14440470121196541 0 0.6236733212988993 0.14864538214901801 0 0.68391457121233579 0.14440470121196541 0 0.64011864159029941 0.18789607982138171 0 0.65394964615507722 0.22666784374016369 0 0.59814117807200873 0.23398510860739519 0 0.64011864159029941 0.18789607982138171 0 0.65394964615507722 0.22666784374016369 0 0.62657463266645097 0.26524202571255862 0 0.59814117807200873 0.23398510860739519 0 0.65394964615507722 0.22666784374016369 0 0.69397719155551807 0.2245125647000914 0 0.67933712972090698 0.25920070958121938 0 0.65394964615507722 0.22666784374016369 0 0.64011864159029941 0.18789607982138171 0 0.6865991819015953 0.189116534044597 0 0.65394964615507722 0.22666784374016369 0 0.6865991819015953 0.189116534044597 0 0.69397719155551807 0.2245125647000914 0 0.69999999999921003 0 0 0.72683645290270404 0.027797073151180601 0 0.7010294155333181 0.056779085686491267 0 0.69999999999921003 0 0 0.7010294155333181 0.056779085686491267 0 0.66369801598854572 0.036327466368102787 0 0.74999999999934175 0 0 0.7527966693318906 0.053051678021508272 0 0.72683645290270404 0.027797073151180601 0 0.69999999999921003 0 0 0.74999999999934175 0 0 0.72683645290270404 0.027797073151180601 0 0.7527966693318906 0.053051678021508272 0 0.7010294155333181 0.056779085686491267 0 0.72683645290270404 0.027797073151180601 0 0.72525833953073282 0.1032114801687094 0 0.68330259535470161 0.10038702501083881 0 0.7010294155333181 0.056779085686491267 0 0.72525833953073282 0.1032114801687094 0 0.7010294155333181 0.056779085686491267 0 0.7527966693318906 0.053051678021508272 0 0.72525833953073282 0.1032114801687094 0 0.7527966693318906 0.053051678021508272 0 0.76878382444651716 0.097147941686331368 0 0.72525833953073282 0.1032114801687094 0 0.68391457121233579 0.14440470121196541 0 0.68330259535470161 0.10038702501083881 0 0.65408113592120842 0.073941773121567966 0 0.68330259535470161 0.10038702501083881 0 0.65290632656860115 0.11434202593454081 0 0.68391457121233579 0.14440470121196541 0 0.65290632656860115 0.11434202593454081 0 0.68330259535470161 0.10038702501083881 0 0.6236733212988993 0.14864538214901801 0 0.61956000905586006 0.1043312481793135 0 0.65290632656860115 0.11434202593454081 0 0.65408113592120842 0.073941773121567966 0 0.65290632656860115 0.11434202593454081 0 0.61956000905586006 0.1043312481793135 0 0.65408113592120842 0.073941773121567966 0 0.61956000905586006 0.1043312481793135 0 0.61940220174112337 0.047251958781050582 0 0.65408113592120842 0.073941773121567966 0 0.7010294155333181 0.056779085686491267 0 0.68330259535470161 0.10038702501083881 0 0.65408113592120842 0.073941773121567966 0 0.66369801598854572 0.036327466368102787 0 0.7010294155333181 0.056779085686491267 0 0.65408113592120842 0.073941773121567966 0 0.61940220174112337 0.047251958781050582 0 0.66369801598854572 0.036327466368102787 0 0.64999999999907843 0 0 0.66369801598854572 0.036327466368102787 0 0.61940220174112337 0.047251958781050582 0 0.64999999999907843 0 0 0.69999999999921003 0 0 0.66369801598854572 0.036327466368102787 0 0.5499999999988151 0 0 0.59999999999894682 0 0 0.57396793757665954 0.037011367187645222 0 0.59999999999894682 0 0 0.64999999999907843 0 0 0.61940220174112337 0.047251958781050582 0 0.59999999999894682 0 0 0.61940220174112337 0.047251958781050582 0 0.57396793757665954 0.037011367187645222 0 0.57667858002728545 0.078486105337742612 0 0.57396793757665954 0.037011367187645222 0 0.61940220174112337 0.047251958781050582 0 0.57667858002728545 0.078486105337742612 0 0.61940220174112337 0.047251958781050582 0 0.61956000905586006 0.1043312481793135 0 0.6236733212988993 0.14864538214901801 0 0.58516465772821369 0.11653801664834119 0 0.61956000905586006 0.1043312481793135 0 0.57667858002728545 0.078486105337742612 0 0.61956000905586006 0.1043312481793135 0 0.58516465772821369 0.11653801664834119 0 0.56202748619534593 0.15054058349222879 0 0.54979595918804436 0.1060565713905809 0 0.58516465772821369 0.11653801664834119 0 0.57667858002728545 0.078486105337742612 0 0.58516465772821369 0.11653801664834119 0 0.54979595918804436 0.1060565713905809 0 0.51076801031701946 0.1202837388510348 0 0.52375890611712683 0.059318771819432882 0 0.54979595918804436 0.1060565713905809 0 0.51076801031701946 0.1202837388510348 0 0.47881186583059909 0.093591717165689425 0 0.52375890611712683 0.059318771819432882 0 0.57667858002728545 0.078486105337742612 0 0.54979595918804436 0.1060565713905809 0 0.52375890611712683 0.059318771819432882 0 0.5499999999988151 0 0 0.57396793757665954 0.037011367187645222 0 0.52375890611712683 0.059318771819432882 0 0.57667858002728545 0.078486105337742612 0 0.52375890611712683 0.059318771819432882 0 0.57396793757665954 0.037011367187645222 0 0.49999999999869432 0 0 0.5499999999988151 0 0 0.52375890611712683 0.059318771819432882 0 0.55306006949600994 0.20198184231352201 0 0.59443395090188023 0.18455690917515069 0 0.59814117807200873 0.23398510860739519 0 0.55306006949600994 0.20198184231352201 0 0.59814117807200873 0.23398510860739519 0 0.54248833945060504 0.2520322959927106 0 0.59814117807200873 0.23398510860739519 0 0.59443395090188023 0.18455690917515069 0 0.64011864159029941 0.18789607982138171 0 0.6236733212988993 0.14864538214901801 0 0.64011864159029941 0.18789607982138171 0 0.59443395090188023 0.18455690917515069 0 0.6236733212988993 0.14864538214901801 0 0.56202748619534593 0.15054058349222879 0 0.58516465772821369 0.11653801664834119 0 0.6236733212988993 0.14864538214901801 0 0.59443395090188023 0.18455690917515069 0 0.56202748619534593 0.15054058349222879 0 0.55306006949600994 0.20198184231352201 0 0.56202748619534593 0.15054058349222879 0 0.59443395090188023 0.18455690917515069 0 0.55306006949600994 0.20198184231352201 0 0.51729576145820033 0.1683240575987815 0 0.56202748619534593 0.15054058349222879 0 0.51076801031701946 0.1202837388510348 0 0.54979595918804436 0.1060565713905809 0 0.56202748619534593 0.15054058349222879 0 0.51076801031701946 0.1202837388510348 0 0.51729576145820033 0.1683240575987815 0 0.48466639505193998 0.1421439844745814 0 0.51076801031701946 0.1202837388510348 0 0.56202748619534593 0.15054058349222879 0 0.51729576145820033 0.1683240575987815 0 0.55306006949600994 0.20198184231352201 0 0.50760557329222289 0.20700468884612061 0 0.51729576145820033 0.1683240575987815 0 0.50760557329222289 0.20700468884612061 0 0.55306006949600994 0.20198184231352201 0 0.54248833945060504 0.2520322959927106 0 0.49695729691142171 0.25014895411178018 0 0.50760557329222289 0.20700468884612061 0 0.54248833945060504 0.2520322959927106 0 0.5 0.29999999999999999 0 0.49695729691142171 0.25014895411178018 0 0.54248833945060504 0.2520322959927106 0 0.5 0.29999999999999999 0 0.54999999999999993 0.29999999999999999 0 0.52752007115234678 0.33170632466418198 0 0.5 0.29999999999999999 0 0.54248833945060504 0.2520322959927106 0 0.54999999999999993 0.29999999999999999 0 0.5 0.29999999999999999 0 0.54999999999999993 0.29999999999999999 0 0.54999999999999993 0.29999999999999999 0 0.54248833945060504 0.2520322959927106 0 0.5794309697024993 0.27124795968204829 0 0.59814117807200873 0.23398510860739519 0 0.5794309697024993 0.27124795968204829 0 0.54248833945060504 0.2520322959927106 0 0.54999999999999993 0.29999999999999999 0 0.59999999999999976 0.29999999999999999 0 0.54999999999999993 0.29999999999999999 0 0.5794309697024993 0.27124795968204829 0 0.59999999999999976 0.29999999999999999 0 0.59999999999999976 0.29999999999999999 0 0.6499999999999998 0.29999999999999999 0 0.59999999999999976 0.29999999999999999 0 0.5794309697024993 0.27124795968204829 0 0.62657463266645097 0.26524202571255862 0 0.59814117807200873 0.23398510860739519 0 0.62657463266645097 0.26524202571255862 0 0.5794309697024993 0.27124795968204829 0 0.6084546825910605 0.37989672713932537 0 0.56836770495988642 0.3523062350852913 0 0.61959173890754571 0.33832250091341232 0 0.59999999999999976 0.29999999999999999 0 0.6499999999999998 0.29999999999999999 0 0.61959173890754571 0.33832250091341232 0 0.59999999999999976 0.29999999999999999 0 0.61959173890754571 0.33832250091341232 0 0.56836770495988642 0.3523062350852913 0 0.54999999999999993 0.29999999999999999 0 0.59999999999999976 0.29999999999999999 0 0.56836770495988642 0.3523062350852913 0 0.56836770495988642 0.3523062350852913 0 0.52289427570932567 0.3932284363388488 0 0.52752007115234678 0.33170632466418198 0 0.54999999999999993 0.29999999999999999 0 0.56836770495988642 0.3523062350852913 0 0.52752007115234678 0.33170632466418198 0 0.5 0.29999999999999999 0 0.52752007115234678 0.33170632466418198 0 0.49077833859261139 0.35229981449445641 0 0.52752007115234678 0.33170632466418198 0 0.52289427570932567 0.3932284363388488 0 0.49077833859261139 0.35229981449445641 0 0.52289427570932567 0.3932284363388488 0 0.56836770495988642 0.3523062350852913 0 0.57744073070774993 0.41535148636609359 0 0.52289427570932567 0.3932284363388488 0 0.57744073070774993 0.41535148636609359 0 0.53823865529665704 0.45873898050322898 0 0.52289427570932567 0.3932284363388488 0 0.53823865529665704 0.45873898050322898 0 0.48858720058566618 0.43964267759203868 0 0.49102375406324739 0.49123754822244059 0 0.53823865529665704 0.45873898050322898 0 0.53330375813596242 0.50827942741749099 0 0.49102375406324739 0.49123754822244059 0 0.48858720058566618 0.43964267759203868 0 0.53823865529665704 0.45873898050322898 0 0.57611405284611883 0.50165903596042916 0 0.53330375813596242 0.50827942741749099 0 0.53823865529665704 0.45873898050322898 0 0.57611405284611883 0.50165903596042916 0 0.57975577671020095 0.46172033326338591 0 0.61547661924074692 0.48539576058873962 0 0.57611405284611883 0.50165903596042916 0 0.53823865529665704 0.45873898050322898 0 0.57975577671020095 0.46172033326338591 0 0.61209567303293111 0.44669033081290321 0 0.57975577671020095 0.46172033326338591 0 0.57744073070774993 0.41535148636609359 0 0.53823865529665704 0.45873898050322898 0 0.57744073070774993 0.41535148636609359 0 0.57975577671020095 0.46172033326338591 0 0.61209567303293111 0.44669033081290321 0 0.61547661924074692 0.48539576058873962 0 0.57975577671020095 0.46172033326338591 0 0.6084546825910605 0.37989672713932537 0 0.57744073070774993 0.41535148636609359 0 0.56836770495988642 0.3523062350852913 0 0.61209567303293111 0.44669033081290321 0 0.57744073070774993 0.41535148636609359 0 0.63912439215427275 0.41063340167983359 0 0.6084546825910605 0.37989672713932537 0 0.63912439215427275 0.41063340167983359 0 0.57744073070774993 0.41535148636609359 0 0.6084546825910605 0.37989672713932537 0 0.65481233915350323 0.35652751921065562 0 0.63912439215427275 0.41063340167983359 0 0.6879972333610942 0.43038561374960838 0 0.65178832218679827 0.45929119821019959 0 0.63912439215427275 0.41063340167983359 0 0.6879972333610942 0.43038561374960838 0 0.63912439215427275 0.41063340167983359 0 0.68128176404677243 0.38629093627004979 0 0.65481233915350323 0.35652751921065562 0 0.68128176404677243 0.38629093627004979 0 0.63912439215427275 0.41063340167983359 0 0.6541250972820879 0.49999999999999989 0 0.61547661924074692 0.48539576058873962 0 0.65178832218679827 0.45929119821019959 0 0.61209567303293111 0.44669033081290321 0 0.65178832218679827 0.45929119821019959 0 0.61547661924074692 0.48539576058873962 0 0.61209567303293111 0.44669033081290321 0 0.63912439215427275 0.41063340167983359 0 0.65178832218679827 0.45929119821019959 0 0.6879972333610942 0.43038561374960838 0 0.69385896817107129 0.48377516041410151 0 0.65178832218679827 0.45929119821019959 0 0.6541250972820879 0.49999999999999989 0 0.65178832218679827 0.45929119821019959 0 0.69385896817107129 0.48377516041410151 0 0.7152569930854884 0.5237994455134295 0 0.69385896817107129 0.48377516041410151 0 0.73947346780852752 0.49062440112282169 0 0.6879972333610942 0.43038561374960838 0 0.73483647259922602 0.44789725365921768 0 0.69385896817107129 0.48377516041410151 0 0.73483647259922602 0.44789725365921768 0 0.73947346780852752 0.49062440112282169 0 0.69385896817107129 0.48377516041410151 0 0.71508799138962864 0.36622814920737751 0 0.72622533758026719 0.40265885511101601 0 0.68128176404677243 0.38629093627004979 0 0.6879972333610942 0.43038561374960838 0 0.72622533758026719 0.40265885511101601 0 0.73483647259922602 0.44789725365921768 0 0.6879972333610942 0.43038561374960838 0 0.68128176404677243 0.38629093627004979 0 0.72622533758026719 0.40265885511101601 0 0.77354604466818633 0.40378688774472771 0 0.73483647259922602 0.44789725365921768 0 0.72622533758026719 0.40265885511101601 0 0.71508799138962864 0.36622814920737751 0 0.74764719760526988 0.3719647154012321 0 0.72622533758026719 0.40265885511101601 0 0.77354604466818633 0.40378688774472771 0 0.72622533758026719 0.40265885511101601 0 0.74764719760526988 0.3719647154012321 0 0.71508799138962864 0.36622814920737751 0 0.73090396928863699 0.33699297293167962 0 0.74764719760526988 0.3719647154012321 0 0.71508799138962864 0.36622814920737751 0 0.68887083591306764 0.33632058575757479 0 0.73090396928863699 0.33699297293167962 0 0.71508799138962864 0.36622814920737751 0 0.68128176404677243 0.38629093627004979 0 0.68887083591306764 0.33632058575757479 0 0.69999999999999984 0.29999999999999999 0 0.73090396928863699 0.33699297293167962 0 0.68887083591306764 0.33632058575757479 0 0.69999999999999984 0.29999999999999999 0 0.72500000000000064 0.2498161764706 0 0.74999999999999989 0.29999999999999999 0 0.69999999999999984 0.29999999999999999 0 0.74999999999999989 0.29999999999999999 0 0.69999999999999984 0.29999999999999999 0 0.74999999999999989 0.29999999999999999 0 0.73090396928863699 0.33699297293167962 0 0.74999999999999989 0.29999999999999999 0 0.72500000000000064 0.2498161764706 0 0.77075983436335049 0.25919399014334171 0 0.69999999999999984 0.29999999999999999 0 0.67933712972090698 0.25920070958121938 0 0.72500000000000064 0.2498161764706 0 0.6499999999999998 0.29999999999999999 0 0.67933712972090698 0.25920070958121938 0 0.69999999999999984 0.29999999999999999 0 0.6499999999999998 0.29999999999999999 0 0.69999999999999984 0.29999999999999999 0 0.68887083591306764 0.33632058575757479 0 0.6499999999999998 0.29999999999999999 0 0.69999999999999984 0.29999999999999999 0 0.6499999999999998 0.29999999999999999 0 0.62657463266645097 0.26524202571255862 0 0.67933712972090698 0.25920070958121938 0 0.65394964615507722 0.22666784374016369 0 0.67933712972090698 0.25920070958121938 0 0.62657463266645097 0.26524202571255862 0 0.59999999999999976 0.29999999999999999 0 0.62657463266645097 0.26524202571255862 0 0.6499999999999998 0.29999999999999999 0 0.6499999999999998 0.29999999999999999 0 0.65481233915350323 0.35652751921065562 0 0.61959173890754571 0.33832250091341232 0 0.6084546825910605 0.37989672713932537 0 0.61959173890754571 0.33832250091341232 0 0.65481233915350323 0.35652751921065562 0 0.65481233915350323 0.35652751921065562 0 0.68887083591306764 0.33632058575757479 0 0.68128176404677243 0.38629093627004979 0 0.6499999999999998 0.29999999999999999 0 0.68887083591306764 0.33632058575757479 0 0.65481233915350323 0.35652751921065562 0 
</DataArray>
</Points>
<Cells>
<DataArray type="UInt32" Name="connectivity" format="ascii">
0 1 2 3 4 5 6 7 8 9 10 11 12 13 14 15 16 17 18 19 20 21 22 23 24 25 26 27 28 29 30 31 32 33 34 35 36 37 38 39 40 41 42 43 44 45 46 47 48 49 50 51 52 53 54 55 56 57 58 59 60 61 62 63 64 65 66 67 68 69 70 71 72 73 74 75 76 77 78 79 80 81 82 83 84 85 86 87 88 89 90 91 92 93 94 95 96 97 98 99 100 101 102 103 104 105 106 107 108 109 110 111 112 113 114 115 116 117 118 119 120 121 122 123 124 125 126 127 128 129 130 131 132 133 134 135 136 137 138 139 140 141 142 143 144 145 146 147 148 149 150 151 152 153 154 155 156 157 158 159 160 161 162 163 164 165 166 167 168 169 170 171 172 173 174 175 176 177 178 179 180 181 182 183 184 185 186 187 188 189 190 191 192 193 194 195 196 197 198 199 200 201 202 203 204 205 206 207 208 209 210 211 212 213 214 215 216 217 218 219 220 221 222 223 224 225 226 227 228 229 230 231 232 233 234 235 236 237 238 239 240 241 242 243 244 245 246 247 248 249 250 251 252 253 254 255 256 257 258 259 260 261 262 263 264 265 266 267 268 269 270 271 272 273 274 275 276 277 278 279 280 281 282 283 284 285 286 287 288 289 290 291 292 293 294 295 296 297 298 299 300 301 302 303 304 305 306 307 308 309 310 311 312 313 314 315 316 317 318 319 320 321 322 323 324 325 326 327 328 329 330 331 332 333 334 335 336 337 338 339 340 341 342 343 344 345 346 347 348 349 350 351 352 353 354 355 356 357 358 359 360 361 362 363 364 365 366 367 368 369 370 371 372 373 374 375 376 377 378 379 380 381 382 383 384 385 386 387 388 389 390 391 392 393 394 395 396 397 398 399 400 401 402 403 404 405 406 407 408 409 410 411 412 413 414 415 416 417 418 419 420 421 422 423 424 425 426 427 428 429 430 431 432 433 434 435 436 437 438 439 440 441 442 443 444 445 446 447 448 449 450 451 452 453 454 455 456 457 458 459 460 461 462 463 464 465 466 467 468 469 470 471 472 473 474 475 476 477 478 479 480 481 482 483 484 485 486 487 488 489 490 491 492 493 494 495 496 497 498 499 500 501 502 503 504 505 506 507 508 509 510 511 512 513 514 515 516 517 518 519 520 521 522 523 524 525 526 527 528 529 530 531 532 533 534 535 536 537 538 539 540 541 542 543 544 545 546 547 548 549 550 551 552 553 554 555 556 557 558 559 560 561 562 563 564 565 566 567 568 569 570 571 572 573 574 575 576 577 578 579 580 581 582 583 584 585 586 587 588 589 590 591 592 593 594 595 596 597 598 599 600 601 602 603 604 605 606 607 608 609 610 611 612 613 614 615 616 617 618 619 620 621 622 623 624 625 626 627 628 629 630 631 632 633 634 635 636 637 638 639 640 641 642 643 644 645 646 647 648 649 650 651 652 653 654 655 656 657 658 659 660 661 662 663 664 665 666 667 668 669 670 671 672 673 674 675 676 677 678 679 680 681 682 683 684 685 686 687 688 689 690 691 692 693 694 695 696 697 698 699 700 701 702 703 704 705 706 707 708 709 710 711 712 713 714 715 716 717 718 719 720 721 722 723 724 725 726 727 728 729 730 731 732 733 734 735 736 737 738 739 740 741 742 743 744 745 746 747 748 749 750 751 752 753 754 755 756 757 758 759 760 761 762 763 764 765 766 767 768 769 770 771 772 773 774 775 776 777 778 779 780 781 782 783 784 785 786 787 788 789 790 791 792 793 794 795 796 797 798 799 800 801 802 803 804 805 806 807 808 809 810 811 812 813 814 815 816 817 818 819 820 821 822 823 824 825 826 827 828 829 830 831 832 833 834 835 836 837 838 839 840 841 842 843 844 845 846 847 848 849 850 851 852 853 854 855 856 857 858 859 860 861 862 863 864 865 866 867 868 869 870 871 872 873 874 875 876 877 878 879 880 881 882 883 884 885 886 887 888 889 890 891 892 893 894 895 896 897 898 899 900 901 902 903 904 905 906 907 908 909 910 911 912 913 914 915 916 917 918 919 920 921 922 923 924 925 926 927 928 929 930 931 932 933 934 935 936 937 938 939 940 941 942 943 944 945 946 947 948 949 950 951 952 953 954 955 956 957 958 959 960 961 962 963 964 965 966 967 968 969 970 971 972 973 974 975 976 977 978 979 980 981 982 983 984 985 986 987 988 989 990 991 992 993 994 995 996 997 998 999 1000 1001 1002 1003 1004 1005 1006 1007 1008 1009 1010 1011 1012 1013 1014 1015 1016 1017 1018 1019 1020 1021 1022 1023 1024 1025 1026 1027 1028 1029 1030 1031 1032 1033 1034 1035 1036 1037 1038 1039 1040 1041 1042 1043 1044 1045 1046 1047 1048 1049 1050 1051 1052 1053 1054 1055 1056 1057 1058 1059 1060 1061 1062 1063 1064 1065 1066 1067 1068 1069 1070 1071 1072 1073 1074 1075 1076 1077 1078 1079 1080 1081 1082 1083 1084 1085 1086 1087 1088 1089 1090 1091 1092 1093 1094 1095 1096 1097 1098 1099 1100 1101 1102 1103 1104 1105 1106 1107 1108 1109 1110 1111 1112 1113 1114 1115 1116 1117 1118 1119 1120 1121 1122 1123 1124 1125 1126 1127 1128 1129 1130 1131 1132 1133 1134 1135 1136 1137 1138 1139 1140 1141 1142 1143 1144 1145 1146 1147 1148 1149 1150 1151 1152 1153 1154 1155 1156 1157 1158 1159 1160 1161 1162 1163 1164 1165 1166 1167 1168 1169 1170 1171 1172 1173 1174 1175 1176 1177 1178 1179 1180 1181 1182 1183 1184 1185 1186 1187 1188 1189 1190 1191 1192 1193 1194 1195 1196 1197 1198 1199 1200 1201 1202 1203 1204 1205 1206 1207 1208 1209 1210 1211 1212 1213 1214 1215 1216 1217 1218 1219 1220 1221 1222 1223 1224 1225 1226 1227 1228 1229 1230 1231 1232 1233 1234 1235 1236 1237 1238 1239 1240 1241 1242 1243 1244 1245 1246 1247 1248 1249 1250 1251 1252 1253 1254 1255 1256 1257 1258 1259 1260 1261 1262 1263 1264 1265 1266 1267 1268 1269 1270 1271 1272 1273 1274 1275 1276 1277 1278 1279 1280 1281 1282 1283 1284 1285 1286 1287 1288 1289 1290 1291 1292 1293 1294 1295 1296 1297 1298 1299 1300 1301 1302 1303 1304 1305 1306 1307 1308 1309 1310 1311 1312 1313 1314 1315 1316 1317 1318 1319 1320 1321 1322 1323 1324 1325 1326 1327 1328 1329 1330 1331 1332 1333 1334 1335 1336 1337 1338 1339 1340 1341 1342 1343 1344 1345 1346 1347 1348 1349 1350 1351 1352 1353 1354 1355 1356 1357 1358 1359 1360 1361 1362 1363 1364 1365 1366 1367 1368 1369 1370 1371 1372 1373 1374 1375 1376 1377 1378 1379 1380 1381 1382 1383 1384 1385 1386 1387 1388 1389 1390 1391 1392 1393 1394 1395 1396 1397 1398 1399 1400 1401 1402 1403 1404 1405 1406 1407 1408 1409 1410 1411 1412 1413 1414 1415 1416 1417 1418 1419 1420 1421 1422 1423 1424 1425 1426 1427 1428 1429 1430 1431 1432 1433 1434 1435 1436 1437 1438 1439 1440 1441 1442 1443 1444 1445 1446 1447 1448 1449 1450 1451 1452 1453 1454 1455 1456 1457 1458 1459 1460 1461 1462 1463 1464 1465 1466 1467 1468 1469 1470 1471 1472 1473 1474 1475 1476 1477 1478 1479 1480 1481 1482 1483 1484 1485 1486 1487 1488 1489 1490 1491 1492 1493 1494 1495 1496 1497 1498 1499 1500 1501 1502 1503 1504 1505 1506 1507 1508 1509 1510 1511 1512 1513 1514 1515 1516 1517 1518 1519 1520 1521 1522 1523 1524 1525 1526 1527 1528 1529 1530 1531 1532 1533 1534 1535 1536 1537 1538 1539 1540 1541 1542 1543 1544 1545 1546 1547 1548 1549 1550 1551 1552 1553 1554 1555 1556 1557 1558 1559 1560 1561 1562 1563 1564 1565 1566 1567 1568 1569 1570 1571 1572 1573 1574 1575 1576 1577 1578 1579 1580 1581 1582 1583 1584 1585 1586 1587 1588 1589 1590 1591 1592 1593 1594 1595 1596 1597 1598 1599 1600 1601 1602 1603 1604 1605 1606 1607 1608 1609 1610 1611 1612 1613 1614 1615 1616 1617 1618 1619 1620 1621 1622 1623 1624 1625 1626 1627 1628 1629 1630 1631 1632 1633 1634 1635 1636 1637 1638 1639 1640 1641 1642 1643 1644 1645 1646 1647 1648 1649 1650 1651 1652 1653 1654 1655 1656 1657 1658 1659 1660 1661 1662 1663 1664 1665 1666 1667 1668 1669 1670 1671 1672 1673 1674 1675 1676 1677 1678 1679 1680 1681 1682 1683 1684 1685 1686 1687 1688 1689 1690 1691 1692 1693 1694 1695 1696 1697 1698 1699 1700 1701 1702 1703 1704 1705 1706 1707 1708 1709 1710 1711 1712 1713 1714 1715 1716 1717 1718 1719 1720 1721 1722 1723 1724 1725 1726 1727 1728 1729 1730 1731 1732 1733 1734 1735 1736 1737 1738 1739 1740 1741 1742 1743 1744 1745 1746 1747 1748 1749 1750 1751 1752 1753 1754 1755 1756 1757 1758 1759 1760 1761 1762 1763 1764 1765 1766 1767 1768 1769 1770 1771 1772 1773 1774 1775 1776 1777 1778 1779 1780 1781 1782 1783 1784 1785 1786 1787 1788 1789 1790 1791 1792 1793 1794 1795 1796 1797 1798 1799 1800 1801 1802 1803 1804 1805 1806 1807 1808 1809 1810 1811 1812 1813 1814 1815 1816 1817 1818 1819 1820 1821 1822 1823 1824 1825 1826 1827 1828 1829 1830 1831 1832 1833 1834 1835 1836 1837 1838 1839 1840 1841 1842 1843 1844 1845 1846 1847 1848 1849 1850 1851 1852 1853 1854 1855 1856 1857 1858 1859 1860 1861 1862 1863 1864 1865 1866 1867 1868 1869 1870 1871 1872 1873 1874 1875 1876 1877 1878 1879 1880 1881 1882 1883 1884 1885 1886 1887 1888 1889 1890 1891 1892 1893 1894 1895 1896 1897 1898 1899 1900 1901 1902 1903 1904 1905 1906 1907 1908 1909 1910 1911 1912 1913 1914 1915 1916 1917 1918 1919 1920 1921 1922 1923 1924 1925 1926 1927 1928 1929 1930 1931 1932 1933 1934 1935 1936 1937 1938 1939 1940 1941 1942 1943 1944 1945 1946 1947 1948 1949 1950 1951 1952 1953 1954 1955 1956 1957 1958 1959 1960 1961 1962 1963 1964 1965 1966 1967 1968 1969 1970 1971 1972 1973 1974 1975 1976 1977 1978 1979 1980 1981 1982 1983 1984 1985 1986 1987 1988 1989 1990 1991 1992 1993 1994 1995 1996 1997 1998 1999 2000 2001 2002 2003 2004 2005 2006 2007 2008 2009 2010 2011 2012 2013 2014 2015 2016 2017 2018 2019 2020 2021 2022 2023 2024 2025 2026 2027 2028 2029 2030 2031 2032 2033 2034 2035 2036 2037 2038 2039 2040 2041 2042 2043 2044 2045 2046 2047 2048 2049 2050 2051 2052 2053 2054 2055 2056 2057 2058 2059 2060 2061 2062 2063 2064 2065 2066 2067 2068 2069 2070 2071 2072 2073 2074 2075 2076 2077 2078 2079 2080 2081 2082 2083 2084 2085 2086 2087 2088 2089 2090 2091 2092 2093 2094 2095 2096 2097 2098 2099 2100 2101 2102 2103 2104 2105 2106 2107 2108 2109 2110 2111 2112 2113 2114 2115 2116 2117 2118 2119 2120 2121 2122 2123 2124 2125 2126 2127 2128 2129 2130 2131 2132 2133 2134 2135 2136 2137 2138 2139 2140 2141 2142 2143 2144 2145 2146 2147 2148 2149 2150 2151 2152 2153 2154 2155 2156 2157 2158 2159 2160 2161 2162 2163 2164 2165 2166 2167 2168 2169 2170 2171 2172 2173 2174 2175 2176 2177 2178 2179 2180 2181 2182 2183 2184 2185 2186 2187 2188 2189 2190 2191 2192 2193 2194 2195 2196 2197 2198 2199 2200 2201 2202 2203 2204 2205 2206 2207 2208 2209 2210 2211 2212 2213 2214 2215 2216 2217 2218 2219 2220 2221 2222 2223 2224 2225 2226 2227 2228 2229 2230 2231 2232 2233 2234 2235 2236 2237 2238 2239 2240 2241 2242 2243 2244 2245 2246 2247 2248 2249 2250 2251 2252 2253 2254 2255 2256 2257 2258 2259 2260 2261 2262 2263 2264 2265 2266 2267 2268 2269 2270 2271 2272 2273 2274 2275 2276 2277 2278 2279 2280 2281 2282 2283 2284 2285 2286 2287 2288 2289 2290 2291 2292 2293 2294 2295 2296 2297 2298 2299 2300 2301 2302 2303 2304 2305 2306 2307 2308 2309 2310 2311 2312 2313 2314 2315 2316 2317 2318 2319 2320 2321 2322 2323 2324 2325 2326 2327 2328 2329 2330 2331 2332 2333 2334 2335 2336 2337 2338 2339 2340 2341 2342 2343 2344 2345 2346 2347 2348 2349 2350 2351 2352 2353 2354 2355 2356 2357 2358 2359 2360 2361 2362 2363 2364 2365 2366 2367 2368 2369 2370 2371 2372 2373 2374 2375 2376 2377 2378 2379 2380 2381 2382 2383 2384 2385 2386 2387 2388 2389 2390 2391 2392 2393 2394 2395 2396 2397 2398 2399 2400 2401 2402 2403 2404 2405 2406 2407 2408 2409 2410 2411 2412 2413 2414 2415 2416 2417 2418 2419 2420 2421 2422 2423 2424 2425 2426 2427 2428 2429 2430 2431 2432 2433 2434 2435 2436 2437 2438 2439 2440 2441 2442 2443 2444 2445 2446 2447 2448 2449 2450 2451 2452 2453 2454 2455 2456 2457 2458 2459 2460 2461 2462 2463 2464 2465 2466 2467 2468 2469 2470 2471 2472 2473 2474 2475 2476 2477 2478 2479 2480 2481 2482 2483 2484 2485 2486 2487 2488 2489 2490 2491 2492 2493 2494 2495 2496 2497 2498 2499 2500 2501 2502 2503 2504 2505 2506 2507 2508 2509 2510 2511 2512 2513 2514 2515 2516 2517 2518 2519 2520 2521 2522 2523 2524 2525 2526 2527 2528 2529 2530 2531 2532 2533 2534 2535 2536 2537 2538 2539 2540 2541 2542 2543 2544 2545 2546 2547 2548 2549 2550 2551 2552 2553 2554 2555 2556 2557 2558 2559 2560 2561 2562 2563 2564 2565 2566 2567 2568 2569 2570 2571 2572 2573 2574 2575 2576 2577 2578 2579 2580 2581 2582 2583 2584 2585 2586 2587 2588 2589 2590 2591 2592 2593 2594 2595 2596 2597 2598 2599 2600 2601 2602 2603 2604 2605 2606 2607 2608 2609 2610 2611 2612 2613 2614 2615 2616 2617 2618 2619 2620 2621 2622 2623 2624 2625 2626 2627 2628 2629 2630 2631 2632 2633 2634 2635 2636 2637 2638 2639 2640 2641 2642 2643 2644 2645 2646 2647 2648 2649 2650 2651 2652 2653 2654 2655 2656 2657 2658 2659 2660 2661 2662 2663 2664 2665 2666 2667 2668 2669 2670 2671 2672 2673 2674 2675 2676 2677 2678 2679 2680 2681 2682 2683 2684 2685 2686 2687 2688 2689 2690 2691 2692 2693 2694 2695 2696 2697 2698 2699 2700 2701 2702 2703 2704 2705 2706 2707 2708 2709 2710 2711 2712 2713 2714 2715 2716 2717 2718 2719 2720 2721 2722 2723 2724 2725 2726 2727 2728 2729 2730 2731 2732 2733 2734 2735 2736 2737 2738 2739 2740 2741 2742 2743 2744 2745 2746 2747 2748 2749 2750 2751 2752 2753 2754 2755 2756 2757 2758 2759 2760 2761 2762 2763 2764 2765 2766 2767 2768 2769 2770 2771 2772 2773 2774 2775 2776 2777 2778 2779 2780 2781 2782 2783 2784 2785 2786 2787 2788 2789 2790 2791 2792 2793 2794 2795 2796 2797 2798 2799 2800 2801 2802 2803 2804 2805 2806 2807 2808 2809 2810 2811 2812 2813 2814 2815 2816 2817 2818 2819 2820 2821 2822 2823 2824 2825 2826 2827 2828 2829 2830 2831 2832 2833 2834 2835 2836 2837 2838 2839 2840 2841 2842 2843 2844 2845 2846 2847 2848 2849 2850 2851 2852 2853 2854 2855 2856 2857 2858 2859 2860 2861 2862 2863 2864 2865 2866 2867 2868 2869 2870 2871 2872 2873 2874 2875 2876 2877 2878 2879 2880 2881 2882 2883 2884 2885 2886 2887 2888 2889 2890 2891 2892 2893 2894 2895 2896 2897 2898 2899 2900 2901 2902 2903 2904 2905 2906 2907 2908 2909 2910 2911 2912 2913 2914 2915 2916 2917 2918 2919 2920 2921 2922 2923 2924 2925 2926 2927 2928 2929 2930 2931 2932 2933 2934 2935 2936 2937 2938 2939 2940 2941 2942 2943 2944 2945 2946 2947 2948 2949 2950 2951 2952 2953 2954 2955 2956 2957 2958 2959 2960 2961 2962 2963 2964 2965 2966 2967 2968 2969 2970 2971 2972 2973 2974 2975 2976 2977 2978 2979 2980 2981 2982 2983 2984 2985 2986 2987 2988 2989 2990 2991 2992 2993 2994 2995 2996 2997 2998 2999 3000 3001 3002 3003 3004 3005 3006 3007 3008 3009 3010 3011 3012 3013 3014 3015 3016 3017 3018 3019 3020 3021 3022 3023 3024 3025 3026 3027 3028 3029 3030 3031 3032 3033 3034 3035 3036 3037 3038 3039 3040 3041 3042 3043 3044 3045 3046 3047 3048 3049 3050 3051 3052 3053 3054 3055 3056 3057 3058 3059 3060 3061 3062 3063 3064 3065 3066 3067 3068 3069 3070 3071 3072 3073 3074 3075 3076 3077 3078 3079 3080 3081 3082 3083 3084 3085 3086 3087 3088 3089 3090 3091 3092 3093 3094 3095 3096 3097 3098 3099 3100 3101 3102 3103 3104 3105 3106 3107 3108 3109 3110 3111 3112 3113 3114 3115 3116 3117 3118 3119 3120 3121 3122 3123 3124 3125 3126 3127 3128 3129 3130 3131 3132 3133 3134 3135 3136 3137 3138 3139 3140 3141 
</DataArray>
<DataArray type="UInt32" Name="offsets" format="ascii">
3 6 9 12 15 18 21 24 27 30 33 36 39 42 45 48 51 54 57 60 63 66 69 72 75 78 81 84 87 90 93 96 99 102 105 108 111 114 117 120 123 126 129 132 135 138 141 144 147 150 153 156 159 162 165 168 171 174 177 180 183 186 189 192 195 198 201 204 207 210 213 216 219 222 225 228 231 234 237 240 243 246 249 252 255 258 261 264 267 270 273 276 279 282 285 288 291 294 297 300 303 306 309 312 315 318 321 324 327 330 333 336 339 342 345 348 351 354 357 360 363 366 369 372 375 378 381 384 387 390 393 396 399 402 405 408 411 414 417 420 423 426 429 432 435 438 441 444 447 450 453 456 459 462 465 468 471 474 477 480 483 486 489 492 495 498 501 504 507 510 513 516 519 522 525 528 531 534 537 540 543 546 549 552 555 558 561 564 567 570 573 576 579 582 585 588 591 594 597 600 603 606 609 612 615 618 621 624 627 630 633 636 639 642 645 648 651 654 657 660 663 666 669 672 675 678 681 684 687 690 693 696 699 702 705 708 711 714 717 720 723 726 729 732 735 738 741 744 747 750 753 756 759 762 765 768 771 774 777 780 783 786 789 792 795 798 801 804 807 810 813 816 819 822 825 828 831 834 837 840 843 846 849 852 855 858 861 864 867 870 873 876 879 882 885 888 891 894 897 900 903 906 909 912 915 918 921 924 927 930 933 936 939 942 945 948 951 954 957 960 963 966 969 972 975 978 981 984 987 990 993 996 999 1002 1005 1008 1011 1014 1017 1020 1023 1026 1029 1032 1035 1038 1041 1044 1047 1050 1053 1056 1059 1062 1065 1068 1071 1074 1077 1080 1083 1086 1089 1092 1095 1098 1101 1104 1107 1110 1113 1116 1119 1122 1125 1128 1131 1134 1137 1140 1143 1146 1149 1152 1155 1158 1161 1164 1167 1170 1173 1176 1179 1182 1185 1188 1191 1194 1197 1200 1203 1206 1209 1212 1215 1218 1221 1224 1227 1230 1233 1236 1239 1242 1245 1248 1251 1254 1257 1260 1263 1266 1269 1272 1275 1278 1281 1284 1287 1290 1293 1296 1299 1302 1305 1308 1311 1314 1317 1320 1323 1326 1329 1332 1335 1338 1341 1344 1347 1350 1353 1356 1359 1362 1365 1368 1371 1374 1377 1380 1383 1386 1389 1392 1395 1398 1401 1404 1407 1410 1413 1416 1419 1422 1425 1428 1431 1434 1437 1440 1443 1446 1449 1452 1455 1458 1461 1464 1467 1470 1473 1476 1479 1482 1485 1488 1491 1494 1497 1500 1503 1506 1509 1512 1515 1518 1521 1524 1527 1530 1533 1536 1539 1542 1545 1548 1551 1554 1557 1560 1563 1566 1569 1572 1575 1578 1581 1584 1587 1590 1593 1596 1599 1602 1605 1608 1611 1614 1616 1619 1622 1624 1627 1630 1632 1635 1638 1641 1644 1647 1650 1653 1656 1659 1662 1665 1668 1671 1673 1676 1679 1682 1685 1688 1690 1693 1696 1699 1702 1705 1708 1711 1714 1717 1720 1723 1726 1729 1732 1735 1738 1741 1744 1747 1750 1753 1756 1759 1762 1765 1768 1771 1774 1777 1780 1783 1786 1789 1792 1795 1798 1801 1804 1807 1810 1813 1816 1819 1822 1825 1828 1831 1834 1837 1840 1843 1846 1849 1852 1855 1858 1861 1864 1867 1870 1873 1876 1879 1882 1885 1888 1891 1894 1897 1900 1903 1906 1909 1912 1915 1918 1921 1924 1927 1930 1933 1936 1939 1942 1945 1948 1951 1954 1957 1960 1963 1966 1969 1972 1975 1978 1981 1984 1987 1990 1993 1996 1999 2002 2005 2008 2011 2014 2017 2020 2023 2026 2029 2032 2035 2038 2041 2044 2047 2050 2053 2056 2059 2062 2065 2068 2071 2074 2077 2080 2083 2086 2089 2092 2095 2098 2101 2104 2107 2110 2113 2116 2119 2122 2125 2128 2131 2134 2137 2140 2143 2146 2149 2152 2155 2158 2161 2164 2167 2170 2173 2176 2179 2182 2185 2188 2191 2194 2196 2199 2202 2205 2207 2210 2213 2215 2218 2221 2224 2227 2230 2233 2236 2239 2242 2245 2248 2250 2253 2256 2259 2262 2264 2267 2270 2273 2276 2279 2282 2285 2288 2291 2294 2297 2300 2303 2306 2309 2312 2315 2318 2321 2324 2327 2330 2333 2336 2339 2342 2345 2348 2351 2354 2357 2360 2363 2366 2369 2372 2375 2378 2381 2384 2387 2390 2393 2396 2399 2402 2405 2408 2411 2414 2417 2420 2423 2426 2429 2432 2435 2438 2440 2443 2446 2449 2452 2455 2458 2461 2464 2467 2470 2473 2476 2479 2482 2484 2487 2490 2492 2495 2497 2500 2503 2506 2509 2512 2515 2518 2521 2524 2527 2530 2533 2536 2538 2541 2544 2547 2550 2553 2556 2559 2562 2565 2568 2571 2574 2577 2580 2583 2586 2589 2592 2595 2598 2601 2604 2607 2610 2613 2616 2619 2622 2625 2628 2631 2634 2637 2640 2643 2646 2649 2652 2655 2658 2661 2664 2667 2670 2673 2676 2679 2682 2685 2688 2691 2694 2697 2700 2703 2706 2709 2712 2715 2718 2721 2724 2727 2730 2733 2736 2739 2742 2745 2748 2751 2754 2757 2760 2763 2766 2769 2772 2775 2778 2781 2784 2787 2790 2793 2796 2799 2802 2805 2808 2811 2814 2817 2820 2823 2826 2829 2832 2835 2838 2841 2844 2847 2850 2853 2856 2859 2862 2865 2868 2871 2874 2877 2880 2883 2886 2889 2892 2895 2898 2901 2904 2907 2910 2913 2916 2919 2922 2925 2928 2931 2934 2937 2940 2943 2946 2948 2951 2954 2956 2959 2961 2964 2967 2970 2973 2976 2979 2982 2985 2988 2991 2994 2997 3000 3003 3006 3009 3012 3015 3018 3021 3024 3027 3030 3033 3036 3039 3042 3045 3048 3051 3054 3057 3060 3063 3066 3069 3072 3075 3078 3081 3084 3087 3090 3093 3096 3099 3102 3104 3107 3110 3113 3116 3119 3121 3124 3127 3130 3133 3136 3139 3142 
</DataArray>
<DataArray type="UInt32" Name="types" format="ascii">
5 5 5 5 5 5 5 5 5 5 5 5 5 5 5 5 5 5 5 5 5 5 5 5 5 5 5 5 5 5 5 5 5 5 5 5 5 5 5 5 5 5 5 5 5 5 5 5 5 5 5 5 5 5 5 5 5 5 5 5 5 5 5 5 5 5 5 5 5 5 5 5 5 5 5 5 5 5 5 5 5 5 5 5 5 5 5 5 5 5 5 5 5 5 5 5 5 5 5 5 5 5 5 5 5 5 5 5 5 5 5 5 5 5 5 5 5 5 5 5 5 5 5 5 5 5 5 5 5 5 5 5 5 5 5 5 5 5 5 5 5 5 5 5 5 5 5 5 5 5 5 5 5 5 5 5 5 5 5 5 5 5 5 5 5 5 5 5 5 5 5 5 5 5 5 5 5 5 5 5 5 5 5 5 5 5 5 5 5 5 5 5 5 5 5 5 5 5 5 5 5 5 5 5 5 5 5 5 5 5 5 5 5 5 5 5 5 5 5 5 5 5 5 5 5 5 5 5 5 5 5 5 5 5 5 5 5 5 5 5 5 5 5 5 5 5 5 5 5 5 5 5 5 5 5 5 5 5 5 5 5 5 5 5 5 5 5 5 5 5 5 5 5 5 5 5 5 5 5 5 5 5 5 5 5 5 5 5 5 5 5 5 5 5 5 5 5 5 5 5 5 5 5 5 5 5 5 5 5 5 5 5 5 5 5 5 5 5 5 5 5 5 5 5 5 5 5 5 5 5 5 5 5 5 5 5 5 5 5 5 5 5 5 5 5 5 5 5 5 5 5 5 5 5 5 5 5 5 5 5 5 5 5 5 5 5 5 5 5 5 5 5 5 5 5 5 5 5 5 5 5 5 5 5 5 5 5 5 5 5 5 5 5 5 5 5 5 5 5 5 5 5 5 5 5 5 5 5 5 5 5 5 5 5 5 5 5 5 5 5 5 5 5 5 5 5 5 5 5 5 5 5 5 5 5 5 5 5 5 5 5 5 5 5 5 5 5 5 5 5 5 5 5 5 5 5 5 5 5 5 5 5 5 5 5 5 5 5 5 5 5 5 5 5 5 5 5 5 5 5 5 5 5 5 5 5 5 5 5 5 5 5 5 5 5 5 5 5 5 5 5 5 5 5 5 5 5 5 5 5 5 5 5 5 5 5 5 5 5 5 5 5 5 5 5 5 5 5 5 5 5 5 5 5 5 5 5 5 3 5 5 3 5 5 3 5 5 5 5 5 5 5 5 5 5 5 5 5 3 5 5 5 5 5 3 5 5 5 5 5 5 5 5 5 5 5 5 5 5 5 5 5 5 5 5 5 5 5 5 5 5 5 5 5 5 5 5 5 5 5 5 5 5 5 5 5 5 5 5 5 5 5 5 5 5 5 5 5 5 5 5 5 5 5 5 5 5 5 5 5 5 5 5 5 5 5 5 5 5 5 5 5 5 5 5 5 5 5 5 5 5 5 5 5 5 5 5 5 5 5 5 5 5 5 5 5 5 5 5 5 5 5 5 5 5 5 5 5 5 5 5 5 5 5 5 5 5 5 5 5 5 5 5 5 5 5 5 5 5 5 5 5 5 5 5 5 5 5 5 5 5 5 5 5 5 5 5 5 5 5 5 5 5 5 5 5 5 5 5 5 5 5 5 3 5 5 5 3 5 5 3 5 5 5 5 5 5 5 5 5 5 5 3 5 5 5 5 3 5 5 5 5 5 5 5 5 5 5 5 5 5 5 5 5 5 5 5 5 5 5 5 5 5 5 5 5 5 5 5 5 5 5 5 5 5 5 5 5 5 5 5 5 5 5 5 5 5 5 5 5 5 5 5 5 5 5 3 5 5 5 5 5 5 5 5 5 5 5 5 5 5 3 5 5 3 5 3 5 5 5 5 5 5 5 5 5 5 5 5 5 3 5 5 5 5 5 5 5 5 5 5 5 5 5 5 5 5 5 5 5 5 5 5 5 5 5 5 5 5 5 5 5 5 5 5 5 5 5 5 5 5 5 5 5 5 5 5 5 5 5 5 5 5 5 5 5 5 5 5 5 5 5 5 5 5 5 5 5 5 5 5 5 5 5 5 5 5 5 5 5 5 5 5 5 5 5 5 5 5 5 5 5 5 5 5 5 5 5 5 5 5 5 5 5 5 5 5 5 5 5 5 5 5 5 5 5 5 5 5 5 5 5 5 5 5 5 5 5 5 5 5 5 5 5 5 5 5 3 5 5 3 5 3 5 5 5 5 5 5 5 5 5 5 5 5 5 5 5 5 5 5 5 5 5 5 5 5 5 5 5 5 5 5 5 5 5 5 5 5 5 5 5 5 5 5 5 5 5 5 5 3 5 5 5 5 5 3 5 5 5 5 5 5 5 
</DataArray>
</Cells>
<PointData Scalars="" Vectors="displacement," Tensors="">
<DataArray type="Float64" Name="displacement" NumberOfComponents="3" format="ascii">
-2.1114188843718333e-09 -8.6884639423071668e-10 0 -2.4016692840493543e-06 -4.4901617750422706e-08 0 -1.0809881547261831e-06 2.2796213111512836e-07 0 -2.1114188843718333e-09 -8.6884639423071668e-10 0 -1.0809881547261833e-06 2.2796213111512841e-07 0 -1.8945118443863451e-09 6.0419648305281725e-10 0 -2.4016692840493543e-06 -4.4901617750422706e-08 0 -2.4093239711316685e-06 9.233037856569275e-07 0 -1.0809881547261831e-06 2.2796213111512836e-07 0 -1.8945118443863451e-09 6.0419648305281725e-10 0 -1.0809881547261831e-06 2.2796213111512844e-07 0 -2.4093239711316685e-06 9.233037856569275e-07 0 -1.8661895624497358e-09 3.4885400750498222e-10 0 -1.8945118443863451e-09 6.0419648305281725e-10 0 -1.5281997460702872e-06 1.3675198795625909e-06 0 -9.7476585204606129e-10 1.0893479508741855e-09 0 -1.8661895624497358e-09 3.4885400750498222e-10 0 -1.5281997460702872e-06 1.3675198795625909e-06 0 -3.3409399484095702e-06 2.0241791060290759e-06 0 -1.5281997460702872e-06 1.3675198795625909e-06 0 -2.4093239711316685e-06 9.233037856569275e-07 0 -1.8945118443863451e-09 6.0419648305281725e-10 0 -2.4093239711316685e-06 9.233037856569275e-07 0 -1.5281997460702872e-06 1.3675198795625909e-06 0 -3.3409399484095702e-06 2.0241791060290759e-06 0 -1.7585239711347807e-06 2.275864164881592e-06 0 -1.5281997460702872e-06 1.3675198795625909e-06 0 -3.3409399484095702e-06 2.0241791060290759e-06 0 -3.3937581162739378e-06 2.8481329990898357e-06 0 -1.7585239711347807e-06 2.275864164881592e-06 0 -3.3409399484095702e-06 2.0241791060290759e-06 0 -5.149365007719607e-06 2.562062178503444e-06 0 -3.3937581162739378e-06 2.8481329990898357e-06 0 -4.0987170574713109e-06 3.2999177086130365e-06 0 -3.3937581162739378e-06 2.8481329990898357e-06 0 -5.149365007719607e-06 2.562062178503444e-06 0 -7.3732207657126891e-06 1.9805504221637925e-06 0 -5.149365007719607e-06 2.562062178503444e-06 0 -5.174575971341808e-06 1.479920186838213e-06 0 -3.3409399484095702e-06 2.0241791060290759e-06 0 -5.174575971341808e-06 1.479920186838213e-06 0 -5.149365007719607e-06 2.562062178503444e-06 0 -5.3542695371181489e-06 4.9715851540092065e-07 0 -8.9541833447357348e-06 6.3938199512947574e-07 0 -5.174575971341808e-06 1.479920186838213e-06 0 -2.4016692840493543e-06 -4.4901617750422706e-08 0 -5.3542695371181489e-06 4.9715851540092065e-07 0 -2.4093239711316685e-06 9.233037856569275e-07 0 -5.3542695371181489e-06 4.9715851540092065e-07 0 -5.174575971341808e-06 1.479920186838213e-06 0 -2.4093239711316685e-06 9.233037856569275e-07 0 -3.3409399484095702e-06 2.0241791060290759e-06 0 -2.4093239711316685e-06 9.233037856569275e-07 0 -5.174575971341808e-06 1.479920186838213e-06 0 -1.8929680784506406e-11 9.4664084319534842e-10 0 -6.0483250283496234e-10 7.6303086160257745e-10 0 -2.3817491062189624e-07 1.9200332549038421e-06 0 -6.0483250283496234e-10 7.6303086160257745e-10 0 -6.1359529876727255e-07 1.6027691897538018e-06 0 -2.3817491062189624e-07 1.9200332549038421e-06 0 -1.079738842141015e-06 2.9625728635477048e-06 0 -2.3817491062189624e-07 1.9200332549038421e-06 0 -6.1359529876727255e-07 1.6027691897538018e-06 0 -9.7476585204606129e-10 1.0893479508741855e-09 0 -1.7585239711347807e-06 2.275864164881592e-06 0 -6.1359529876727255e-07 1.6027691897538018e-06 0 -9.7476585204606129e-10 1.0893479508741855e-09 0 -1.5281997460702872e-06 1.3675198795625909e-06 0 -1.7585239711347807e-06 2.275864164881592e-06 0 -1.079738842141015e-06 2.9625728635477048e-06 0 -6.1359529876727255e-07 1.6027691897538018e-06 0 -1.7585239711347807e-06 2.275864164881592e-06 0 -6.0483250283496234e-10 7.6303086160257745e-10 0 -9.7476585204606129e-10 1.0893479508741855e-09 0 -6.1359529876727255e-07 1.6027691897538018e-06 0 -1.7585239711347807e-06 2.275864164881592e-06 0 -3.3937581162739382e-06 2.8481329990898357e-06 0 -2.4181979662296616e-06 3.203172019715296e-06 0 -4.0987170574713109e-06 3.2999177086130365e-06 0 -2.4181979662296616e-06 3.203172019715296e-06 0 -3.3937581162739378e-06 2.8481329990898357e-06 0 -1.079738842141015e-06 2.9625728635477048e-06 0 -1.7585239711347807e-06 2.275864164881592e-06 0 -2.4181979662296616e-06 3.203172019715296e-06 0 -1.079738842141015e-06 2.9625728635477048e-06 0 -1.6394604986162078e-06 3.7099006454875204e-06 0 -5.7127112365703876e-08 3.3000328683548953e-06 0 -1.079738842141015e-06 2.9625728635477048e-06 0 -2.4181979662296616e-06 3.203172019715296e-06 0 -1.6394604986162078e-06 3.7099006454875204e-06 0 -1.079738842141015e-06 2.9625728635477048e-06 0 -5.7127112365703876e-08 3.3000328683548953e-06 0 -2.3817491062189624e-07 1.9200332549038421e-06 0 2.9979425602467052e-07 2.0961626249857988e-06 0 -2.3817491062189624e-07 1.9200332549038421e-06 0 -5.7127112365703876e-08 3.3000328683548953e-06 0 -1.6394604986162078e-06 3.7099006454875204e-06 0 -1.6435810135731105e-07 3.7513076257219321e-06 0 -5.7127112365703876e-08 3.3000328683548953e-06 0 -5.7761645573019636e-07 3.6728526008302185e-06 0 -1.6435810135731081e-07 3.7513076257219321e-06 0 -1.6394604986162078e-06 3.7099006454875204e-06 0 -5.7761645573019636e-07 3.6728526008302185e-06 0 -1.6394604986162078e-06 3.7099006454875204e-06 0 -3.0292125503651179e-06 3.4635831678333324e-06 0 -4.0987170574713109e-06 3.2999177086130365e-06 0 -5.6915724380263148e-06 2.9495397239061869e-06 0 -3.0292125503651179e-06 3.4635831678333324e-06 0 -4.0987170574713109e-06 3.2999177086130365e-06 0 -1.6394604986162078e-06 3.7099006454875199e-06 0 -2.4181979662296616e-06 3.203172019715296e-06 0 -4.0987170574713109e-06 3.2999177086130365e-06 0 -3.0292125503651179e-06 3.4635831678333324e-06 0 -1.6394604986162078e-06 3.7099006454875204e-06 0 -4.0987170574713109e-06 3.2999177086130365e-06 0 -6.5741161866563103e-06 2.6617542948937435e-06 0 -5.6915724380263148e-06 2.9495397239061869e-06 0 -4.1854829817787146e-06 2.7141478249855565e-06 0 -5.6915724380263148e-06 2.9495397239061869e-06 0 -8.0469084971052284e-06 1.8482168195886056e-06 0 -4.1854829817787146e-06 2.7141478249855565e-06 0 -8.0469084971052284e-06 1.8482168195886056e-06 0 -6.6679750269402279e-06 1.2356765815829515e-06 0 -4.1854829817787146e-06 2.7141478249855565e-06 0 -6.6679750269402279e-06 1.2356765815829513e-06 0 -3.9732948571167161e-06 1.2348222586095741e-06 0 -4.1854829817787146e-06 2.7141478249855565e-06 0 -3.0292125503651179e-06 3.4635831678333324e-06 0 -5.6915724380263148e-06 2.9495397239061869e-06 0 -5.7761645573019636e-07 3.6728526008302185e-06 0 -3.0292125503651179e-06 3.4635831678333324e-06 0 -1.4980558943862726e-06 2.8621971094864259e-06 0 -4.1854829817787146e-06 2.7141478249855565e-06 0 -1.4980558943862726e-06 2.8621971094864259e-06 0 -3.0292125503651179e-06 3.4635831678333324e-06 0 -4.1854829817787146e-06 2.7141478249855565e-06 0 -3.9732948571167161e-06 1.2348222586095741e-06 0 -1.4980558943862726e-06 2.8621971094864259e-06 0 9.4276466672574507e-07 2.0591798059766688e-06 0 1.2658922765221189e-06 3.2646110288917222e-06 0 -1.4980558943862726e-06 2.8621971094864259e-06 0 -5.7761645573019636e-07 3.6728526008302185e-06 0 -1.4980558943862726e-06 2.8621971094864259e-06 0 1.2658922765221189e-06 3.2646110288917222e-06 0 -8.9541833447357348e-06 6.3938199512947574e-07 0 -1.0564093243860466e-05 1.1723928653463296e-06 0 -7.3732207657126891e-06 1.9805504221637925e-06 0 -9.3657019250123202e-06 1.929770757394206e-06 0 -7.3732207657126883e-06 1.980550422163793e-06 0 -1.0564093243860467e-05 1.1723928653463294e-06 0 -8.9541833447357348e-06 6.3938199512947574e-07 0 -1.3206275486270777e-05 -1.6586928596688413e-07 0 -1.0564093243860467e-05 1.1723928653463294e-06 0 -8.9541833447357348e-06 6.3938199512947574e-07 0 -7.3732207657126899e-06 1.9805504221637925e-06 0 -5.174575971341808e-06 1.479920186838213e-06 0 -7.3732207657126891e-06 1.9805504221637925e-06 0 -6.5741161866563103e-06 2.6617542948937435e-06 0 -5.149365007719607e-06 2.562062178503444e-06 0 -4.0987170574713109e-06 3.2999177086130365e-06 0 -5.149365007719607e-06 2.562062178503444e-06 0 -6.5741161866563103e-06 2.6617542948937435e-06 0 -9.3657019250123202e-06 1.929770757394206e-06 0 -5.6915724380263148e-06 2.9495397239061869e-06 0 -6.5741161866563103e-06 2.6617542948937435e-06 0 -9.3657019250123202e-06 1.929770757394206e-06 0 -6.5741161866563103e-06 2.6617542948937435e-06 0 -7.3732207657126891e-06 1.9805504221637925e-06 0 -9.3657019250123202e-06 1.929770757394206e-06 0 -8.0469084971052284e-06 1.8482168195886056e-06 0 -5.6915724380263148e-06 2.9495397239061869e-06 0 -9.3657019250123202e-06 1.929770757394206e-06 0 -1.158630567228655e-05 7.1148493441039791e-07 0 -8.0469084971052284e-06 1.8482168195886056e-06 0 -1.0912186166266591e-05 -2.1849181804953451e-07 0 -8.0469084971052284e-06 1.8482168195886056e-06 0 -1.158630567228655e-05 7.1148493441039781e-07 0 -9.3657019250123202e-06 1.929770757394206e-06 0 -1.331254261631402e-05 3.1042133327792259e-07 0 -1.158630567228655e-05 7.1148493441039781e-07 0 -1.6038642111664371e-05 -1.479182347024205e-06 0 -1.158630567228655e-05 7.1148493441039781e-07 0 -1.331254261631402e-05 3.1042133327792259e-07 0 -9.3657019250123202e-06 1.929770757394206e-06 0 -1.0564093243860467e-05 1.1723928653463294e-06 0 -1.331254261631402e-05 3.1042133327792259e-07 0 -1.3206275486270776e-05 -1.6586928596688389e-07 0 -1.331254261631402e-05 3.1042133327792259e-07 0 -1.0564093243860467e-05 1.1723928653463294e-06 0 -1.3206275486270776e-05 -1.6586928596688389e-07 0 -1.8017313842299951e-05 -1.9913123400149533e-06 0 -1.331254261631402e-05 3.1042133327792259e-07 0 -1.8017313842299951e-05 -1.9913123400149533e-06 0 -2.3108569030169273e-05 -5.02666687694113e-06 0 -1.6038642111664371e-05 -1.479182347024205e-06 0 -1.8017313842299951e-05 -1.9913123400149533e-06 0 -1.6038642111664371e-05 -1.479182347024205e-06 0 -1.331254261631402e-05 3.1042133327792259e-07 0 -2.3108569030169273e-05 -5.02666687694113e-06 0 -2.1505932909949776e-05 -5.4162059464119198e-06 0 -1.6038642111664371e-05 -1.479182347024205e-06 0 -2.3108569030169273e-05 -5.02666687694113e-06 0 -2.8974863740738442e-05 -9.5267959922626783e-06 0 -2.1505932909949776e-05 -5.4162059464119198e-06 0 -1.8989298315309433e-05 -6.9703325958816255e-06 0 -2.1505932909949776e-05 -5.4162059464119198e-06 0 -2.6081442025039811e-05 -9.4441901009568349e-06 0 -1.8989298315309433e-05 -6.9703325958816255e-06 0 -2.6081442025039811e-05 -9.4441901009568349e-06 0 -2.6278328866519881e-05 -1.314802225179906e-05 0 -2.8974863740738442e-05 -9.5267959922626783e-06 0 -2.6081442025039811e-05 -9.4441901009568349e-06 0 -2.1505932909949776e-05 -5.4162059464119198e-06 0 -2.8974863740738442e-05 -9.5267959922626783e-06 0 -3.5404444005479486e-05 -1.5729925229719955e-05 0 -2.6081442025039811e-05 -9.4441901009568349e-06 0 -1.8989298315309433e-05 -6.9703325958816255e-06 0 -1.7916045394101017e-05 -1.1844567098211844e-05 0 -1.2160925787342662e-05 -6.7609186901804669e-06 0 -1.8989298315309433e-05 -6.9703325958816255e-06 0 -1.2160925787342662e-05 -6.7609186901804669e-06 0 -1.2688509916944956e-05 -3.3084963240357448e-06 0 -1.8989298315309433e-05 -6.9703325958816255e-06 0 -1.6033388216560085e-05 -3.1463720902726589e-06 0 -2.1505932909949776e-05 -5.4162059464119198e-06 0 -1.8989298315309433e-05 -6.9703325958816255e-06 0 -1.2688509916944956e-05 -3.3084963240357448e-06 0 -1.6033388216560085e-05 -3.1463720902726589e-06 0 -1.0912186166266591e-05 -2.1849181804953451e-07 0 -1.6033388216560085e-05 -3.1463720902726593e-06 0 -1.2688509916944956e-05 -3.3084963240357448e-06 0 -1.6038642111664371e-05 -1.479182347024205e-06 0 -2.1505932909949776e-05 -5.4162059464119198e-06 0 -1.6033388216560085e-05 -3.1463720902726589e-06 0 -1.6033388216560085e-05 -3.1463720902726589e-06 0 -1.0912186166266591e-05 -2.1849181804953456e-07 0 -1.6038642111664371e-05 -1.479182347024205e-06 0 -1.6038642111664371e-05 -1.479182347024205e-06 0 -1.0912186166266591e-05 -2.1849181804953451e-07 0 -1.158630567228655e-05 7.1148493441039781e-07 0 -1.0912186166266591e-05 -2.1849181804953451e-07 0 -6.6679750269402279e-06 1.2356765815829515e-06 0 -8.0469084971052284e-06 1.8482168195886056e-06 0 -1.0912186166266591e-05 -2.1849181804953451e-07 0 -7.71146836593052e-06 -7.0254779778686746e-07 0 -6.6679750269402279e-06 1.2356765815829515e-06 0 -3.9732948571167161e-06 1.2348222586095741e-06 0 -6.6679750269402271e-06 1.2356765815829515e-06 0 -7.71146836593052e-06 -7.0254779778686746e-07 0 -8.3249168908250564e-06 -3.3722635731941537e-06 0 -4.1517549279987851e-06 -1.4884858367774804e-06 0 -7.71146836593052e-06 -7.0254779778686746e-07 0 -3.9732948571167161e-06 1.2348222586095741e-06 0 -7.71146836593052e-06 -7.0254779778686746e-07 0 -4.1517549279987851e-06 -1.4884858367774804e-06 0 -1.0912186166266591e-05 -2.1849181804953451e-07 0 -1.2688509916944956e-05 -3.3084963240357448e-06 0 -7.71146836593052e-06 -7.0254779778686746e-07 0 -1.060941766793785e-06 7.4499301087973659e-07 0 9.4276466672574507e-07 2.0591798059766688e-06 0 -1.4980558943862726e-06 2.8621971094864259e-06 0 -3.9732948571167161e-06 1.2348222586095741e-06 0 -1.060941766793785e-06 7.4499301087973659e-07 0 -1.4980558943862726e-06 2.8621971094864259e-06 0 -3.9732948571167161e-06 1.2348222586095741e-06 0 -4.1517549279987851e-06 -1.4884858367774806e-06 0 -1.060941766793785e-06 7.4499301087973659e-07 0 -1.7296989956602608e-07 -2.8966286199607637e-06 0 2.2669413753405523e-06 3.9697312674638198e-07 0 -1.060941766793785e-06 7.4499301087973659e-07 0 -1.7296989956602608e-07 -2.8966286199607637e-06 0 -1.0609417667937855e-06 7.4499301087973648e-07 0 -4.1517549279987851e-06 -1.4884858367774804e-06 0 -1.7296989956602608e-07 -2.8966286199607637e-06 0 -4.1517549279987851e-06 -1.4884858367774804e-06 0 -5.8607703727663746e-06 -5.3385273477546377e-06 0 -1.7296989956602608e-07 -2.8966286199607637e-06 0 -5.8607703727663746e-06 -5.3385273477546377e-06 0 -2.0818615176238042e-06 -8.0852795640259864e-06 0 -1.7296989956602608e-07 -2.8966286199607637e-06 0 -2.0818615176238042e-06 -8.0852795640259864e-06 0 3.4569364623052734e-06 -6.2103003828962578e-06 0 -8.3249168908250564e-06 -3.3722635731941537e-06 0 -7.71146836593052e-06 -7.0254779778686746e-07 0 -1.2688509916944956e-05 -3.3084963240357448e-06 0 -8.3249168908250564e-06 -3.3722635731941537e-06 0 -1.2688509916944955e-05 -3.3084963240357448e-06 0 -1.2160925787342662e-05 -6.7609186901804669e-06 0 -8.3249168908250564e-06 -3.3722635731941537e-06 0 -5.8607703727663746e-06 -5.3385273477546377e-06 0 -4.1517549279987851e-06 -1.4884858367774804e-06 0 -9.4818117319304935e-06 -1.0427103100727632e-05 0 -5.8607703727663746e-06 -5.3385273477546377e-06 0 -1.2160925787342662e-05 -6.7609186901804669e-06 0 -8.3249168908250564e-06 -3.3722635731941537e-06 0 -1.2160925787342662e-05 -6.7609186901804669e-06 0 -5.8607703727663746e-06 -5.3385273477546377e-06 0 -9.4818117319304935e-06 -1.0427103100727632e-05 0 -1.2160925787342662e-05 -6.7609186901804669e-06 0 -1.7916045394101017e-05 -1.1844567098211844e-05 0 -9.4818117319304935e-06 -1.0427103100727632e-05 0 -1.5059813610141603e-05 -1.811725900327522e-05 0 -4.8891913125670906e-06 -1.4003092612219632e-05 0 -9.4818117319304935e-06 -1.0427103100727632e-05 0 -1.7916045394101017e-05 -1.1844567098211844e-05 0 -1.5059813610141603e-05 -1.811725900327522e-05 0 2.3266731821655869e-06 -1.1695775358254932e-05 0 3.4569364623052734e-06 -6.2103003828962578e-06 0 -2.0818615176238042e-06 -8.0852795640259864e-06 0 -9.4818117319304935e-06 -1.0427103100727632e-05 0 -2.0818615176238042e-06 -8.0852795640259864e-06 0 -5.8607703727663746e-06 -5.3385273477546377e-06 0 -9.4818117319304935e-06 -1.0427103100727632e-05 0 -4.8891913125670906e-06 -1.4003092612219632e-05 0 -2.0818615176238042e-06 -8.0852795640259864e-06 0 2.3266731821655869e-06 -1.1695775358254932e-05 0 -2.0818615176238042e-06 -8.0852795640259864e-06 0 -4.8891913125670906e-06 -1.4003092612219632e-05 0 2.3266731821655869e-06 -1.1695775358254932e-05 0 -4.8891913125670906e-06 -1.4003092612219634e-05 0 -3.2410308507583297e-07 -1.8877982944918601e-05 0 -7.6385786913092991e-06 -2.25795916705676e-05 0 -3.2410308507583281e-07 -1.8877982944918601e-05 0 -4.8891913125670906e-06 -1.4003092612219632e-05 0 -7.6385786913092991e-06 -2.25795916705676e-05 0 -1.2037173193686889e-05 -3.3860824147216717e-05 0 -4.2573541528155333e-06 -2.9749243553726136e-05 0 -7.6385786913092991e-06 -2.25795916705676e-05 0 -4.2573541528155333e-06 -2.9749243553726136e-05 0 -3.2410308507583297e-07 -1.8877982944918601e-05 0 3.7258402094115687e-06 -2.4545945493826495e-05 0 -3.2410308507583297e-07 -1.8877982944918601e-05 0 -4.2573541528155333e-06 -2.9749243553726136e-05 0 -7.6385786913092991e-06 -2.25795916705676e-05 0 -1.5059813610141603e-05 -1.811725900327522e-05 0 -1.6512005928323649e-05 -2.6720094149123883e-05 0 -7.6385786913092991e-06 -2.25795916705676e-05 0 -4.8891913125670906e-06 -1.4003092612219632e-05 0 -1.5059813610141603e-05 -1.811725900327522e-05 0 -7.6385786913092991e-06 -2.25795916705676e-05 0 -1.6512005928323649e-05 -2.6720094149123883e-05 0 -1.2037173193686889e-05 -3.3860824147216717e-05 0 -1.5059813610141603e-05 -1.811725900327522e-05 0 -2.5871748393123108e-05 -2.6837618397599642e-05 0 -1.6512005928323649e-05 -2.6720094149123883e-05 0 -2.2014732508840452e-05 -3.3650278231318394e-05 0 -1.6512005928323649e-05 -2.6720094149123883e-05 0 -2.5871748393123108e-05 -2.6837618397599642e-05 0 -2.5600347978288388e-05 -1.891876133034047e-05 0 -2.5871748393123108e-05 -2.6837618397599642e-05 0 -1.5059813610141603e-05 -1.811725900327522e-05 0 -2.5600347978288388e-05 -1.891876133034047e-05 0 -3.539869296809228e-05 -2.6636031708188603e-05 0 -2.5871748393123108e-05 -2.6837618397599642e-05 0 -3.6691466755862603e-05 -3.8900264561138334e-05 0 -2.5871748393123108e-05 -2.6837618397599642e-05 0 -3.539869296809228e-05 -2.6636031708188603e-05 0 -4.8716122275058526e-05 -3.5205373704002604e-05 0 -3.6691466755862603e-05 -3.8900264561138334e-05 0 -3.539869296809228e-05 -2.6636031708188603e-05 0 -4.2102327382151937e-05 -2.4313904460358875e-05 0 -4.8716122275058526e-05 -3.5205373704002604e-05 0 -3.539869296809228e-05 -2.6636031708188603e-05 0 -4.2102327382151937e-05 -2.4313904460358875e-05 0 -3.539869296809228e-05 -2.6636031708188603e-05 0 -3.2931483089544117e-05 -1.9507758884054367e-05 0 -2.5600347978288388e-05 -1.891876133034047e-05 0 -3.2931483089544117e-05 -1.9507758884054367e-05 0 -3.539869296809228e-05 -2.6636031708188603e-05 0 -3.5404444005479486e-05 -1.5729925229719955e-05 0 -3.2931483089544117e-05 -1.9507758884054367e-05 0 -2.6278328866519881e-05 -1.314802225179906e-05 0 -2.5600347978288388e-05 -1.891876133034047e-05 0 -2.6278328866519881e-05 -1.314802225179906e-05 0 -3.2931483089544117e-05 -1.9507758884054367e-05 0 -3.5404444005479486e-05 -1.5729925229719955e-05 0 -4.2102327382151937e-05 -2.4313904460358875e-05 0 -3.2931483089544117e-05 -1.9507758884054367e-05 0 -3.5404444005479486e-05 -1.5729925229719955e-05 0 -2.6278328866519881e-05 -1.3148022251799058e-05 0 -2.6081442025039811e-05 -9.4441901009568349e-06 0 -1.8989298315309433e-05 -6.9703325958816255e-06 0 -2.6278328866519881e-05 -1.314802225179906e-05 0 -1.7916045394101017e-05 -1.1844567098211844e-05 0 -2.5600347978288388e-05 -1.891876133034047e-05 0 -1.5059813610141601e-05 -1.8117259003275217e-05 0 -1.7916045394101017e-05 -1.1844567098211844e-05 0 -2.5600347978288388e-05 -1.891876133034047e-05 0 -1.7916045394101017e-05 -1.1844567098211844e-05 0 -2.6278328866519881e-05 -1.314802225179906e-05 0 1.3304556179107069e-05 -3.7942428250392001e-06 0 1.2340064346810065e-05 -2.025600823848834e-06 0 1.1161952451558395e-05 -5.7381886843972496e-06 0 1.0407490104982101e-05 -3.3775199779494746e-06 0 1.1161952451558395e-05 -5.7381886843972496e-06 0 1.2340064346810065e-05 -2.025600823848834e-06 0 1.0407490104982101e-05 -3.3775199779494746e-06 0 8.8758168097147519e-06 -6.3572891284927085e-06 0 1.1161952451558395e-05 -5.7381886843972496e-06 0 1.3304556179107069e-05 -3.7942428250392001e-06 0 1.4836036629607299e-05 1.4138145546366096e-07 0 1.2340064346810065e-05 -2.025600823848834e-06 0 1.7418712148971478e-05 2.9669199543929535e-06 0 1.4836036629607299e-05 1.413814554636612e-07 0 1.6696345915702211e-05 -2.3494569568076813e-07 0 1.3304556179107069e-05 -3.7942428250392001e-06 0 1.6696345915702211e-05 -2.3494569568076813e-07 0 1.4836036629607299e-05 1.413814554636612e-07 0 1.3304556179107069e-05 -3.7942428250392001e-06 0 1.4879693911520796e-05 -4.0611736936156849e-06 0 1.6696345915702211e-05 -2.3494569568076813e-07 0 1.3304556179107069e-05 -3.7942428250392001e-06 0 1.3194760897244705e-05 -7.6810246251474003e-06 0 1.4879693911520796e-05 -4.061173693615684e-06 0 1.6594011234659965e-05 -4.9510519408944334e-06 0 1.6696345915702211e-05 -2.3494569568076813e-07 0 1.4879693911520796e-05 -4.061173693615684e-06 0 1.6594011234659965e-05 -4.9510519408944334e-06 0 1.4879693911520796e-05 -4.061173693615684e-06 0 1.3194760897244703e-05 -7.6810246251474003e-06 0 1.0373025792658139e-05 -1.2642703854582982e-05 0 1.3194760897244703e-05 -7.6810246251474003e-06 0 1.1006142589521456e-05 -8.8783791882980013e-06 0 1.3304556179107069e-05 -3.7942428250392001e-06 0 1.1006142589521456e-05 -8.8783791882979996e-06 0 1.3194760897244703e-05 -7.6810246251474003e-06 0 1.3304556179107069e-05 -3.7942428250392001e-06 0 1.1161952451558395e-05 -5.7381886843972496e-06 0 1.1006142589521456e-05 -8.8783791882980013e-06 0 9.6895860241560714e-06 -9.6012108107589116e-06 0 1.1006142589521458e-05 -8.8783791882980013e-06 0 1.1161952451558395e-05 -5.7381886843972496e-06 0 1.0373025792658139e-05 -1.2642703854582982e-05 0 1.1006142589521456e-05 -8.8783791882980013e-06 0 8.7942886350106347e-06 -1.3793896711599492e-05 0 1.0737503964054908e-05 -2.0516349914154135e-05 0 8.7942886350106347e-06 -1.3793896711599492e-05 0 9.326071676273344e-06 -1.4233024945824238e-05 0 9.6895860241560714e-06 -9.6012108107589116e-06 0 9.326071676273344e-06 -1.4233024945824238e-05 0 8.7942886350106347e-06 -1.3793896711599492e-05 0 9.6895860241560714e-06 -9.6012108107589116e-06 0 7.529309415076504e-06 -9.5969183489317994e-06 0 9.326071676273344e-06 -1.4233024945824238e-05 0 9.6895860241560714e-06 -9.6012108107589116e-06 0 8.7942886350106347e-06 -1.3793896711599492e-05 0 1.1006142589521456e-05 -8.8783791882980013e-06 0 1.0737503964054908e-05 -2.0516349914154135e-05 0 6.6063507544032087e-06 -1.5885551070550545e-05 0 3.7258402094115687e-06 -2.4545945493826495e-05 0 3.7258402094115687e-06 -2.4545945493826495e-05 0 6.6063507544032087e-06 -1.5885551070550545e-05 0 -3.2410308507583297e-07 -1.8877982944918601e-05 0 1.0737503964054908e-05 -2.0516349914154135e-05 0 9.326071676273344e-06 -1.4233024945824238e-05 0 6.6063507544032087e-06 -1.5885551070550545e-05 0 7.529309415076504e-06 -9.5969183489317994e-06 0 6.6063507544032087e-06 -1.5885551070550545e-05 0 9.326071676273344e-06 -1.4233024945824238e-05 0 2.3266731821655869e-06 -1.1695775358254932e-05 0 -3.2410308507583297e-07 -1.8877982944918601e-05 0 6.6063507544032087e-06 -1.5885551070550545e-05 0 2.3266731821655869e-06 -1.1695775358254932e-05 0 6.6063507544032079e-06 -1.5885551070550545e-05 0 7.529309415076504e-06 -9.5969183489317994e-06 0 2.3266731821655869e-06 -1.1695775358254932e-05 0 7.529309415076504e-06 -9.5969183489317994e-06 0 3.4569364623052734e-06 -6.2103003828962578e-06 0 6.7540642258880297e-06 -4.2680172672749347e-06 0 3.4569364623052734e-06 -6.2103003828962578e-06 0 7.529309415076504e-06 -9.5969183489317994e-06 0 9.6895860241560714e-06 -9.6012108107589116e-06 0 1.1161952451558395e-05 -5.7381886843972496e-06 0 8.8758168097147519e-06 -6.3572891284927085e-06 0 9.6895860241560714e-06 -9.6012108107589116e-06 0 8.8758168097147519e-06 -6.3572891284927085e-06 0 7.529309415076504e-06 -9.5969183489317994e-06 0 6.7540642258880297e-06 -4.2680172672749347e-06 0 7.529309415076504e-06 -9.5969183489317994e-06 0 8.8758168097147519e-06 -6.3572891284927085e-06 0 8.8758168097147519e-06 -6.3572891284927085e-06 0 8.7089273044361598e-06 -7.7921016537935865e-07 0 6.7540642258880297e-06 -4.2680172672749347e-06 0 1.0407490104982101e-05 -3.3775199779494746e-06 0 8.7089273044361598e-06 -7.7921016537935865e-07 0 8.8758168097147519e-06 -6.3572891284927085e-06 0 6.7540642258880297e-06 -4.2680172672749347e-06 0 8.7089273044361581e-06 -7.7921016537935812e-07 0 6.5137601569056816e-06 -1.2438240479887011e-06 0 8.7089273044361598e-06 -7.7921016537935865e-07 0 7.1440024083901408e-06 6.7492433594343521e-07 0 6.5137601569056816e-06 -1.2438240479887011e-06 0 -1.7296989956602608e-07 -2.8966286199607637e-06 0 3.4569364623052734e-06 -6.2103003828962578e-06 0 4.156669867516162e-06 -2.1534650783986027e-06 0 6.7540642258880297e-06 -4.2680172672749347e-06 0 4.156669867516162e-06 -2.1534650783986027e-06 0 3.4569364623052734e-06 -6.2103003828962578e-06 0 6.7540642258880297e-06 -4.2680172672749347e-06 0 6.5137601569056808e-06 -1.2438240479887008e-06 0 4.156669867516162e-06 -2.1534650783986027e-06 0 5.0774813720648368e-06 5.2510589533103218e-07 0 4.156669867516162e-06 -2.1534650783986027e-06 0 6.5137601569056816e-06 -1.2438240479887011e-06 0 -1.7296989956602608e-07 -2.8966286199607637e-06 0 4.156669867516162e-06 -2.1534650783986022e-06 0 2.2669413753405523e-06 3.9697312674638198e-07 0 5.0774813720648368e-06 5.2510589533103218e-07 0 2.2669413753405523e-06 3.9697312674638177e-07 0 4.156669867516162e-06 -2.1534650783986027e-06 0 5.0774813720648368e-06 5.2510589533103218e-07 0 3.4412195572476892e-06 2.4790419917272115e-06 0 2.2669413753405523e-06 3.9697312674638198e-07 0 9.4276466672574507e-07 2.0591798059766688e-06 0 2.2669413753405523e-06 3.9697312674638198e-07 0 3.4412195572476892e-06 2.4790419917272115e-06 0 9.4276466672574507e-07 2.0591798059766688e-06 0 -1.060941766793785e-06 7.4499301087973659e-07 0 2.2669413753405523e-06 3.9697312674638198e-07 0 8.4799356798177801e-06 1.8193349696336548e-06 0 7.1440024083901416e-06 6.749243359434351e-07 0 8.7089273044361598e-06 -7.7921016537935865e-07 0 5.0774813720648368e-06 5.2510589533103218e-07 0 6.5137601569056816e-06 -1.2438240479887011e-06 0 7.1440024083901408e-06 6.7492433594343521e-07 0 5.0774813720648368e-06 5.2510589533103218e-07 0 7.1440024083901408e-06 6.7492433594343521e-07 0 6.0719492831509205e-06 2.0762123376948939e-06 0 5.0774813720648368e-06 5.2510589533103218e-07 0 6.0719492831509205e-06 2.0762123376948939e-06 0 3.4412195572476892e-06 2.4790419917272115e-06 0 8.4799356798177801e-06 1.8193349696336548e-06 0 6.0719492831509205e-06 2.0762123376948939e-06 0 7.1440024083901408e-06 6.7492433594343521e-07 0 8.4799356798177801e-06 1.8193349696336548e-06 0 6.2235710415269708e-06 3.013864096334901e-06 0 6.0719492831509205e-06 2.0762123376948939e-06 0 8.4799356798177801e-06 1.8193349696336548e-06 0 1.102152756262586e-05 2.0591407162648894e-06 0 8.5367867875509151e-06 2.7285869281230663e-06 0 1.102152756262586e-05 2.0591407162648894e-06 0 1.1110494718200064e-05 2.725383948424372e-06 0 8.5367867875509151e-06 2.7285869281230663e-06 0 8.4799356798177801e-06 1.8193349696336548e-06 0 1.042282952736845e-05 7.1405088104007227e-07 0 1.102152756262586e-05 2.0591407162648894e-06 0 8.4799356798177801e-06 1.8193349696336548e-06 0 8.7089273044361598e-06 -7.7921016537935865e-07 0 1.042282952736845e-05 7.1405088104007227e-07 0 8.7089273044361598e-06 -7.7921016537935865e-07 0 1.1015660702679928e-05 -8.8792712543519773e-07 0 1.042282952736845e-05 7.1405088104007227e-07 0 1.2838886251503386e-05 8.9406301170240241e-07 0 1.042282952736845e-05 7.1405088104007227e-07 0 1.1015660702679928e-05 -8.8792712543519773e-07 0 1.2838886251503386e-05 8.9406301170240241e-07 0 1.102152756262586e-05 2.0591407162648894e-06 0 1.042282952736845e-05 7.1405088104007227e-07 0 1.2838886251503386e-05 8.9406301170240241e-07 0 1.1015660702679928e-05 -8.8792712543519773e-07 0 1.2340064346810065e-05 -2.025600823848834e-06 0 1.0407490104982101e-05 -3.3775199779494746e-06 0 1.2340064346810065e-05 -2.0256008238488344e-06 0 1.1015660702679928e-05 -8.8792712543519773e-07 0 1.0407490104982101e-05 -3.3775199779494746e-06 0 1.1015660702679928e-05 -8.8792712543519794e-07 0 8.7089273044361598e-06 -7.7921016537935865e-07 0 1.7418712148971478e-05 2.9669199543929535e-06 0 1.5114405235790692e-05 2.2013595324167253e-06 0 1.4836036629607299e-05 1.413814554636612e-07 0 1.2838886251503386e-05 8.9406301170240241e-07 0 1.4836036629607299e-05 1.413814554636612e-07 0 1.5114405235790692e-05 2.2013595324167253e-06 0 1.2838886251503386e-05 8.9406301170240241e-07 0 1.2340064346810065e-05 -2.025600823848834e-06 0 1.4836036629607299e-05 1.413814554636612e-07 0 1.2838886251503386e-05 8.9406301170240241e-07 0 1.3526596586883992e-05 2.5096301260105103e-06 0 1.102152756262586e-05 2.0591407162648894e-06 0 1.5114405235790692e-05 2.2013595324167253e-06 0 1.6661671018845373e-05 3.7933768596133425e-06 0 1.3526596586883992e-05 2.5096301260105103e-06 0 1.2838886251503386e-05 8.9406301170240241e-07 0 1.5114405235790692e-05 2.2013595324167253e-06 0 1.3526596586883992e-05 2.5096301260105103e-06 0 1.3853233489410448e-05 3.0577401035676551e-06 0 1.1110494718200064e-05 2.725383948424372e-06 0 1.3526596586883992e-05 2.5096301260105103e-06 0 1.102152756262586e-05 2.0591407162648894e-06 0 1.3526596586883992e-05 2.5096301260105103e-06 0 1.1110494718200064e-05 2.725383948424372e-06 0 1.3853233489410448e-05 3.0577401035676551e-06 0 1.1410017188724366e-05 2.7516034116805971e-06 0 1.1110494718200064e-05 2.725383948424372e-06 0 9.1858575918280531e-06 2.8214301254143237e-06 0 1.1410017188724366e-05 2.7516034116805971e-06 0 8.8598804148470185e-06 2.5416034475910361e-06 0 9.1858575918280531e-06 2.8214301254143237e-06 0 8.8598804148470185e-06 2.5416034475910361e-06 0 7.2400513064132264e-06 2.9896572046086932e-06 0 9.1858575918280531e-06 2.8214301254143237e-06 0 8.5367867875509151e-06 2.7285869281230663e-06 0 1.1110494718200064e-05 2.725383948424372e-06 0 9.1858575918280531e-06 2.8214301254143237e-06 0 1.1110494718200064e-05 2.725383948424372e-06 0 1.1410017188724366e-05 2.7516034116805971e-06 0 8.4799356798177801e-06 1.8193349696336548e-06 0 8.5367867875509168e-06 2.7285869281230659e-06 0 6.2235710415269717e-06 3.013864096334901e-06 0 5.0955073956311111e-06 3.2599122676374491e-06 0 6.2235710415269717e-06 3.013864096334901e-06 0 7.2400513064132264e-06 2.9896572046086932e-06 0 6.2235710415269717e-06 3.013864096334901e-06 0 8.5367867875509151e-06 2.7285869281230663e-06 0 7.2400513064132264e-06 2.9896572046086932e-06 0 9.1858575918280531e-06 2.8214301254143237e-06 0 7.2400513064132264e-06 2.9896572046086932e-06 0 8.5367867875509151e-06 2.7285869281230663e-06 0 6.6770996442201337e-06 2.5235992779254514e-06 0 5.0453233865144934e-06 2.7758315301931536e-06 0 7.2400513064132264e-06 2.9896572046086932e-06 0 5.0955073956311111e-06 3.2599122676374491e-06 0 7.2400513064132264e-06 2.9896572046086932e-06 0 5.0453233865144934e-06 2.7758315301931536e-06 0 5.0955073956311111e-06 3.2599122676374491e-06 0 5.0453233865144934e-06 2.7758315301931536e-06 0 3.3725307085321263e-06 2.8682196105651108e-06 0 6.6770996442201337e-06 2.5235992779254514e-06 0 4.6429093774212351e-06 2.0288766002807389e-06 0 5.0453233865144934e-06 2.7758315301931536e-06 0 5.6236471615448066e-06 1.4851934846379264e-06 0 4.6429093774212351e-06 2.0288766002807389e-06 0 6.6770996442201337e-06 2.5235992779254514e-06 0 5.6236471615448066e-06 1.4851934846379264e-06 0 6.6770996442201345e-06 2.5235992779254514e-06 0 7.9556854046818674e-06 1.9355983590780442e-06 0 6.6770996442201337e-06 2.5235992779254514e-06 0 8.8598804148470185e-06 2.5416034475910361e-06 0 7.9556854046818674e-06 1.9355983590780442e-06 0 6.6770996442201337e-06 2.5235992779254514e-06 0 7.2400513064132264e-06 2.9896572046086932e-06 0 8.8598804148470185e-06 2.5416034475910361e-06 0 9.4276466672574507e-07 2.0591798059766688e-06 0 3.4412195572476892e-06 2.4790419917272111e-06 0 1.2658922765221189e-06 3.2646110288917222e-06 0 3.3130764803840917e-06 3.4395465119633353e-06 0 1.2658922765221189e-06 3.2646110288917222e-06 0 3.4412195572476892e-06 2.4790419917272115e-06 0 3.3130764803840917e-06 3.4395465119633353e-06 0 1.4679007695331381e-06 3.7361736090114059e-06 0 1.2658922765221189e-06 3.2646110288917222e-06 0 3.3130764803840917e-06 3.4395465119633353e-06 0 4.8256323555045764e-06 2.9146896212511759e-06 0 4.5263729044888544e-06 3.3863979913722294e-06 0 3.3130764803840917e-06 3.4395465119633353e-06 0 3.4412195572476892e-06 2.4790419917272115e-06 0 4.8256323555045764e-06 2.9146896212511759e-06 0 3.4412195572476892e-06 2.4790419917272115e-06 0 6.0719492831509205e-06 2.0762123376948939e-06 0 4.8256323555045764e-06 2.9146896212511759e-06 0 6.2235710415269717e-06 3.013864096334901e-06 0 4.8256323555045764e-06 2.9146896212511759e-06 0 6.0719492831509205e-06 2.0762123376948939e-06 0 6.2235710415269717e-06 3.013864096334901e-06 0 4.5263729044888544e-06 3.3863979913722294e-06 0 4.8256323555045764e-06 2.9146896212511759e-06 0 5.0955073956311111e-06 3.2599122676374491e-06 0 4.5263729044888544e-06 3.3863979913722294e-06 0 6.2235710415269717e-06 3.013864096334901e-06 0 5.0955073956311111e-06 3.2599122676374491e-06 0 2.9108345865851109e-06 3.5698930016442904e-06 0 4.5263729044888544e-06 3.3863979913722294e-06 0 5.0955073956311111e-06 3.2599122676374491e-06 0 3.3725307085321263e-06 2.8682196105651108e-06 0 2.9108345865851109e-06 3.5698930016442904e-06 0 3.3130764803840917e-06 3.4395465119633353e-06 0 4.5263729044888536e-06 3.3863979913722294e-06 0 2.9108345865851109e-06 3.5698930016442904e-06 0 3.3130764803840917e-06 3.4395465119633353e-06 0 2.9108345865851109e-06 3.5698930016442904e-06 0 1.4679007695331381e-06 3.7361736090114059e-06 0 7.3549316101735587e-07 3.6320224717757644e-06 0 1.4679007695331381e-06 3.7361736090114059e-06 0 2.9108345865851109e-06 3.5698930016442904e-06 0 7.3549316101735587e-07 3.6320224717757644e-06 0 -1.6435810135731105e-07 3.7513076257219321e-06 0 1.4679007695331381e-06 3.7361736090114059e-06 0 -5.7761645573019636e-07 3.6728526008302185e-06 0 1.2658922765221189e-06 3.2646110288917222e-06 0 1.4679007695331381e-06 3.7361736090114059e-06 0 -5.7761645573019636e-07 3.6728526008302185e-06 0 1.4679007695331381e-06 3.7361736090114059e-06 0 -1.6435810135731105e-07 3.7513076257219321e-06 0 2.9979425602467052e-07 2.0961626249857988e-06 0 -5.7127112365703876e-08 3.3000328683548953e-06 0 1.2643538082915391e-06 3.1348039645038893e-06 0 7.3549316101735587e-07 3.6320224717757644e-06 0 -5.7127112365703903e-08 3.3000328683548953e-06 0 -1.6435810135731105e-07 3.7513076257219321e-06 0 7.3549316101735587e-07 3.6320224717757644e-06 0 1.2643538082915391e-06 3.1348039645038893e-06 0 -5.7127112365703876e-08 3.3000328683548953e-06 0 7.3549316101735587e-07 3.6320224717757644e-06 0 2.9108345865851109e-06 3.5698930016442904e-06 0 1.2643538082915391e-06 3.1348039645038893e-06 0 2.9979425602467052e-07 2.0961626249857988e-06 0 1.2643538082915391e-06 3.1348039645038893e-06 0 7.8904784980591968e-07 1.8189594745796035e-06 0 1.9647129830734337e-06 2.757339445982272e-06 0 7.8904784980591968e-07 1.8189594745796035e-06 0 1.2643538082915391e-06 3.1348039645038893e-06 0 1.9647129830734337e-06 2.757339445982272e-06 0 1.2643538082915391e-06 3.1348039645038893e-06 0 2.9108345865851109e-06 3.5698930016442904e-06 0 1.9647129830734337e-06 2.757339445982272e-06 0 2.9108345865851109e-06 3.5698930016442904e-06 0 3.3725307085321263e-06 2.8682196105651108e-06 0 1.9647129830734337e-06 2.757339445982272e-06 0 3.3725307085321263e-06 2.8682196105651108e-06 0 1.3578615182084623e-06 1.7126003070211564e-06 0 1.9647129830734337e-06 2.757339445982272e-06 0 1.3578615182084623e-06 1.7126003070211562e-06 0 7.8904784980591968e-07 1.8189594745796035e-06 0 9.2419130041222111e-10 8.3530432307242829e-10 0 7.8904784980591968e-07 1.8189594745796035e-06 0 1.3578615182084623e-06 1.7126003070211564e-06 0 9.2419130041222111e-10 8.3530432307242829e-10 0 5.5104878497721897e-10 8.2972879531229232e-10 0 7.8904784980591968e-07 1.8189594745796035e-06 0 5.5104878497721897e-10 8.2972879531229232e-10 0 2.9979425602467052e-07 2.0961626249857988e-06 0 7.8904784980591968e-07 1.8189594745796035e-06 0 5.5104878497721897e-10 8.2972879531229232e-10 0 -1.8929680784506406e-11 9.4664084319534842e-10 0 2.9979425602467052e-07 2.0961626249857988e-06 0 -1.8929680784506406e-11 9.4664084319534842e-10 0 -2.3817491062189624e-07 1.9200332549038421e-06 0 2.9979425602467052e-07 2.0961626249857988e-06 0 2.8084025038423619e-06 1.8842047821820963e-06 0 4.6429093774212351e-06 2.0288766002807389e-06 0 2.8847657825677523e-06 1.1106986669523787e-06 0 5.6236471615448066e-06 1.4851934846379264e-06 0 2.8847657825677523e-06 1.1106986669523787e-06 0 4.6429093774212351e-06 2.0288766002807389e-06 0 4.6429093774212351e-06 2.0288766002807389e-06 0 2.8084025038423619e-06 1.8842047821820963e-06 0 5.0453233865144934e-06 2.7758315301931536e-06 0 2.8084025038423619e-06 1.8842047821820963e-06 0 3.3725307085321263e-06 2.8682196105651108e-06 0 5.0453233865144934e-06 2.7758315301931536e-06 0 2.8084025038423619e-06 1.8842047821820963e-06 0 1.3578615182084623e-06 1.7126003070211564e-06 0 3.3725307085321263e-06 2.8682196105651108e-06 0 2.8084025038423619e-06 1.8842047821820963e-06 0 1.1623683385615761e-06 1.0500781442969391e-06 0 1.3578615182084623e-06 1.7126003070211564e-06 0 1.4453765318509193e-09 5.5471090141311733e-10 0 9.2419130041222111e-10 8.3530432307242829e-10 0 1.3578615182084623e-06 1.7126003070211564e-06 0 1.4453765318509193e-09 5.5471090141311733e-10 0 1.3578615182084623e-06 1.7126003070211564e-06 0 1.1623683385615763e-06 1.0500781442969393e-06 0 1.7029330469409837e-09 4.6820342122594591e-10 0 1.4453765318509193e-09 5.5471090141311733e-10 0 1.1623683385615763e-06 1.0500781442969393e-06 0 1.7029330469409837e-09 4.6820342122594591e-10 0 1.1623683385615763e-06 1.0500781442969395e-06 0 1.2287082034866613e-06 7.8609635255182702e-07 0 1.8342581267737607e-09 3.9216234080691453e-10 0 1.2287082034866613e-06 7.8609635255182702e-07 0 2.8847657825677523e-06 1.1106986669523787e-06 0 2.8084025038423619e-06 1.8842047821820963e-06 0 2.8847657825677523e-06 1.1106986669523787e-06 0 1.2287082034866613e-06 7.8609635255182702e-07 0 2.8084025038423619e-06 1.8842047821820963e-06 0 1.2287082034866613e-06 7.8609635255182702e-07 0 1.1623683385615763e-06 1.0500781442969393e-06 0 1.8342581267737607e-09 3.9216234080691453e-10 0 1.7029330469409837e-09 4.6820342122594591e-10 0 1.2287082034866613e-06 7.8609635255182702e-07 0 1.8342581267737607e-09 3.9216234080691453e-10 0 2.8847657825677523e-06 1.1106986669523787e-06 0 1.879893559273119e-06 3.2756920996889473e-07 0 1.9747372672804892e-09 -1.191519851522291e-10 0 1.834258126773863e-09 3.9216234080693242e-10 0 1.879893559273119e-06 3.2756920996889473e-07 0 1.9747372672804892e-09 -1.191519851522291e-10 0 1.879893559273119e-06 3.2756920996889473e-07 0 1.4338140843251933e-06 -1.2789849778614219e-07 0 3.5524100030056248e-06 -1.8183710820669662e-08 0 1.4338140843251933e-06 -1.2789849778614219e-07 0 1.879893559273119e-06 3.2756920996889473e-07 0 2.8847657825677523e-06 1.1106986669523787e-06 0 3.8884164294356851e-06 6.3475157545513879e-07 0 1.879893559273119e-06 3.2756920996889473e-07 0 5.6236471615448066e-06 1.4851934846379264e-06 0 3.8884164294356842e-06 6.3475157545513879e-07 0 2.8847657825677523e-06 1.1106986669523787e-06 0 3.5524100030056248e-06 -1.8183710820669662e-08 0 1.879893559273119e-06 3.2756920996889473e-07 0 3.8884164294356842e-06 6.3475157545513879e-07 0 3.5524100030056248e-06 -1.8183710820669662e-08 0 3.8884164294356842e-06 6.3475157545513879e-07 0 5.6228347686032277e-06 2.5093723724312162e-07 0 3.8884164294356842e-06 6.3475157545513879e-07 0 5.6236471615448066e-06 1.4851934846379264e-06 0 5.6228347686032277e-06 2.5093723724312162e-07 0 3.5524100030056248e-06 -1.8183710820669662e-08 0 5.6228347686032277e-06 2.5093723724312162e-07 0 4.7766033240304431e-06 -7.4335297456537251e-07 0 3.5189699053631803e-06 -1.5552935015379745e-06 0 2.0538659202625116e-06 -7.0420660647468849e-07 0 4.7766033240304431e-06 -7.4335297456537251e-07 0 3.5524100030056248e-06 -1.8183710820669662e-08 0 4.7766033240304431e-06 -7.4335297456537251e-07 0 2.0538659202625116e-06 -7.0420660647468849e-07 0 3.5524100030056248e-06 -1.8183710820669662e-08 0 2.0538659202625116e-06 -7.0420660647468849e-07 0 1.4338140843251933e-06 -1.2789849778614219e-07 0 2.0083550031574517e-09 2.383478572165861e-11 0 1.9747372672802266e-09 -1.1915198515220565e-10 0 1.4338140843251933e-06 -1.2789849778614219e-07 0 1.5673997851867275e-09 -6.121117023757871e-10 0 2.0083550031574517e-09 2.383478572165861e-11 0 2.0538659202625116e-06 -7.0420660647468849e-07 0 2.0083550031574517e-09 2.383478572165861e-11 0 1.4338140843251933e-06 -1.2789849778614224e-07 0 2.0538659202625116e-06 -7.0420660647468849e-07 0 1.1595651775106603e-09 -7.7819192877580257e-10 0 1.5673997851867275e-09 -6.121117023757871e-10 0 1.5910519547180011e-06 -1.3736829346650627e-06 0 3.5189699053631803e-06 -1.5552935015379745e-06 0 1.5910519547180013e-06 -1.3736829346650627e-06 0 2.0538659202625116e-06 -7.0420660647468849e-07 0 1.5673997851867275e-09 -6.121117023757871e-10 0 2.0538659202625116e-06 -7.0420660647468849e-07 0 1.5910519547180011e-06 -1.3736829346650627e-06 0 5.1055829995376352e-10 -1.1561609550960064e-09 0 1.1595651775106603e-09 -7.7819192877580257e-10 0 1.0335288231219994e-06 -2.1685564086647109e-06 0 1.1595651775106603e-09 -7.7819192877580257e-10 0 1.5910519547180011e-06 -1.3736829346650627e-06 0 1.0335288231219994e-06 -2.1685564086647109e-06 0 5.1055829995376352e-10 -1.1561609550960064e-09 0 1.0335288231219994e-06 -2.1685564086647109e-06 0 2.4059461244432941e-07 -2.3549364722084957e-06 0 1.0335288231219994e-06 -2.1685564086647109e-06 0 3.4102595424746749e-06 -2.7184217304403961e-06 0 1.3055428945033879e-06 -3.6501538091308059e-06 0 3.05102662072548e-06 -3.5294441553980396e-06 0 1.3055428945033879e-06 -3.6501538091308059e-06 0 3.4102595424746749e-06 -2.7184217304403961e-06 0 1.0335288231219994e-06 -2.1685564086647109e-06 0 1.5910519547180011e-06 -1.3736829346650627e-06 0 3.4102595424746749e-06 -2.7184217304403961e-06 0 3.05102662072548e-06 -3.5294441553980396e-06 0 2.49456377861165e-06 -4.0350565951091477e-06 0 1.3055428945033879e-06 -3.6501538091308059e-06 0 3.5189699053631803e-06 -1.5552935015379745e-06 0 3.4102595424746749e-06 -2.7184217304403961e-06 0 1.5910519547180011e-06 -1.3736829346650627e-06 0 3.5189699053631803e-06 -1.5552935015379745e-06 0 5.5168965293283626e-06 -1.4556764858993593e-06 0 3.4102595424746749e-06 -2.7184217304403961e-06 0 3.5189699053631803e-06 -1.5552935015379745e-06 0 4.776603324030444e-06 -7.4335297456537251e-07 0 5.5168965293283626e-06 -1.4556764858993593e-06 0 7.3626623051525275e-06 -1.8015646848117206e-06 0 3.4102595424746749e-06 -2.7184217304403961e-06 0 5.5168965293283626e-06 -1.4556764858993593e-06 0 7.993672672025135e-06 -2.6461729744401455e-07 0 7.3626623051525275e-06 -1.8015646848117206e-06 0 5.5168965293283626e-06 -1.4556764858993593e-06 0 7.993672672025135e-06 -2.6461729744401455e-07 0 1.0450665546370277e-05 1.1203512753170375e-07 0 7.3626623051525275e-06 -1.8015646848117206e-06 0 7.3626623051525275e-06 -1.8015646848117206e-06 0 5.1033813370727386e-06 -3.0543026021629315e-06 0 3.4102595424746749e-06 -2.7184217304403961e-06 0 3.05102662072548e-06 -3.5294441553980396e-06 0 5.1033813370727386e-06 -3.0543026021629315e-06 0 2.49456377861165e-06 -4.0350565951091477e-06 0 3.05102662072548e-06 -3.5294441553980396e-06 0 3.4102595424746749e-06 -2.7184217304403961e-06 0 5.1033813370727386e-06 -3.0543026021629315e-06 0 7.3626623051525275e-06 -1.8015646848117206e-06 0 6.984095233935839e-06 -2.4810822340970331e-06 0 5.1033813370727386e-06 -3.0543026021629315e-06 0 3.4868388692530423e-06 -3.9485504252353801e-06 0 2.49456377861165e-06 -4.0350565951091477e-06 0 5.1033813370727386e-06 -3.0543026021629315e-06 0 3.4868388692530423e-06 -3.9485504252353801e-06 0 5.1033813370727386e-06 -3.0543026021629315e-06 0 6.984095233935839e-06 -2.4810822340970331e-06 0 3.4868388692530423e-06 -3.9485504252353801e-06 0 6.984095233935839e-06 -2.4810822340970331e-06 0 7.8867800160731082e-06 -2.0424676309598468e-06 0 1.078118408747386e-05 -6.1038314423956724e-07 0 7.8867800160731082e-06 -2.0424676309598468e-06 0 6.984095233935839e-06 -2.4810822340970331e-06 0 1.078118408747386e-05 -6.1038314423956724e-07 0 1.1922477700447118e-05 3.4868357562376774e-07 0 7.8867800160731082e-06 -2.0424676309598468e-06 0 7.9285690164137612e-06 -9.9570850358957483e-07 0 2.9874189479460242e-06 -3.2304843602746846e-06 0 7.8867800160731082e-06 -2.0424676309598468e-06 0 7.9285690164137612e-06 -9.9570850358957483e-07 0 7.8867800160731082e-06 -2.0424676309598468e-06 0 1.1922477700447118e-05 3.4868357562376737e-07 0 1.078118408747386e-05 -6.1038314423956724e-07 0 7.3626623051525275e-06 -1.8015646848117206e-06 0 1.0450665546370277e-05 1.1203512753170375e-07 0 1.078118408747386e-05 -6.1038314423956724e-07 0 6.984095233935839e-06 -2.4810822340970331e-06 0 7.3626623051525275e-06 -1.8015646848117206e-06 0 1.078118408747386e-05 -6.1038314423956724e-07 0 1.0450665546370277e-05 1.1203512753170375e-07 0 1.3524703624465361e-05 1.3865118042334137e-06 0 1.078118408747386e-05 -6.1038314423956724e-07 0 1.3524703624465361e-05 1.3865118042334137e-06 0 1.5527708468859766e-05 2.2951686489227791e-06 0 1.237952318344464e-05 1.6600876404366904e-06 0 1.3524703624465361e-05 1.3865118042334137e-06 0 1.0450665546370277e-05 1.1203512753170375e-07 0 1.5096145377270124e-05 2.6330408933580714e-06 0 1.3524703624465361e-05 1.3865118042334137e-06 0 1.237952318344464e-05 1.6600876404366904e-06 0 1.237952318344464e-05 1.6600876404366904e-06 0 1.0450665546370277e-05 1.1203512753170375e-07 0 9.6961299516321069e-06 8.579611733910487e-07 0 1.0276598019731806e-05 1.9753257575448109e-06 0 1.237952318344464e-05 1.6600876404366902e-06 0 9.6961299516321069e-06 8.579611733910487e-07 0 1.5096145377270124e-05 2.6330408933580714e-06 0 1.237952318344464e-05 1.6600876404366904e-06 0 1.3442984370630626e-05 2.6852893275243696e-06 0 1.0276598019731806e-05 1.9753257575448109e-06 0 1.3442984370630626e-05 2.6852893275243696e-06 0 1.237952318344464e-05 1.6600876404366904e-06 0 1.0276598019731806e-05 1.9753257575448109e-06 0 1.1410017188724366e-05 2.7516034116805971e-06 0 1.3442984370630626e-05 2.6852893275243696e-06 0 1.0276598019731806e-05 1.9753257575448109e-06 0 7.9556854046818657e-06 1.9355983590780442e-06 0 8.8598804148470185e-06 2.5416034475910361e-06 0 1.0276598019731806e-05 1.9753257575448109e-06 0 8.8598804148470185e-06 2.5416034475910361e-06 0 1.1410017188724366e-05 2.7516034116805971e-06 0 1.0276598019731806e-05 1.9753257575448109e-06 0 9.6961299516321069e-06 8.579611733910487e-07 0 7.4958251268599309e-06 9.3406197129032212e-07 0 1.0276598019731806e-05 1.9753257575448109e-06 0 7.4958251268599309e-06 9.3406197129032212e-07 0 7.9556854046818674e-06 1.9355983590780442e-06 0 5.6236471615448066e-06 1.4851934846379264e-06 0 7.9556854046818674e-06 1.9355983590780442e-06 0 7.4958251268599309e-06 9.3406197129032212e-07 0 5.6228347686032277e-06 2.5093723724312162e-07 0 5.6236471615448066e-06 1.4851934846379264e-06 0 7.4958251268599309e-06 9.3406197129032212e-07 0 7.993672672025135e-06 -2.6461729744401455e-07 0 5.6228347686032277e-06 2.5093723724312162e-07 0 7.4958251268599309e-06 9.3406197129032212e-07 0 7.993672672025135e-06 -2.6461729744401455e-07 0 4.7766033240304431e-06 -7.4335297456537251e-07 0 5.6228347686032277e-06 2.5093723724312162e-07 0 7.993672672025135e-06 -2.6461729744401455e-07 0 5.5168965293283626e-06 -1.4556764858993593e-06 0 4.7766033240304431e-06 -7.4335297456537251e-07 0 9.6961299516321069e-06 8.579611733910487e-07 0 1.0450665546370277e-05 1.1203512753170375e-07 0 7.993672672025135e-06 -2.6461729744401455e-07 0 7.993672672025135e-06 -2.6461729744401455e-07 0 7.4958251268599317e-06 9.3406197129032223e-07 0 9.6961299516321069e-06 8.579611733910487e-07 0 -1.2200713454649229e-05 -1.8410601640766757e-06 0 -7.0505956847045932e-06 -1.4401922599922783e-06 0 -6.7948341805659557e-06 -2.819327995976919e-06 0 -4.1113126170306408e-06 -3.3606065603978388e-06 0 -6.7948341805659557e-06 -2.819327995976919e-06 0 -3.1086825232610998e-06 -1.7073793404866344e-06 0 -3.0285247188618162e-06 -3.7980295070141142e-07 0 -3.1086825232610998e-06 -1.7073793404866344e-06 0 -7.0505956847045932e-06 -1.4401922599922783e-06 0 -7.0505956847045932e-06 -1.4401922599922783e-06 0 -3.1086825232610998e-06 -1.7073793404866344e-06 0 -6.7948341805659557e-06 -2.819327995976919e-06 0 -3.0285247188618162e-06 -3.7980295070141142e-07 0 -1.3709424844675438e-06 -5.2331847470536036e-07 0 -3.1086825232610998e-06 -1.7073793404866344e-06 0 -2.3763571005909603e-09 9.7211230294797821e-10 0 -1.3709424844675438e-06 -5.2331847470536036e-07 0 -3.0285247188618162e-06 -3.7980295070141142e-07 0 -2.3763571005909603e-09 9.7211230294797821e-10 0 -2.535453371536791e-09 -9.7777963252438826e-10 0 -1.3709424844675438e-06 -5.2331847470536036e-07 0 -2.535453371536791e-09 -9.7777963252438826e-10 0 -3.1086825232610998e-06 -1.7073793404866344e-06 0 -1.3709424844675438e-06 -5.2331847470536036e-07 0 -2.535453371536791e-09 -9.7777963252438826e-10 0 -1.8496621188066234e-06 -2.1897314068076165e-06 0 -3.1086825232610998e-06 -1.7073793404866344e-06 0 -4.1113126170306408e-06 -3.3606065603978388e-06 0 -3.1086825232610998e-06 -1.7073793404866344e-06 0 -1.849662118806623e-06 -2.1897314068076165e-06 0 -2.535453371536791e-09 -9.7777963252438826e-10 0 -2.2488561735548709e-09 -5.8557890778891951e-10 0 -1.849662118806623e-06 -2.1897314068076165e-06 0 -2.2488561735552906e-09 -5.8557890778941675e-10 0 -9.778479550099491e-10 -1.625671154921146e-09 0 -1.849662118806623e-06 -2.1897314068076165e-06 0 -4.1113126170306408e-06 -3.3606065603978388e-06 0 -1.849662118806623e-06 -2.1897314068076165e-06 0 -1.8064516076416669e-06 -3.3655165176520276e-06 0 -4.1113126170306408e-06 -3.3606065603978388e-06 0 -1.8064516076416669e-06 -3.3655165176520276e-06 0 -3.7221640424010065e-06 -4.4136207409671827e-06 0 -4.1113126170306408e-06 -3.3606065603978388e-06 0 -6.3418710043189558e-06 -4.3100845199838227e-06 0 -6.7948341805659557e-06 -2.819327995976919e-06 0 -9.6874156828660773e-06 -3.6990925301161325e-06 0 -6.7948341805659557e-06 -2.819327995976919e-06 0 -6.3418710043189558e-06 -4.3100845199838227e-06 0 -4.0702291543649307e-06 -5.0392446999800201e-06 0 -6.341871004318955e-06 -4.3100845199838219e-06 0 -3.7221640424010065e-06 -4.4136207409671827e-06 0 -4.1113126170306408e-06 -3.3606065603978388e-06 0 -3.7221640424010065e-06 -4.4136207409671827e-06 0 -6.3418710043189558e-06 -4.3100845199838227e-06 0 -4.0702291543649307e-06 -5.0392446999800201e-06 0 -3.7221640424010065e-06 -4.4136207409671827e-06 0 -2.0627111541843823e-06 -4.6097856568098964e-06 0 -3.6206609052232812e-07 -3.8751207205383879e-06 0 -2.0627111541843823e-06 -4.6097856568098964e-06 0 -1.8064516076416669e-06 -3.3655165176520276e-06 0 -1.8064516076416669e-06 -3.3655165176520276e-06 0 -2.0627111541843819e-06 -4.6097856568098964e-06 0 -3.7221640424010065e-06 -4.4136207409671827e-06 0 -9.778479550099491e-10 -1.625671154921146e-09 0 -4.2218155734025152e-07 -2.1970941045028728e-06 0 -1.8064516076416669e-06 -3.3655165176520276e-06 0 -9.778479550099491e-10 -1.625671154921146e-09 0 -1.8064516076416669e-06 -3.3655165176520281e-06 0 -1.849662118806623e-06 -2.1897314068076165e-06 0 -9.778479550099491e-10 -1.625671154921146e-09 0 -3.1315440635648762e-10 -1.0529999152098769e-09 0 -4.2218155734025152e-07 -2.1970941045028728e-06 0 -3.6206609052232812e-07 -3.8751207205383879e-06 0 -1.8064516076416674e-06 -3.3655165176520276e-06 0 -4.2218155734025152e-07 -2.1970941045028728e-06 0 -3.6206609052232812e-07 -3.8751207205383879e-06 0 -4.2218155734025152e-07 -2.1970941045028728e-06 0 2.4059461244432941e-07 -2.3549364722084957e-06 0 -3.1315440635648762e-10 -1.0529999152098769e-09 0 2.4059461244432941e-07 -2.3549364722084957e-06 0 -4.2218155734025152e-07 -2.1970941045028728e-06 0 -3.1315440635648762e-10 -1.0529999152098769e-09 0 5.1055829995376352e-10 -1.1561609550960064e-09 0 2.4059461244432941e-07 -2.3549364722084957e-06 0 1.0335288231219994e-06 -2.1685564086647109e-06 0 1.3055428945033879e-06 -3.6501538091308059e-06 0 2.4059461244432941e-07 -2.3549364722084957e-06 0 -3.6206609052232812e-07 -3.8751207205383879e-06 0 2.4059461244432941e-07 -2.3549364722084957e-06 0 1.3055428945033879e-06 -3.6501538091308059e-06 0 -3.6206609052232812e-07 -3.8751207205383879e-06 0 -6.8007202545664587e-11 -4.8089853355365292e-06 0 -2.0627111541843823e-06 -4.6097856568098964e-06 0 -3.6206609052232812e-07 -3.8751207205383879e-06 0 1.3055428945033879e-06 -3.6501538091308059e-06 0 -6.8007202545664587e-11 -4.8089853355365292e-06 0 -6.8007202545664587e-11 -4.8089853355365292e-06 0 1.3055428945033879e-06 -3.6501538091308059e-06 0 2.49456377861165e-06 -4.0350565951091477e-06 0 3.4868388692530423e-06 -3.9485504252353801e-06 0 -6.8007202545664587e-11 -4.8089853355365292e-06 0 2.49456377861165e-06 -4.0350565951091477e-06 0 3.4868388692530423e-06 -3.9485504252353801e-06 0 -1.5547891751512322e-06 -4.8824618582552023e-06 0 -6.8007202545664587e-11 -4.8089853355365292e-06 0 3.4868388692530423e-06 -3.9485504252353801e-06 0 7.8867800160731082e-06 -2.0424676309598468e-06 0 2.9874189479460242e-06 -3.2304843602746846e-06 0 -1.797853535647003e-06 -3.8011476548893856e-06 0 2.9874189479460242e-06 -3.2304843602746846e-06 0 -8.9395244959548303e-07 -1.8662550064414722e-06 0 -1.797853535647003e-06 -3.8011476548893856e-06 0 -1.5547891751512322e-06 -4.8824618582552023e-06 0 2.9874189479460242e-06 -3.2304843602746846e-06 0 3.4868388692530423e-06 -3.9485504252353801e-06 0 2.9874189479460242e-06 -3.2304843602746846e-06 0 -1.5547891751512322e-06 -4.8824618582552023e-06 0 -1.797853535647003e-06 -3.8011476548893856e-06 0 -6.8563701636589709e-06 -4.5778514579129086e-06 0 -1.5547891751512322e-06 -4.8824618582552023e-06 0 -1.797853535647003e-06 -3.8011476548893856e-06 0 -8.9395244959548303e-07 -1.8662550064414722e-06 0 -6.9380358067352034e-06 -2.9833923049823487e-06 0 -1.797853535647003e-06 -3.8011476548893856e-06 0 -6.9380358067352034e-06 -2.9833923049823487e-06 0 -6.8563701636589709e-06 -4.5778514579129086e-06 0 -4.0702291543649307e-06 -5.0392446999800201e-06 0 -1.5547891751512322e-06 -4.8824618582552023e-06 0 -6.8563701636589709e-06 -4.5778514579129086e-06 0 -4.0702291543649307e-06 -5.0392446999800201e-06 0 -6.8563701636589709e-06 -4.5778514579129086e-06 0 -7.9111970835164371e-06 -4.5564114451789535e-06 0 -4.0702291543649307e-06 -5.0392446999800201e-06 0 -6.8007202545664587e-11 -4.8089853355365292e-06 0 -1.5547891751512322e-06 -4.8824618582552023e-06 0 -4.0702291543649307e-06 -5.0392446999800201e-06 0 -2.0627111541843823e-06 -4.6097856568098956e-06 0 -6.8007202545664587e-11 -4.8089853355365292e-06 0 -4.0702291543649307e-06 -5.0392446999800201e-06 0 -7.9111970835164371e-06 -4.5564114451789535e-06 0 -6.3418710043189558e-06 -4.3100845199838227e-06 0 -9.6874156828660773e-06 -3.6990925301161325e-06 0 -6.3418710043189558e-06 -4.3100845199838227e-06 0 -7.9111970835164371e-06 -4.5564114451789535e-06 0 -1.2210330496064565e-05 -3.6372222342681051e-06 0 -9.6874156828660756e-06 -3.6990925301161325e-06 0 -7.9111970835164371e-06 -4.5564114451789535e-06 0 -1.2210330496064565e-05 -3.6372222342681051e-06 0 -7.9111970835164371e-06 -4.5564114451789535e-06 0 -6.8563701636589709e-06 -4.5778514579129086e-06 0 -1.2210330496064565e-05 -3.6372222342681051e-06 0 -6.8563701636589709e-06 -4.5778514579129086e-06 0 -1.4380306375798002e-05 -2.2005027054223534e-06 0 -6.8563701636589709e-06 -4.5778514579129086e-06 0 -6.9380358067352034e-06 -2.9833923049823491e-06 0 -1.4380306375798002e-05 -2.2005027054223534e-06 0 -1.2210330496064565e-05 -3.6372222342681051e-06 0 -1.4380306375798e-05 -2.2005027054223534e-06 0 -1.8872235220418645e-05 -1.4973148522883018e-06 0 -1.2210330496064565e-05 -3.6372222342681051e-06 0 -1.8872235220418645e-05 -1.4973148522883018e-06 0 -1.4537147617721794e-05 -2.6726556045904367e-06 0 -2.3871228782765443e-05 1.4913504570961761e-06 0 -1.8872235220418645e-05 -1.4973148522883018e-06 0 -1.4380306375798002e-05 -2.2005027054223534e-06 0 -2.6004728459377506e-05 1.7946391556845932e-06 0 -1.8487706227228076e-05 -8.1390239483488782e-07 0 -1.8872235220418645e-05 -1.4973148522883018e-06 0 -1.8487706227228076e-05 -8.1390239483488782e-07 0 -1.4537147617721794e-05 -2.6726556045904367e-06 0 -1.8872235220418645e-05 -1.4973148522883018e-06 0 -1.8487706227228076e-05 -8.1390239483488782e-07 0 -1.2200713454649229e-05 -1.8410601640766757e-06 0 -1.4537147617721794e-05 -2.6726556045904367e-06 0 -1.2210330496064565e-05 -3.6372222342681051e-06 0 -1.4537147617721794e-05 -2.6726556045904367e-06 0 -9.6874156828660773e-06 -3.6990925301161325e-06 0 -1.2200713454649229e-05 -1.8410601640766757e-06 0 -9.6874156828660773e-06 -3.6990925301161325e-06 0 -1.4537147617721794e-05 -2.6726556045904367e-06 0 -1.2200713454649229e-05 -1.8410601640766757e-06 0 -6.7948341805659565e-06 -2.8193279959769194e-06 0 -9.6874156828660773e-06 -3.6990925301161325e-06 0 -4.483450940295623e-05 1.4759547488273074e-05 0 -3.1359741920518371e-05 7.6303066125242984e-06 0 -3.9313943623366993e-05 1.4667867415581412e-05 0 -5.6587612035465798e-05 2.6186569163106304e-05 0 -4.483450940295623e-05 1.4759547488273074e-05 0 -3.9313943623366993e-05 1.4667867415581412e-05 0 -2.7082240750599692e-05 1.1240408623540346e-05 0 -3.9313943623366993e-05 1.4667867415581412e-05 0 -3.1359741920518371e-05 7.6303066125242984e-06 0 -2.7082240750599692e-05 1.1240408623540346e-05 0 -3.9209397059911416e-05 2.1608926429520616e-05 0 -3.9313943623366993e-05 1.4667867415581412e-05 0 -4.483450940295623e-05 1.4759547488273074e-05 0 -3.4661676375091839e-05 6.7344511906024469e-06 0 -3.1359741920518371e-05 7.6303066125242984e-06 0 -3.4661676375091839e-05 6.7344511906024469e-06 0 -2.6004728459377506e-05 1.7946391556845932e-06 0 -2.3871228782765443e-05 1.4913504570961761e-06 0 -2.6004728459377506e-05 1.7946391556845932e-06 0 -1.8872235220418645e-05 -1.4973148522883018e-06 0 -2.3871228782765443e-05 1.4913504570961761e-06 0 -3.4661676375091839e-05 6.7344511906024469e-06 0 -2.3871228782765443e-05 1.4913504570961761e-06 0 -3.1359741920518371e-05 7.6303066125242984e-06 0 -2.3871228782765443e-05 1.4913504570961761e-06 0 -1.7991814845929996e-05 2.9597374737536057e-06 0 -3.1359741920518371e-05 7.6303066125242984e-06 0 -1.1536733592993988e-05 -7.5586574825287394e-07 0 -1.7991814845929996e-05 2.9597374737536066e-06 0 -1.4380306375798002e-05 -2.2005027054223534e-06 0 -2.3871228782765443e-05 1.4913504570961761e-06 0 -1.4380306375798002e-05 -2.2005027054223534e-06 0 -1.7991814845929996e-05 2.9597374737536066e-06 0 -1.1536733592993988e-05 -7.5586574825287394e-07 0 -1.4380306375798002e-05 -2.2005027054223534e-06 0 -6.9380358067352034e-06 -2.9833923049823487e-06 0 -2.7082240750599692e-05 1.1240408623540346e-05 0 -1.7991814845929996e-05 2.9597374737536066e-06 0 -1.6836547061634748e-05 9.9937775496357047e-06 0 -2.7082240750599692e-05 1.1240408623540346e-05 0 -3.1359741920518371e-05 7.6303066125242984e-06 0 -1.7991814845929996e-05 2.9597374737536066e-06 0 -2.7082240750599692e-05 1.1240408623540346e-05 0 -1.6836547061634748e-05 9.993777549635703e-06 0 -2.457389790764446e-05 1.9379623535010238e-05 0 -1.6836547061634748e-05 9.9937775496357047e-06 0 -6.959808124290335e-06 4.9909887532094775e-06 0 -7.3600178831457333e-06 1.5682213535909979e-05 0 -6.959808124290335e-06 4.9909887532094775e-06 0 1.1916205870008472e-06 7.6889530806542928e-06 0 -7.3600178831457333e-06 1.5682213535909979e-05 0 -6.959808124290335e-06 4.9909887532094775e-06 0 1.4058520284517379e-07 1.7597643915287391e-06 0 1.1916205870008472e-06 7.6889530806542928e-06 0 -6.959808124290335e-06 4.9909887532094775e-06 0 -1.6836547061634748e-05 9.9937775496357047e-06 0 -1.7991814845929996e-05 2.9597374737536066e-06 0 -6.959808124290335e-06 4.9909887532094775e-06 0 -1.7991814845929996e-05 2.9597374737536066e-06 0 -6.5457774879297943e-06 4.0349189789554742e-07 0 -1.1536733592993988e-05 -7.5586574825287394e-07 0 -6.5457774879297943e-06 4.0349189789554742e-07 0 -1.7991814845929996e-05 2.9597374737536066e-06 0 -1.1536733592993988e-05 -7.5586574825287394e-07 0 -6.9380358067352034e-06 -2.9833923049823487e-06 0 -6.5457774879297943e-06 4.0349189789554742e-07 0 -8.9395244959548303e-07 -1.8662550064414722e-06 0 -6.5457774879297943e-06 4.0349189789554747e-07 0 -6.9380358067352034e-06 -2.9833923049823487e-06 0 -8.9395244959548303e-07 -1.8662550064414722e-06 0 1.4058520284517255e-07 1.7597643915287387e-06 0 -6.5457774879297943e-06 4.0349189789554742e-07 0 -6.959808124290335e-06 4.9909887532094775e-06 0 -6.5457774879297934e-06 4.0349189789554715e-07 0 1.4058520284517379e-07 1.7597643915287391e-06 0 -8.9395244959548303e-07 -1.8662550064414722e-06 0 4.9767611473847725e-06 -3.31743255096571e-07 0 1.4058520284517379e-07 1.7597643915287391e-06 0 7.4007192246966249e-06 4.2510982898068242e-06 0 1.4058520284517379e-07 1.7597643915287391e-06 0 4.9767611473847716e-06 -3.3174325509657089e-07 0 -8.9395244959548303e-07 -1.8662550064414722e-06 0 2.9874189479460242e-06 -3.2304843602746846e-06 0 4.9767611473847716e-06 -3.3174325509657089e-07 0 7.9285690164137612e-06 -9.9570850358957483e-07 0 1.0841467430424118e-05 1.7238961724742669e-06 0 4.9767611473847716e-06 -3.3174325509657089e-07 0 7.9285690164137612e-06 -9.9570850358957483e-07 0 4.9767611473847716e-06 -3.31743255096571e-07 0 2.9874189479460242e-06 -3.2304843602746846e-06 0 7.4007192246966249e-06 4.2510982898068242e-06 0 4.9767611473847708e-06 -3.3174325509657148e-07 0 1.0841467430424118e-05 1.7238961724742669e-06 0 7.4007192246966249e-06 4.2510982898068242e-06 0 1.0841467430424118e-05 1.7238961724742669e-06 0 1.5730108289884201e-05 7.0092442715563947e-06 0 7.4007192246966249e-06 4.2510982898068242e-06 0 1.1916205870008472e-06 7.6889530806542928e-06 0 1.4058520284517379e-07 1.7597643915287391e-06 0 7.4007192246966249e-06 4.2510982898068242e-06 0 9.2264635005283205e-06 1.1777173837134794e-05 0 1.1916205870008472e-06 7.6889530806542928e-06 0 7.4007192246966249e-06 4.2510982898068242e-06 0 1.5730108289884201e-05 7.0092442715563947e-06 0 9.2264635005283239e-06 1.1777173837134794e-05 0 2.1165347660630724e-05 1.3622506468174118e-05 0 1.5464651357383465e-05 1.9293713532147609e-05 0 9.2264635005283239e-06 1.1777173837134794e-05 0 2.1165347660630724e-05 1.3622506468174118e-05 0 9.2264635005283239e-06 1.1777173837134794e-05 0 1.5730108289884201e-05 7.0092442715563947e-06 0 -7.3600178831457333e-06 1.5682213535909979e-05 0 9.2264635005283222e-06 1.1777173837134795e-05 0 4.0431774307733997e-06 2.1747519688805692e-05 0 -7.3600178831457333e-06 1.5682213535909979e-05 0 1.1916205870008472e-06 7.6889530806542928e-06 0 9.2264635005283239e-06 1.1777173837134794e-05 0 9.2264635005283239e-06 1.1777173837134794e-05 0 1.5464651357383465e-05 1.9293713532147609e-05 0 4.0431774307733997e-06 2.1747519688805692e-05 0 1.1119076758874803e-05 3.279458496796879e-05 0 1.5464651357383465e-05 1.9293713532147609e-05 0 2.659915207586272e-05 2.3312295669160297e-05 0 1.1119076758874803e-05 3.279458496796879e-05 0 2.659915207586272e-05 2.3312295669160297e-05 0 2.4040269582240551e-05 4.7644625007549506e-05 0 1.1119076758874803e-05 3.279458496796879e-05 0 2.4040269582240551e-05 4.7644625007549506e-05 0 1.0133249902936697e-05 5.2426020441058272e-05 0 1.1119076758874803e-05 3.279458496796879e-05 0 1.0133249902936694e-05 5.2426020441058266e-05 0 -5.2966551457416348e-06 5.5655650857807287e-05 0 1.1119076758874803e-05 3.279458496796879e-05 0 -1.0142439129666273e-05 3.4602710073206829e-05 0 4.0431774307733997e-06 2.1747519688805692e-05 0 1.1119076758874803e-05 3.279458496796879e-05 0 4.0431774307734014e-06 2.1747519688805688e-05 0 1.5464651357383465e-05 1.9293713532147609e-05 0 1.1119076758874803e-05 3.279458496796879e-05 0 -5.2966551457416348e-06 5.5655650857807287e-05 0 -1.0142439129666273e-05 3.4602710073206829e-05 0 -2.6900467070819192e-05 5.7295496049860611e-05 0 -1.0142439129666273e-05 3.4602710073206829e-05 0 -5.2966551457416348e-06 5.5655650857807287e-05 0 -2.6900467070819192e-05 5.7295496049860611e-05 0 -2.30121643910607e-05 3.1054064397850331e-05 0 -1.0142439129666273e-05 3.4602710073206829e-05 0 -7.3600178831457333e-06 1.5682213535909979e-05 0 -1.0142439129666268e-05 3.4602710073206829e-05 0 -2.3012164391060707e-05 3.1054064397850331e-05 0 -7.3600178831457333e-06 1.5682213535909979e-05 0 -2.3012164391060707e-05 3.1054064397850331e-05 0 -2.457389790764446e-05 1.9379623535010238e-05 0 -7.3600178831457333e-06 1.5682213535909979e-05 0 4.0431774307733997e-06 2.1747519688805695e-05 0 -1.0142439129666273e-05 3.4602710073206829e-05 0 -7.3600178831457333e-06 1.5682213535909979e-05 0 -2.457389790764446e-05 1.9379623535010238e-05 0 -1.6836547061634748e-05 9.9937775496357047e-06 0 -2.7082240750599692e-05 1.1240408623540346e-05 0 -2.457389790764446e-05 1.9379623535010238e-05 0 -3.9209397059911416e-05 2.1608926429520616e-05 0 -3.7010840654492286e-05 3.244648260929253e-05 0 -3.9209397059911416e-05 2.1608926429520616e-05 0 -2.457389790764446e-05 1.9379623535010238e-05 0 -3.7010840654492286e-05 3.244648260929253e-05 0 -2.457389790764446e-05 1.9379623535010238e-05 0 -2.3012164391060707e-05 3.1054064397850331e-05 0 -3.7010840654492286e-05 3.244648260929253e-05 0 -2.3012164391060707e-05 3.1054064397850331e-05 0 -3.9418539993338362e-05 4.7007238586577509e-05 0 -2.6900467070819192e-05 5.7295496049860611e-05 0 -3.9418539993338362e-05 4.7007238586577509e-05 0 -2.3012164391060707e-05 3.1054064397850331e-05 0 -5.6563237409042322e-05 7.1406900094341414e-05 0 -5.5487747567611078e-05 4.8212100505202792e-05 0 -3.9418539993338362e-05 4.7007238586577509e-05 0 -2.6900467070819192e-05 5.7295496049860611e-05 0 -5.6563237409042322e-05 7.1406900094341414e-05 0 -3.9418539993338362e-05 4.7007238586577509e-05 0 -3.7010840654492286e-05 3.244648260929253e-05 0 -3.9418539993338362e-05 4.7007238586577509e-05 0 -5.5487747567611078e-05 4.8212100505202792e-05 0 -3.7010840654492286e-05 3.244648260929253e-05 0 -5.5487747567611078e-05 4.8212100505202792e-05 0 -5.15897815885289e-05 3.3263226433107348e-05 0 -8.1541001479844537e-05 6.4848961098833263e-05 0 -5.5487747567611078e-05 4.8212100505202792e-05 0 -5.6563237409042322e-05 7.1406900094341414e-05 0 -8.1541001479844537e-05 6.4848961098833263e-05 0 -6.9232127846451406e-05 4.2913396547230559e-05 0 -5.5487747567611078e-05 4.8212100505202792e-05 0 -6.9232127846451406e-05 4.2913396547230559e-05 0 -5.15897815885289e-05 3.3263226433107348e-05 0 -5.5487747567611078e-05 4.8212100505202792e-05 0 -6.9232127846451406e-05 4.2913396547230559e-05 0 -5.6587612035465798e-05 2.6186569163106304e-05 0 -5.15897815885289e-05 3.3263226433107348e-05 0 -5.6587612035465798e-05 2.6186569163106304e-05 0 -3.9209397059911416e-05 2.1608926429520616e-05 0 -5.15897815885289e-05 3.3263226433107348e-05 0 -3.7010840654492286e-05 3.244648260929253e-05 0 -5.15897815885289e-05 3.3263226433107348e-05 0 -3.9209397059911416e-05 2.1608926429520616e-05 0 -5.6587612035465798e-05 2.6186569163106304e-05 0 -3.9313943623366993e-05 1.4667867415581412e-05 0 -3.9209397059911416e-05 2.1608926429520616e-05 0 1.8662267844639611e-05 4.9314554014350721e-06 0 2.108431144719935e-05 6.5485845964424027e-06 0 1.8685259234400712e-05 4.7258136698786672e-06 0 2.2356820467876982e-05 7.4825468053115279e-06 0 1.8685259234400712e-05 4.7258136698786672e-06 0 2.108431144719935e-05 6.5485845964424027e-06 0 2.2356820467876982e-05 7.4825468053115279e-06 0 2.108431144719935e-05 6.5485845964424027e-06 0 2.4647609284797168e-05 9.3364144989700797e-06 0 1.8662267844639611e-05 4.9314554014350721e-06 0 1.9919735595530014e-05 5.3979682777599383e-06 0 2.108431144719935e-05 6.5485845964424027e-06 0 1.7418712148971478e-05 2.9669199543929535e-06 0 1.9919735595530014e-05 5.3979682777599383e-06 0 1.6661671018845373e-05 3.7933768596133425e-06 0 1.8662267844639611e-05 4.9314554014350721e-06 0 1.6661671018845373e-05 3.7933768596133425e-06 0 1.9919735595530014e-05 5.3979682777599383e-06 0 1.7418712148971478e-05 2.9669199543929535e-06 0 1.6661671018845373e-05 3.7933768596133425e-06 0 1.5114405235790692e-05 2.2013595324167253e-06 0 1.8662267844639611e-05 4.9314554014350721e-06 0 1.6164814173817808e-05 3.685301918263756e-06 0 1.6661671018845373e-05 3.7933768596133425e-06 0 1.3853233489410448e-05 3.0577401035676551e-06 0 1.6661671018845373e-05 3.7933768596133425e-06 0 1.6164814173817808e-05 3.685301918263756e-06 0 1.3526596586883992e-05 2.5096301260105103e-06 0 1.6661671018845373e-05 3.7933768596133425e-06 0 1.3853233489410448e-05 3.0577401035676551e-06 0 1.3853233489410448e-05 3.0577401035676551e-06 0 1.3442984370630628e-05 2.6852893275243696e-06 0 1.1410017188724366e-05 2.7516034116805971e-06 0 1.3853233489410448e-05 3.0577401035676551e-06 0 1.6164814173817808e-05 3.685301918263756e-06 0 1.3442984370630626e-05 2.6852893275243696e-06 0 1.5096145377270124e-05 2.6330408933580714e-06 0 1.3442984370630626e-05 2.6852893275243696e-06 0 1.6164814173817808e-05 3.685301918263756e-06 0 1.8662267844639611e-05 4.9314554014350721e-06 0 1.8685259234400712e-05 4.7258136698786672e-06 0 1.6164814173817808e-05 3.685301918263756e-06 0 1.5096145377270124e-05 2.6330408933580714e-06 0 1.6164814173817808e-05 3.685301918263756e-06 0 1.8685259234400712e-05 4.7258136698786672e-06 0 1.5096145377270124e-05 2.6330408933580714e-06 0 1.8685259234400712e-05 4.7258136698786672e-06 0 1.5527708468859766e-05 2.2951686489227791e-06 0 1.5096145377270124e-05 2.6330408933580714e-06 0 1.5527708468859762e-05 2.2951686489227787e-06 0 1.3524703624465361e-05 1.3865118042334137e-06 0 1.078118408747386e-05 -6.1038314423956724e-07 0 1.5527708468859766e-05 2.2951686489227791e-06 0 1.1922477700447118e-05 3.4868357562376737e-07 0 1.6065100074883187e-05 3.6411901595733642e-06 0 1.5527708468859766e-05 2.2951686489227791e-06 0 1.8957528339430381e-05 4.9645287125730902e-06 0 1.6065100074883187e-05 3.6411901595733642e-06 0 1.1922477700447118e-05 3.4868357562376747e-07 0 1.5527708468859766e-05 2.2951686489227791e-06 0 1.5527708468859766e-05 2.2951686489227791e-06 0 1.8685259234400712e-05 4.7258136698786672e-06 0 1.8957528339430381e-05 4.9645287125730902e-06 0 7.9285690164137612e-06 -9.9570850358957483e-07 0 1.1922477700447118e-05 3.4868357562376737e-07 0 1.0841467430424118e-05 1.7238961724742669e-06 0 1.6065100074883187e-05 3.6411901595733642e-06 0 1.0841467430424116e-05 1.7238961724742667e-06 0 1.1922477700447118e-05 3.4868357562376737e-07 0 1.6065100074883187e-05 3.6411901595733642e-06 0 1.5730108289884201e-05 7.0092442715563947e-06 0 1.0841467430424118e-05 1.7238961724742669e-06 0 1.6065100074883187e-05 3.6411901595733642e-06 0 2.199904764973467e-05 8.3988422327788991e-06 0 1.5730108289884201e-05 7.0092442715563947e-06 0 2.1165347660630724e-05 1.3622506468174118e-05 0 1.5730108289884201e-05 7.0092442715563947e-06 0 2.199904764973467e-05 8.3988422327788991e-06 0 2.2356820467876982e-05 7.4825468053115279e-06 0 1.8957528339430381e-05 4.9645287125730902e-06 0 1.8685259234400712e-05 4.7258136698786672e-06 0 1.6065100074883187e-05 3.6411901595733642e-06 0 1.8957528339430381e-05 4.9645287125730902e-06 0 2.199904764973467e-05 8.3988422327788991e-06 0 2.2356820467876982e-05 7.4825468053115279e-06 0 2.199904764973467e-05 8.3988422327788991e-06 0 1.8957528339430381e-05 4.9645287125730902e-06 0 2.2356820467876982e-05 7.4825468053115279e-06 0 2.6127617618654467e-05 1.1191607271148754e-05 0 2.199904764973467e-05 8.3988422327788991e-06 0 2.2356820467876982e-05 7.4825468053115279e-06 0 2.4647609284797168e-05 9.3364144989700797e-06 0 2.6127617618654467e-05 1.1191607271148754e-05 0 2.199904764973467e-05 8.3988422327788991e-06 0 2.6127617618654467e-05 1.1191607271148754e-05 0 3.0588498481303475e-05 1.6443982581854925e-05 0 2.9172171619973469e-05 1.3108638066793533e-05 0 3.0588498481303475e-05 1.6443982581854925e-05 0 2.6127617618654467e-05 1.1191607271148754e-05 0 2.9172171619973469e-05 1.3108638066793533e-05 0 2.4647609284797168e-05 9.3364144989700797e-06 0 2.5444376358080164e-05 9.1442326964742339e-06 0 2.9172171619973469e-05 1.3108638066793533e-05 0 2.6127617618654464e-05 1.1191607271148752e-05 0 2.4647609284797168e-05 9.3364144989700797e-06 0 2.1165347660630724e-05 1.3622506468174118e-05 0 2.199904764973467e-05 8.3988422327788991e-06 0 3.0588498481303475e-05 1.6443982581854925e-05 0 2.1165347660630724e-05 1.3622506468174118e-05 0 3.0588498481303475e-05 1.6443982581854925e-05 0 2.659915207586272e-05 2.3312295669160297e-05 0 2.1165347660630724e-05 1.3622506468174118e-05 0 2.659915207586272e-05 2.3312295669160297e-05 0 1.5464651357383465e-05 1.9293713532147609e-05 0 4.4242043508264937e-05 2.7514431506851488e-05 0 2.659915207586272e-05 2.3312295669160297e-05 0 3.0588498481303475e-05 1.6443982581854925e-05 0 4.4242043508264937e-05 2.7514431506851488e-05 0 2.4040269582240551e-05 4.7644625007549506e-05 0 2.659915207586272e-05 2.3312295669160297e-05 0 4.4242043508264937e-05 2.7514431506851488e-05 0 3.0588498481303475e-05 1.6443982581854925e-05 0 3.3198752465030975e-05 1.7541166647400818e-05 0 2.9172171619973469e-05 1.3108638066793533e-05 0 2.7123123795696829e-05 9.5605840777281774e-06 0 3.3198752465030975e-05 1.7541166647400818e-05 0 2.9172171619973469e-05 1.3108638066793533e-05 0 2.5444376358080164e-05 9.1442326964742339e-06 0 2.7123123795696829e-05 9.5605840777281774e-06 0 2.9172171619973469e-05 1.3108638066793533e-05 0 3.3198752465030975e-05 1.7541166647400818e-05 0 3.0588498481303475e-05 1.6443982581854925e-05 0 2.8828953938106115e-05 5.1706661961061943e-06 0 3.3198752465030975e-05 1.7541166647400818e-05 0 2.7123123795696829e-05 9.5605840777281774e-06 0 2.8828953938106115e-05 5.1706661961061943e-06 0 2.7123123795696829e-05 9.5605840777281774e-06 0 2.5279802445756493e-05 -8.9139080304747624e-07 0 2.2795902331127956e-05 4.4277364012096324e-06 0 2.5279802445756493e-05 -8.9139080304747624e-07 0 2.7123123795696829e-05 9.5605840777281774e-06 0 2.2795902331127956e-05 4.4277364012096324e-06 0 2.7123123795696829e-05 9.5605840777281774e-06 0 2.5444376358080164e-05 9.1442326964742339e-06 0 2.2684814477724189e-05 7.3066646827792232e-06 0 2.5444376358080164e-05 9.1442326964742339e-06 0 2.4647609284797168e-05 9.3364144989700797e-06 0 2.5444376358080164e-05 9.1442326964742339e-06 0 2.2684814477724189e-05 7.3066646827792232e-06 0 2.2795902331127956e-05 4.4277364012096324e-06 0 2.2684814477724189e-05 7.3066646827792232e-06 0 2.0054700686557286e-05 3.7097520806635015e-06 0 2.2795902331127956e-05 4.4277364012096324e-06 0 2.2684814477724189e-05 7.3066646827792232e-06 0 1.9919735595530014e-05 5.3979682777599383e-06 0 2.0054700686557286e-05 3.7097520806635011e-06 0 2.2684814477724189e-05 7.3066646827792232e-06 0 2.108431144719935e-05 6.5485845964424027e-06 0 1.9919735595530014e-05 5.3979682777599383e-06 0 2.2684814477724189e-05 7.3066646827792232e-06 0 2.4647609284797168e-05 9.3364144989700797e-06 0 2.108431144719935e-05 6.5485845964424027e-06 0 1.7418712148971478e-05 2.9669199543929535e-06 0 2.0054700686557286e-05 3.7097520806635011e-06 0 1.9919735595530014e-05 5.3979682777599383e-06 0 1.7418712148971478e-05 2.9669199543929535e-06 0 1.6696345915702211e-05 -2.3494569568076813e-07 0 2.0054700686557286e-05 3.7097520806635011e-06 0 2.2795902331127956e-05 4.4277364012096324e-06 0 1.9147753607722682e-05 -1.005239750380486e-06 0 2.1884012254124845e-05 -7.0314763650885582e-06 0 1.6594011234659965e-05 -4.9510519408944334e-06 0 1.9147753607722682e-05 -1.005239750380486e-06 0 1.6696345915702211e-05 -2.3494569568076813e-07 0 1.6696345915702211e-05 -2.3494569568076813e-07 0 1.9147753607722682e-05 -1.005239750380486e-06 0 2.0054700686557286e-05 3.7097520806635011e-06 0 2.2795902331127956e-05 4.4277364012096324e-06 0 2.0054700686557286e-05 3.7097520806635011e-06 0 1.9147753607722682e-05 -1.005239750380486e-06 0 1.6594011234659965e-05 -4.9510519408944334e-06 0 1.8629733075035212e-05 -9.1832092448891395e-06 0 1.9147753607722682e-05 -1.005239750380486e-06 0 2.1884012254124845e-05 -7.0314763650885582e-06 0 1.9147753607722682e-05 -1.005239750380486e-06 0 1.8629733075035212e-05 -9.1832092448891395e-06 0 2.1884012254124845e-05 -7.0314763650885582e-06 0 1.8629733075035212e-05 -9.1832092448891395e-06 0 2.3145780400756105e-05 -1.4774345532576146e-05 0 2.6723656833677771e-05 -1.406038353487381e-05 0 2.1884012254124841e-05 -7.0314763650885591e-06 0 2.3145780400756105e-05 -1.4774345532576146e-05 0 1.9592552002965128e-05 -1.5633306042535187e-05 0 2.3145780400756105e-05 -1.4774345532576146e-05 0 1.8629733075035212e-05 -9.1832092448891395e-06 0 1.9592552002965128e-05 -1.5633306042535187e-05 0 2.5919461273345252e-05 -2.2850849208594615e-05 0 2.3145780400756105e-05 -1.4774345532576146e-05 0 2.6723656833677771e-05 -1.406038353487381e-05 0 2.3145780400756105e-05 -1.4774345532576146e-05 0 2.5919461273345252e-05 -2.2850849208594618e-05 0 1.9592552002965128e-05 -1.5633306042535187e-05 0 2.0217221900643215e-05 -2.1722449910634586e-05 0 2.5919461273345252e-05 -2.2850849208594618e-05 0 3.9674891633028722e-05 -2.7568373448908585e-05 0 3.5180890057993229e-05 -1.9860674190886393e-05 0 3.3438434120847567e-05 -2.5527406552554491e-05 0 2.6723656833677771e-05 -1.406038353487381e-05 0 3.3438434120847567e-05 -2.5527406552554491e-05 0 3.5180890057993229e-05 -1.9860674190886393e-05 0 2.6723656833677771e-05 -1.406038353487381e-05 0 2.5919461273345252e-05 -2.2850849208594618e-05 0 3.3438434120847567e-05 -2.5527406552554491e-05 0 2.6723656833677771e-05 -1.406038353487381e-05 0 3.5180890057993222e-05 -1.9860674190886393e-05 0 3.0122927278642631e-05 -6.6855922915777985e-06 0 2.2795902331127956e-05 4.4277364012096324e-06 0 2.1884012254124848e-05 -7.0314763650885565e-06 0 2.5279802445756493e-05 -8.9139080304747624e-07 0 2.6723656833677771e-05 -1.406038353487381e-05 0 3.0122927278642631e-05 -6.685592291577796e-06 0 2.5279802445756493e-05 -8.9139080304747624e-07 0 2.6723656833677771e-05 -1.406038353487381e-05 0 2.5279802445756493e-05 -8.9139080304747624e-07 0 2.1884012254124845e-05 -7.0314763650885582e-06 0 2.8828953938106115e-05 5.1706661961061943e-06 0 2.5279802445756493e-05 -8.9139080304747624e-07 0 3.0122927278642631e-05 -6.6855922915777985e-06 0 2.8828953938106115e-05 5.1706661961061943e-06 0 3.3985216377676397e-05 4.8000601229618076e-06 0 3.3198752465030975e-05 1.7541166647400818e-05 0 2.8828953938106115e-05 5.1706661961061943e-06 0 3.0122927278642631e-05 -6.6855922915777977e-06 0 3.3985216377676397e-05 4.8000601229618067e-06 0 4.4242043508264937e-05 2.7514431506851488e-05 0 3.3198752465030975e-05 1.7541166647400822e-05 0 3.3985216377676397e-05 4.8000601229618067e-06 0 4.8454647944087958e-05 -6.5662584677223373e-06 0 3.3985216377676397e-05 4.8000601229618067e-06 0 3.9755446823076546e-05 -1.4538977662194442e-05 0 3.9755446823076546e-05 -1.4538977662194442e-05 0 3.3985216377676397e-05 4.8000601229618067e-06 0 3.0122927278642631e-05 -6.6855922915777985e-06 0 2.4040269582240551e-05 4.7644625007549506e-05 0 4.4242043508264937e-05 2.7514431506851488e-05 0 3.5046290285535623e-05 8.2500895546779176e-05 0 4.4242043508264937e-05 2.7514431506851488e-05 0 3.3985216377676397e-05 4.8000601229618067e-06 0 4.8454647944087958e-05 -6.5662584677223373e-06 0 2.2434113459857275e-05 2.3827618240887644e-05 0 6.3391334746356831e-05 4.0118885275243761e-05 0 4.4242043508264937e-05 2.7514431506851488e-05 0 6.3529508713058123e-05 8.0817919160817495e-05 0 3.5046290285535623e-05 8.2500895546779176e-05 0 7.3506899600559597e-05 0.00011900310371876068 0 3.3258066684568179e-05 0.00011494823537725806 0 3.5046290285535623e-05 8.2500895546779176e-05 0 6.3391334746356831e-05 4.0118885275243761e-05 0 6.0281612875179285e-05 4.8625179542649339e-05 0 4.8454647944087958e-05 -6.5662584677223373e-06 0 3.9755446823076546e-05 -1.4538977662194442e-05 0 4.9565880878794526e-05 -1.9253910374692284e-05 0 6.3529508713058123e-05 8.0817919160817495e-05 0 7.3506899600559597e-05 0.00011900310371876068 0 3.5046290285535623e-05 8.2500895546779176e-05 0 6.0281612875179285e-05 4.8625179542649339e-05 0 6.7220382856688081e-05 6.4307462978440869e-05 0 4.9565880878794526e-05 -1.9253910374692284e-05 0 4.4524109386349502e-05 -2.4746140423554122e-05 0 5.1309502850243859e-05 -2.6907054381696464e-05 0 7.3506899600559597e-05 0.00011900310371876068 0 5.5609238889622923e-05 0.00014235895114186959 0 3.3258066684568179e-05 0.00011494823537725806 0 3.9755446823076546e-05 -1.4538977662194442e-05 0 3.0122927278642631e-05 -6.6855922915777985e-06 0 3.5180890057993229e-05 -1.9860674190886393e-05 0 4.9565880878794526e-05 -1.9253910374692284e-05 0 3.9755446823076546e-05 -1.453897766219444e-05 0 4.4524109386349502e-05 -2.4746140423554122e-05 0 3.9755446823076546e-05 -1.4538977662194442e-05 0 3.5180890057993229e-05 -1.9860674190886393e-05 0 4.4524109386349502e-05 -2.4746140423554122e-05 0 3.9674891633028722e-05 -2.7568373448908585e-05 0 4.4524109386349502e-05 -2.4746140423554122e-05 0 3.5180890057993229e-05 -1.9860674190886393e-05 0 3.9674891633028722e-05 -2.7568373448908585e-05 0 4.6780507111128428e-05 -3.2233110760105502e-05 0 4.4524109386349502e-05 -2.4746140423554122e-05 0 5.1309502850243859e-05 -2.6907054381696464e-05 0 4.4524109386349502e-05 -2.4746140423554119e-05 0 4.6780507111128428e-05 -3.2233110760105502e-05 0 5.1309502850243859e-05 -2.6907054381696464e-05 0 4.6780507111128428e-05 -3.2233110760105502e-05 0 5.4213344759403701e-05 -3.2658458024787475e-05 0 3.9674891633028722e-05 -2.7568373448908585e-05 0 4.0109019321240874e-05 -3.2766382034079255e-05 0 4.6780507111128428e-05 -3.2233110760105502e-05 0 3.1974299325560149e-05 0.00015329871010188751 0 5.5609238889622923e-05 0.00014235895114186959 0 6.1595708668122159e-05 0.0001658793303540891 0 8.1813243728387581e-05 0.00015455658456288595 0 6.1595708668122159e-05 0.0001658793303540891 0 5.5609238889622923e-05 0.00014235895114186959 0 7.3506899600559597e-05 0.00011900310371876068 0 8.1813243728387581e-05 0.00015455658456288595 0 5.5609238889622923e-05 0.00014235895114186959 0 6.7220382856688081e-05 6.4307462978440869e-05 0 7.1577949375596755e-05 7.8939632402939285e-05 0 8.1813243728387581e-05 0.00015455658456288595 0 8.9114740979050457e-05 0.00019091455971957167 0 6.1595708668122159e-05 0.0001658793303540891 0 8.9114740979050444e-05 0.00019091455971957167 0 5.0325649640202815e-05 0.00018660835133935943 0 6.1595708668122159e-05 0.0001658793303540891 0 8.9114740979050444e-05 0.00019091455971957167 0 6.348529399353513e-05 0.00021168588313399083 0 5.0325649640202815e-05 0.00018660835133935943 0 8.9114740979050444e-05 0.00019091455971957167 0 9.59378258469305e-05 0.00022822307927240003 0 6.348529399353513e-05 0.00021168588313399083 0 5.4213344759403701e-05 -3.2658458024787475e-05 0 5.191487818439622e-05 -3.7585827564986828e-05 0 5.7775895383705806e-05 -3.7784497458009114e-05 0 7.1577949375596755e-05 7.8939632402939285e-05 0 7.6655574225907198e-05 9.523994834822314e-05 0 9.59378258469305e-05 0.00022822307927240003 0 5.7585088872412025e-05 0.00023790652028301008 0 6.348529399353513e-05 0.00021168588313399083 0 4.5714282725438868e-05 -3.7738311429550473e-05 0 5.191487818439622e-05 -3.7585827564986828e-05 0 4.6780507111128428e-05 -3.2233110760105502e-05 0 4.5714282725438868e-05 -3.7738311429550473e-05 0 4.6780507111128428e-05 -3.2233110760105502e-05 0 4.0109019321240874e-05 -3.2766382034079255e-05 0 5.4213344759403701e-05 -3.2658458024787475e-05 0 4.6780507111128428e-05 -3.2233110760105502e-05 0 5.191487818439622e-05 -3.7585827564986828e-05 0 4.5714282725438868e-05 -3.7738311429550473e-05 0 4.7793184347592924e-05 -4.23421598969476e-05 0 5.191487818439622e-05 -3.7585827564986828e-05 0 5.5423441000467922e-05 -4.3432073496407575e-05 0 5.191487818439622e-05 -3.7585827564986828e-05 0 4.7793184347592924e-05 -4.23421598969476e-05 0 4.5714282725438868e-05 -3.7738311429550473e-05 0 3.8571146371562922e-05 -3.8609801237409946e-05 0 4.7793184347592924e-05 -4.23421598969476e-05 0 4.4498986699260803e-05 -4.5908336548968559e-05 0 4.7793184347592924e-05 -4.23421598969476e-05 0 3.8571146371562922e-05 -3.8609801237409946e-05 0 4.5714282725438868e-05 -3.7738311429550473e-05 0 4.0109019321240874e-05 -3.2766382034079255e-05 0 3.8571146371562922e-05 -3.8609801237409946e-05 0 3.4189785290250335e-05 -3.2055165995134336e-05 0 2.9178568575614752e-05 -3.1735431189640803e-05 0 3.8571146371562922e-05 -3.8609801237409946e-05 0 3.4189785290250335e-05 -3.2055165995134336e-05 0 3.8571146371562922e-05 -3.8609801237409946e-05 0 4.0109019321240874e-05 -3.2766382034079255e-05 0 3.0519498770856177e-05 -3.7518213731129538e-05 0 3.7023521086238159e-05 -4.582188417738345e-05 0 3.8571146371562922e-05 -3.8609801237409946e-05 0 3.0519498770856177e-05 -3.7518213731129538e-05 0 2.7908638166459467e-05 -4.062807345009644e-05 0 3.7023521086238159e-05 -4.582188417738345e-05 0 3.0519498770856177e-05 -3.7518213731129538e-05 0 2.9178568575614752e-05 -3.1735431189640803e-05 0 2.4486777766700506e-05 -3.3660548190523987e-05 0 3.0519498770856177e-05 -3.7518213731129538e-05 0 3.8571146371562922e-05 -3.8609801237409946e-05 0 2.9178568575614752e-05 -3.1735431189640803e-05 0 3.4189785290250335e-05 -3.2055165995134336e-05 0 2.5919461273345255e-05 -2.2850849208594618e-05 0 2.9178568575614752e-05 -3.1735431189640803e-05 0 2.3836079980493006e-05 -2.7726383603360775e-05 0 2.4486777766700506e-05 -3.3660548190523987e-05 0 2.9178568575614752e-05 -3.1735431189640803e-05 0 2.3836079980493006e-05 -2.7726383603360775e-05 0 2.9178568575614752e-05 -3.1735431189640803e-05 0 2.5919461273345252e-05 -2.2850849208594618e-05 0 2.3836079980493006e-05 -2.7726383603360775e-05 0 2.5919461273345252e-05 -2.2850849208594618e-05 0 2.0217221900643215e-05 -2.1722449910634586e-05 0 3.4189785290250335e-05 -3.2055165995134336e-05 0 3.3438434120847567e-05 -2.5527406552554491e-05 0 2.5919461273345252e-05 -2.2850849208594618e-05 0 3.9674891633028722e-05 -2.7568373448908585e-05 0 3.3438434120847567e-05 -2.5527406552554491e-05 0 4.0109019321240874e-05 -3.2766382034079255e-05 0 3.4189785290250335e-05 -3.2055165995134336e-05 0 4.0109019321240874e-05 -3.2766382034079255e-05 0 3.3438434120847567e-05 -2.5527406552554491e-05 0 -0.00010260239956972743 0.00012344227255942073 0 -7.5620819766859549e-05 0.00010409081816640282 0 -7.485037962476583e-05 0.00013506048611763789 0 -0.00011030027164111764 0.00015826560913029537 0 -0.00010260239956972743 0.00012344227255942073 0 -7.485037962476583e-05 0.00013506048611763789 0 -5.3094512586512478e-05 0.00010415660611403756 0 -7.485037962476583e-05 0.00013506048611763789 0 -7.5620819766859549e-05 0.00010409081816640282 0 -0.00010260239956972743 0.00012344227255942073 0 -9.2330800566223548e-05 9.1761661215183847e-05 0 -7.5620819766859549e-05 0.00010409081816640282 0 -9.2330800566223548e-05 9.1761661215183847e-05 0 -8.1541001479844537e-05 6.4848961098833263e-05 0 -5.6563237409042322e-05 7.1406900094341414e-05 0 -5.3094512586512478e-05 0.00010415660611403756 0 -7.5620819766859549e-05 0.00010409081816640282 0 -5.6563237409042322e-05 7.1406900094341414e-05 0 -9.2330800566223548e-05 9.1761661215183847e-05 0 -5.6563237409042322e-05 7.1406900094341414e-05 0 -7.5620819766859549e-05 0.00010409081816640282 0 -5.3094512586512478e-05 0.00010415660611403756 0 -5.6563237409042322e-05 7.1406900094341414e-05 0 -3.6306090797904352e-05 8.4699786767688945e-05 0 -2.6900467070819192e-05 5.7295496049860611e-05 0 -3.6306090797904352e-05 8.4699786767688945e-05 0 -5.6563237409042322e-05 7.1406900094341414e-05 0 -1.6356712217878339e-05 8.9204780784028409e-05 0 -3.4116351417451396e-05 0.00010692634191534468 0 -3.6306090797904352e-05 8.4699786767688945e-05 0 -5.3094512586512478e-05 0.00010415660611403756 0 -3.6306090797904352e-05 8.4699786767688945e-05 0 -3.4116351417451396e-05 0.00010692634191534468 0 -5.3094512586512478e-05 0.00010415660611403756 0 -3.4116351417451396e-05 0.00010692634191534468 0 -4.5284142122992203e-05 0.00013225374262178325 0 -5.3094512586512478e-05 0.00010415660611403756 0 -4.5284142122992203e-05 0.00013225374262178325 0 -7.485037962476583e-05 0.00013506048611763789 0 -1.9191502858294619e-05 0.00012760630224927324 0 -4.5284142122992203e-05 0.00013225374262178325 0 -3.4116351417451396e-05 0.00010692634191534468 0 -1.9191502858294619e-05 0.00012760630224927324 0 6.4499321206424808e-06 0.00011952598594026802 0 -3.773154297595483e-07 0.00015465059978863349 0 -1.9191502858294619e-05 0.00012760630224927324 0 -1.6356712217878339e-05 8.9204780784028409e-05 0 6.4499321206424808e-06 0.00011952598594026802 0 1.0094422242629775e-05 7.9353562487705879e-05 0 6.4499321206424782e-06 0.00011952598594026803 0 -1.6356712217878339e-05 8.9204780784028409e-05 0 -1.9191502858294619e-05 0.00012760630224927324 0 -3.4116351417451396e-05 0.00010692634191534468 0 -1.6356712217878339e-05 8.9204780784028409e-05 0 -2.6900467070819192e-05 5.7295496049860611e-05 0 -1.6356712217878339e-05 8.9204780784028409e-05 0 -3.6306090797904352e-05 8.4699786767688945e-05 0 -2.6900467070819192e-05 5.7295496049860611e-05 0 -5.2966551457416356e-06 5.5655650857807287e-05 0 -1.6356712217878339e-05 8.9204780784028409e-05 0 1.0094422242629775e-05 7.9353562487705879e-05 0 -1.6356712217878339e-05 8.9204780784028409e-05 0 -5.2966551457416348e-06 5.5655650857807287e-05 0 1.0094422242629775e-05 7.9353562487705879e-05 0 -5.2966551457416373e-06 5.5655650857807294e-05 0 1.0133249902936697e-05 5.2426020441058272e-05 0 1.0094422242629775e-05 7.9353562487705879e-05 0 1.0133249902936694e-05 5.2426020441058272e-05 0 2.4040269582240551e-05 4.7644625007549506e-05 0 1.0094422242629775e-05 7.9353562487705879e-05 0 2.4040269582240551e-05 4.7644625007549506e-05 0 3.5046290285535623e-05 8.2500895546779176e-05 0 1.0094422242629775e-05 7.9353562487705879e-05 0 3.5046290285535623e-05 8.2500895546779176e-05 0 3.3258066684568179e-05 0.00011494823537725806 0 1.0094422242629775e-05 7.9353562487705879e-05 0 3.3258066684568179e-05 0.00011494823537725806 0 6.4499321206424808e-06 0.00011952598594026802 0 3.1974299325560149e-05 0.00015329871010188751 0 6.4499321206424808e-06 0.00011952598594026802 0 3.3258066684568179e-05 0.00011494823537725806 0 3.1974299325560149e-05 0.00015329871010188751 0 3.3258066684568179e-05 0.00011494823537725806 0 5.5609238889622923e-05 0.00014235895114186959 0 3.1974299325560149e-05 0.00015329871010188751 0 -3.7731542975955089e-07 0.00015465059978863346 0 6.4499321206424808e-06 0.00011952598594026802 0 3.1974299325560149e-05 0.00015329871010188751 0 1.9338392344299593e-05 0.00017786417552412192 0 -3.773154297595483e-07 0.00015465059978863349 0 3.1974299325560149e-05 0.00015329871010188751 0 5.0325649640202815e-05 0.00018660835133935943 0 1.9338392344299593e-05 0.00017786417552412192 0 3.1974299325560149e-05 0.00015329871010188751 0 6.1595708668122159e-05 0.0001658793303540891 0 5.0325649640202815e-05 0.00018660835133935943 0 5.0325649640202815e-05 0.00018660835133935943 0 6.348529399353513e-05 0.00021168588313399083 0 2.5477417345869096e-05 0.00021248130437680326 0 6.348529399353513e-05 0.00021168588313399083 0 5.7585088872412025e-05 0.00023790652028301008 0 2.5477417345869096e-05 0.00021248130437680326 0 2.5477417345869096e-05 0.00021248130437680326 0 1.9338392344299593e-05 0.00017786417552412192 0 5.0325649640202815e-05 0.00018660835133935943 0 2.5477417345869096e-05 0.00021248130437680326 0 -9.7629568486982877e-06 0.00018271157683017787 0 1.9338392344299593e-05 0.00017786417552412192 0 2.5477417345869096e-05 0.00021248130437680326 0 -1.4399377709177554e-05 0.00021567103933080935 0 -9.7629568486982877e-06 0.00018271157683017787 0 2.5477417345869096e-05 0.00021248130437680326 0 -4.9543265792953554e-06 0.00024779846999669773 0 -1.4399377709177554e-05 0.00021567103933080935 0 -4.1504103545671062e-05 0.00021285985199473318 0 -9.7629568486982894e-06 0.00018271157683017787 0 -1.4399377709177554e-05 0.00021567103933080935 0 -4.1504103545671062e-05 0.00021285985199473318 0 -3.2586945351828831e-05 0.00016532901750249135 0 -9.7629568486982877e-06 0.00018271157683017787 0 -9.7629568486982877e-06 0.00018271157683017787 0 -3.2586945351828831e-05 0.00016532901750249135 0 -3.773154297595483e-07 0.00015465059978863349 0 -9.7629568486982877e-06 0.00018271157683017787 0 -3.773154297595483e-07 0.00015465059978863349 0 1.9338392344299593e-05 0.00017786417552412192 0 -1.9191502858294619e-05 0.00012760630224927324 0 -3.773154297595483e-07 0.00015465059978863349 0 -3.2586945351828831e-05 0.00016532901750249135 0 -1.9191502858294619e-05 0.00012760630224927324 0 -3.2586945351828831e-05 0.00016532901750249135 0 -4.5284142122992203e-05 0.00013225374262178325 0 -5.8826132428215762e-05 0.00015928873085535345 0 -4.5284142122992203e-05 0.00013225374262178325 0 -3.2586945351828831e-05 0.00016532901750249135 0 -5.8826132428215762e-05 0.00015928873085535345 0 -7.485037962476583e-05 0.00013506048611763789 0 -4.5284142122992203e-05 0.00013225374262178325 0 -5.8826132428215762e-05 0.00015928873085535345 0 -5.9484671110725743e-05 0.00018567311309303173 0 -8.4858373220577063e-05 0.00017909935335055577 0 -5.8826132428215762e-05 0.00015928873085535345 0 -3.2586945351828831e-05 0.00016532901750249135 0 -5.9484671110725743e-05 0.00018567311309303173 0 -4.1504103545671062e-05 0.00021285985199473318 0 -5.948467111072575e-05 0.00018567311309303173 0 -3.2586945351828831e-05 0.00016532901750249135 0 -4.1504103545671062e-05 0.00021285985199473318 0 -1.4399377709177554e-05 0.00021567103933080935 0 -3.7523126527999232e-05 0.00024803424897537727 0 -4.1504103545671062e-05 0.00021285985199473318 0 -6.3073277617262401e-05 0.00023903064002814896 0 -8.0927247056165882e-05 0.00021374638108276488 0 -4.1504103545671062e-05 0.00021285985199473318 0 -8.0927247056165882e-05 0.00021374638108276488 0 -5.9484671110725743e-05 0.00018567311309303173 0 -8.0927247056165882e-05 0.00021374638108276488 0 -8.4858373220577063e-05 0.00017909935335055577 0 -5.9484671110725743e-05 0.00018567311309303173 0 -0.00012043481318334563 0.00023495578577629187 0 -0.00011635290328554769 0.00019585734632490587 0 -8.0927247056165882e-05 0.00021374638108276488 0 -0.00012043481318334563 0.00023495578577629187 0 -8.0927247056165882e-05 0.00021374638108276488 0 -9.0065690028170967e-05 0.00025058871032153027 0 -0.00011635290328554769 0.00019585734632490587 0 -8.4858373220577063e-05 0.00017909935335055577 0 -8.0927247056165882e-05 0.00021374638108276488 0 -0.00011635290328554769 0.00019585734632490587 0 -0.00011030027164111764 0.00015826560913029537 0 -8.4858373220577063e-05 0.00017909935335055577 0 -5.8826132428215762e-05 0.00015928873085535345 0 -8.4858373220577063e-05 0.00017909935335055577 0 -7.485037962476583e-05 0.00013506048611763789 0 -0.00011030027164111764 0.00015826560913029537 0 -7.485037962476583e-05 0.00013506048611763789 0 -8.4858373220577063e-05 0.00017909935335055577 0 -0.00012515498239572948 0.00031651602420794162 0 -7.3155920613636065e-05 0.00031698994156509011 0 -8.8008604249326276e-05 0.00035706215891763367 0 -0.00012515498239572948 0.00031651602420794162 0 -9.4590868662507038e-05 0.00028670854900245411 0 -7.3155920613636065e-05 0.00031698994156509011 0 -6.5874462510131796e-05 0.00027126207983212364 0 -7.3155920613636065e-05 0.00031698994156509011 0 -9.4590868662507052e-05 0.00028670854900245411 0 -0.00012515498239572948 0.00031651602420794162 0 -0.00012338869504849783 0.00027525623561804773 0 -9.4590868662507052e-05 0.00028670854900245411 0 -0.00012338869504849783 0.00027525623561804773 0 -9.0065690028170967e-05 0.00025058871032153027 0 -9.4590868662507052e-05 0.00028670854900245411 0 -0.00012338869504849783 0.00027525623561804773 0 -0.00012043481318334563 0.00023495578577629187 0 -9.0065690028170967e-05 0.00025058871032153027 0 -8.0927247056165882e-05 0.00021374638108276488 0 -6.3073277617262401e-05 0.00023903064002814896 0 -9.0065690028170967e-05 0.00025058871032153027 0 -6.5874462510131796e-05 0.00027126207983212364 0 -9.4590868662507052e-05 0.00028670854900245411 0 -9.0065690028170967e-05 0.00025058871032153027 0 -6.5874462510131796e-05 0.00027126207983212364 0 -6.3073277617262387e-05 0.00023903064002814896 0 -3.7523126527999232e-05 0.00024803424897537727 0 -6.5874462510131796e-05 0.00027126207983212364 0 -9.0065690028170967e-05 0.00025058871032153027 0 -6.3073277617262401e-05 0.00023903064002814896 0 -4.1504103545671062e-05 0.00021285985199473318 0 -3.7523126527999232e-05 0.00024803424897537727 0 -6.3073277617262401e-05 0.00023903064002814896 0 -6.5874462510131796e-05 0.00027126207983212364 0 -3.7523126527999232e-05 0.00024803424897537727 0 -3.6585441985944551e-05 0.00028298653368226997 0 -7.3155920613636065e-05 0.00031698994156509011 0 -3.6585441985944551e-05 0.00028298653368226997 0 -3.3463248898645802e-05 0.0003200037653593787 0 -6.5874462510131796e-05 0.00027126207983212364 0 -3.6585441985944551e-05 0.00028298653368226997 0 -7.3155920613636065e-05 0.00031698994156509011 0 -4.7752057128836932e-05 0.00036076111222036828 0 -7.3155920613636065e-05 0.00031698994156509011 0 -3.3463248898645802e-05 0.0003200037653593787 0 -7.2776640958057127e-06 0.00029540135217081143 0 -2.772354942900378e-06 0.00034029399577594876 0 -3.3463248898645802e-05 0.0003200037653593787 0 -7.2776640958057127e-06 0.00029540135217081143 0 2.5579707323688424e-05 0.00031129960650225224 0 -2.7723549429003835e-06 0.00034029399577594876 0 -7.2776640958057127e-06 0.00029540135217081143 0 1.6617224324910912e-05 0.0002729993696785701 0 2.5579707323688424e-05 0.00031129960650225224 0 -7.2776640958057127e-06 0.00029540135217081143 0 -3.3463248898645802e-05 0.0003200037653593787 0 -3.6585441985944551e-05 0.00028298653368226997 0 -4.9543265792953554e-06 0.00024779846999669773 0 -3.6585441985944551e-05 0.00028298653368226997 0 -3.7523126527999232e-05 0.00024803424897537727 0 -7.2776640958057127e-06 0.00029540135217081143 0 -3.6585441985944551e-05 0.00028298653368226997 0 -4.9543265792953554e-06 0.00024779846999669773 0 -4.9543265792953554e-06 0.00024779846999669773 0 -3.7523126527999232e-05 0.00024803424897537727 0 -1.4399377709177554e-05 0.00021567103933080935 0 -4.9543265792953554e-06 0.00024779846999669773 0 2.8242201715345932e-05 0.00024899259309295524 0 1.6617224324910912e-05 0.0002729993696785701 0 -7.2776640958057127e-06 0.00029540135217081143 0 -4.9543265792953597e-06 0.00024779846999669773 0 1.6617224324910912e-05 0.0002729993696785701 0 4.6985659557184542e-05 0.00027308118580125909 0 1.6617224324910912e-05 0.0002729993696785701 0 2.8242201715345929e-05 0.00024899259309295524 0 2.5477417345869096e-05 0.00021248130437680326 0 5.7585088872412025e-05 0.00023790652028301008 0 2.8242201715345929e-05 0.00024899259309295524 0 2.5477417345869096e-05 0.00021248130437680326 0 2.8242201715345929e-05 0.00024899259309295524 0 -4.9543265792953554e-06 0.00024779846999669773 0 4.6985659557184542e-05 0.00027308118580125909 0 2.8242201715345929e-05 0.00024899259309295524 0 5.7585088872412025e-05 0.00023790652028301008 0 4.6985659557184542e-05 0.00027308118580125909 0 5.7585088872412025e-05 0.00023790652028301008 0 7.6265801311694125e-05 0.00025824804323717262 0 4.6985659557184542e-05 0.00027308118580125909 0 6.3054966990003637e-05 0.00031564317068478217 0 2.5579707323688424e-05 0.00031129960650225224 0 4.6985659557184542e-05 0.00027308118580125909 0 7.7766965410240669e-05 0.00028449727674271158 0 6.3054966990003637e-05 0.00031564317068478217 0 4.6985659557184542e-05 0.00027308118580125909 0 2.5579707323688424e-05 0.00031129960650225224 0 1.6617224324910912e-05 0.0002729993696785701 0 3.9458596296667304e-05 0.00035742290936761103 0 2.5579707323688424e-05 0.00031129960650225224 0 6.3054966990003637e-05 0.00031564317068478217 0 3.9458596296667304e-05 0.00035742290936761103 0 6.3054966990003637e-05 0.00031564317068478217 0 7.983345522114731e-05 0.00035190612654310176 0 3.9458596296667304e-05 0.00035742290936761103 0 7.6495845333660959e-05 0.00039002586041905182 0 3.6547125351360152e-05 0.000401218060556058 0 3.9458596296667304e-05 0.00035742290936761103 0 7.9833455221147323e-05 0.00035190612654310176 0 7.6495845333660972e-05 0.00039002586041905182 0 7.6495845333660972e-05 0.00039002586041905182 0 6.3589995713809504e-05 0.00041757033714570803 0 3.6547125351360152e-05 0.000401218060556058 0 7.6495845333660972e-05 0.00039002586041905182 0 9.9758505058866463e-05 0.00041181933188187919 0 6.3589995713809504e-05 0.00041757033714570803 0 8.9177153354333047e-05 0.00043880558911984119 0 6.3589995713809504e-05 0.00041757033714570803 0 9.9758505058866463e-05 0.00041181933188187919 0 8.9177153354333047e-05 0.00043880558911984119 0 4.3762418637596267e-05 0.00044136452740569255 0 6.3589995713809504e-05 0.00041757033714570803 0 4.3762418637596267e-05 0.00044136452740569255 0 3.6547125351360152e-05 0.000401218060556058 0 6.3589995713809504e-05 0.00041757033714570803 0 1.9204603803687084e-07 0.00044206335422768849 0 -3.985662416001464e-05 0.00040302033636118763 0 -2.7626986146980094e-06 0.00038778217158476173 0 1.9204603803687084e-07 0.00044206335422768849 0 -2.7626986146980094e-06 0.00038778217158476173 0 3.6547125351360152e-05 0.000401218060556058 0 4.3762418637596267e-05 0.00044136452740569255 0 1.9204603803687084e-07 0.00044206335422768849 0 3.6547125351360152e-05 0.000401218060556058 0 -4.7752057128836932e-05 0.00036076111222036828 0 -2.7723549429003835e-06 0.00034029399577594876 0 -2.7626986146980094e-06 0.00038778217158476173 0 3.9458596296667304e-05 0.00035742290936761103 0 3.6547125351360152e-05 0.000401218060556058 0 -2.7626986146980094e-06 0.00038778217158476173 0 3.9458596296667304e-05 0.00035742290936761103 0 -2.7626986146980094e-06 0.00038778217158476173 0 -2.7723549429003835e-06 0.00034029399577594876 0 3.9458596296667304e-05 0.00035742290936761103 0 -2.7723549429003835e-06 0.00034029399577594876 0 2.5579707323688424e-05 0.00031129960650225224 0 -4.7752057128836932e-05 0.00036076111222036828 0 -3.3463248898645802e-05 0.0003200037653593787 0 -2.7723549429003835e-06 0.00034029399577594876 0 -4.7752057128836932e-05 0.00036076111222036828 0 -8.8008604249326276e-05 0.00035706215891763367 0 -7.3155920613636065e-05 0.00031698994156509011 0 -4.7752057128836932e-05 0.00036076111222036828 0 -3.9856624160014633e-05 0.00040302033636118763 0 -7.9625105292354938e-05 0.00039500646203270294 0 -4.7752057128836932e-05 0.00036076111222036828 0 -7.9625105292354938e-05 0.00039500646203270294 0 -8.8008604249326276e-05 0.00035706215891763367 0 -4.7752057128836932e-05 0.00036076111222036828 0 -2.7626986146980014e-06 0.00038778217158476173 0 -3.9856624160014633e-05 0.00040302033636118763 0 1.9204603803687084e-07 0.00044206335422768849 0 -4.1964315824924725e-05 0.00044226967234367169 0 -3.9856624160014633e-05 0.00040302033636118763 0 -4.1964315824924725e-05 0.00044226967234367169 0 -8.3973111961446452e-05 0.00044233835113996483 0 -6.3492706191329773e-05 0.00042056305642851176 0 -4.1964315824924725e-05 0.00044226967234367169 0 -6.3492706191329773e-05 0.00042056305642851176 0 -3.9856624160014633e-05 0.00040302033636118763 0 -7.9625105292354938e-05 0.00039500646203270294 0 -3.9856624160014633e-05 0.00040302033636118763 0 -6.3492706191329773e-05 0.00042056305642851176 0 -7.9625105292354938e-05 0.00039500646203270294 0 -6.3492706191329773e-05 0.00042056305642851176 0 -9.8183523517181921e-05 0.00041860865348100092 0 -8.3973111961446452e-05 0.00044233835113996483 0 -9.8183523517181921e-05 0.00041860865348100092 0 -6.3492706191329773e-05 0.00042056305642851176 0 -0.00012579110037975528 0.00044269522713068064 0 -9.8183523517181921e-05 0.00041860865348100092 0 -8.3973111961446452e-05 0.00044233835113996483 0 -0.00012579110037975528 0.00044269522713068064 0 -0.00012611361186363619 0.00040067271169144111 0 -9.8183523517181921e-05 0.00041860865348100092 0 -0.00012611361186363619 0.00040067271169144111 0 -7.9625105292354938e-05 0.00039500646203270294 0 -9.8183523517181921e-05 0.00041860865348100092 0 -0.00012611361186363619 0.00040067271169144111 0 -0.00012597364638445929 0.00035860096719211501 0 -8.8008604249326276e-05 0.00035706215891763367 0 -0.00012611361186363619 0.00040067271169144111 0 -8.8008604249326276e-05 0.00035706215891763367 0 -7.9625105292354938e-05 0.00039500646203270294 0 -0.00012597364638445929 0.00035860096719211501 0 -0.00012515498239572948 0.00031651602420794162 0 -8.8008604249326276e-05 0.00035706215891763367 0 4.7654455188263934e-05 -5.9576150968408138e-05 0 4.7745423743204639e-05 -5.174290713332006e-05 0 4.1523594641493552e-05 -5.3833319789634658e-05 0 5.5746683679073096e-05 -5.3140536991406192e-05 0 4.7745423743204639e-05 -5.174290713332006e-05 0 5.5306948302973543e-05 -5.8816822189659251e-05 0 5.5746683679073096e-05 -5.3140536991406192e-05 0 5.1857674201605448e-05 -4.8319434386705198e-05 0 4.7745423743204639e-05 -5.174290713332006e-05 0 4.7654455188263934e-05 -5.9576150968408138e-05 0 5.5306948302973543e-05 -5.8816822189659251e-05 0 4.7745423743204639e-05 -5.174290713332006e-05 0 4.7654455188263934e-05 -5.9576150968408138e-05 0 4.1523594641493552e-05 -5.3833319789634658e-05 0 3.9046139248470378e-05 -5.9782799179690935e-05 0 4.1523594641493552e-05 -5.3833319789634658e-05 0 3.4918997054698353e-05 -5.1800260674820426e-05 0 3.9046139248470378e-05 -5.9782799179690935e-05 0 3.3153215663560163e-05 -5.6491341298491664e-05 0 3.9046139248470378e-05 -5.9782799179690935e-05 0 3.4918997054698353e-05 -5.1800260674820426e-05 0 4.1523594641493552e-05 -5.3833319789634658e-05 0 3.7023521086238159e-05 -4.582188417738345e-05 0 3.4918997054698353e-05 -5.1800260674820426e-05 0 3.1144328942963314e-05 -4.6556200942200887e-05 0 3.4918997054698353e-05 -5.1800260674820426e-05 0 3.7023521086238159e-05 -4.582188417738345e-05 0 3.1144328942963314e-05 -4.6556200942200887e-05 0 3.7023521086238159e-05 -4.582188417738345e-05 0 2.7908638166459467e-05 -4.062807345009644e-05 0 4.4498986699260803e-05 -4.5908336548968559e-05 0 3.8571146371562922e-05 -3.8609801237409946e-05 0 3.7023521086238159e-05 -4.582188417738345e-05 0 4.7745423743204639e-05 -5.174290713332006e-05 0 4.4498986699260803e-05 -4.5908336548968559e-05 0 3.7023521086238159e-05 -4.582188417738345e-05 0 4.1523594641493552e-05 -5.3833319789634658e-05 0 4.7745423743204639e-05 -5.174290713332006e-05 0 3.7023521086238159e-05 -4.582188417738345e-05 0 4.4498986699260803e-05 -4.5908336548968559e-05 0 4.7745423743204639e-05 -5.174290713332006e-05 0 5.1857674201605448e-05 -4.8319434386705198e-05 0 4.4498986699260803e-05 -4.5908336548968559e-05 0 5.1857674201605448e-05 -4.8319434386705198e-05 0 4.7793184347592924e-05 -4.23421598969476e-05 0 5.5423441000467922e-05 -4.3432073496407575e-05 0 4.7793184347592924e-05 -4.23421598969476e-05 0 5.1857674201605448e-05 -4.8319434386705198e-05 0 5.7775895383705806e-05 -3.7784497458009114e-05 0 5.191487818439622e-05 -3.7585827564986828e-05 0 5.5423441000467922e-05 -4.3432073496407575e-05 0 6.2376707075203008e-05 -4.2933637540350343e-05 0 5.5423441000467922e-05 -4.3432073496407575e-05 0 6.0413485465077459e-05 -4.9000275973789948e-05 0 5.5423441000467922e-05 -4.3432073496407575e-05 0 5.1857674201605448e-05 -4.8319434386705198e-05 0 6.0413485465077459e-05 -4.9000275973789948e-05 0 9.59378258469305e-05 0.00022822307927240003 0 7.6265801311694125e-05 0.00025824804323717262 0 5.7585088872412025e-05 0.00023790652028301008 0 9.59378258469305e-05 0.00022822307927240003 0 0.00010258019079162434 0.00026640484385407687 0 7.6265801311694125e-05 0.00025824804323717262 0 5.7775895383705806e-05 -3.7784497458009114e-05 0 5.5423441000467922e-05 -4.3432073496407575e-05 0 6.2376707075203008e-05 -4.2933637540350343e-05 0 7.6655574225907198e-05 9.523994834822314e-05 0 8.2320346251891401e-05 0.00011191213321751361 0 4.6985659557184542e-05 0.00027308118580125909 0 7.6265801311694125e-05 0.00025824804323717262 0 7.7766965410240669e-05 0.00028449727674271158 0 0.00010258019079162434 0.00026640484385407687 0 7.7766965410240669e-05 0.00028449727674271158 0 7.6265801311694125e-05 0.00025824804323717262 0 0.00010936349233687709 0.00030605189830219413 0 6.3054966990003637e-05 0.00031564317068478217 0 7.7766965410240669e-05 0.00028449727674271158 0 8.2320346251891401e-05 0.00011191213321751361 0 8.7344738442474279e-05 0.0001282763669868817 0 6.2376707075203008e-05 -4.2933637540350343e-05 0 6.0413485465077459e-05 -4.9000275973789948e-05 0 6.8106574155195489e-05 -4.8688208936647401e-05 0 0.00010258019079162434 0.00026640484385407687 0 0.00010936349233687709 0.00030605189830219413 0 7.7766965410240669e-05 0.00028449727674271158 0 8.7344738442474279e-05 0.0001282763669868817 0 9.8117389730123224e-05 0.00014630343073499926 0 0.00010936349233687709 0.00030605189830219413 0 7.983345522114731e-05 0.00035190612654310176 0 6.3054966990003637e-05 0.00031564317068478217 0 5.5746683679073096e-05 -5.3140536991406192e-05 0 6.0413485465077459e-05 -4.9000275973789948e-05 0 5.1857674201605448e-05 -4.8319434386705198e-05 0 6.8106574155195489e-05 -4.8688208936647401e-05 0 6.0413485465077459e-05 -4.9000275973789948e-05 0 6.4253709403878207e-05 -5.7043761364561575e-05 0 5.5746683679073096e-05 -5.3140536991406192e-05 0 5.5306948302973543e-05 -5.8816822189659251e-05 0 6.4253709403878207e-05 -5.7043761364561575e-05 0 5.5746683679073096e-05 -5.3140536991406192e-05 0 6.4253709403878207e-05 -5.7043761364561575e-05 0 6.0413485465077459e-05 -4.9000275973789948e-05 0 6.3269707467426879e-05 -6.5459495043616165e-05 0 7.1879955238159888e-05 -6.3168927603412541e-05 0 6.4253709403878207e-05 -5.7043761364561575e-05 0 6.3269707467426879e-05 -6.5459495043616165e-05 0 6.4253709403878207e-05 -5.7043761364561575e-05 0 5.5306948302973543e-05 -5.8816822189659251e-05 0 6.8106574155195489e-05 -4.8688208936647401e-05 0 6.4253709403878207e-05 -5.7043761364561575e-05 0 7.5220826955332202e-05 -5.5605151873072305e-05 0 7.5220826955332202e-05 -5.5605151873072305e-05 0 6.4253709403878207e-05 -5.7043761364561575e-05 0 7.1879955238159888e-05 -6.3168927603412541e-05 0 6.3269707467426879e-05 -6.5459495043616165e-05 0 7.4848447945905872e-05 -7.1792579721246708e-05 0 7.1879955238159888e-05 -6.3168927603412541e-05 0 0.00010936349233687709 0.00030605189830219413 0 0.00011640060984292366 0.00034656099495704149 0 7.983345522114731e-05 0.00035190612654310176 0 9.8117389730123224e-05 0.00014630343073499926 0 9.1565038772780595e-05 0.00016070275636351106 0 7.5220826955332202e-05 -5.5605151873072305e-05 0 7.1879955238159888e-05 -6.3168927603412541e-05 0 8.4120084423519947e-05 -6.472706895584641e-05 0 0.00011640060984292366 0.00034656099495704149 0 0.00012446074954554066 0.0003886286210304737 0 7.983345522114731e-05 0.00035190612654310176 0 0.00012446074954554066 0.0003886286210304737 0 7.6495845333660959e-05 0.00039002586041905177 0 7.983345522114731e-05 0.00035190612654310176 0 0.00012446074954554066 0.0003886286210304737 0 9.9758505058866463e-05 0.00041181933188187919 0 7.6495845333660972e-05 0.00039002586041905182 0 9.1565038772780595e-05 0.00016070275636351106 0 0.00015727210264154183 0.0001786514153971639 0 0.00013462327785047481 0.00043232730985425893 0 9.9758505058866463e-05 0.00041181933188187919 0 0.00012446074954554066 0.0003886286210304737 0 0.00013462327785047481 0.00043232730985425893 0 8.9177153354333047e-05 0.00043880558911984119 0 9.9758505058866463e-05 0.00041181933188187919 0 6.3269707467426879e-05 -6.5459495043616165e-05 0 6.049805619978675e-05 -7.4724192386389532e-05 0 7.4848447945905872e-05 -7.1792579721246708e-05 0 8.4120084423519947e-05 -6.472706895584641e-05 0 7.1879955238159888e-05 -6.3168927603412541e-05 0 7.4848447945905872e-05 -7.1792579721246708e-05 0 9.4115568515211608e-05 -7.7309834683226888e-05 0 8.4120084423519947e-05 -6.472706895584641e-05 0 7.4848447945905872e-05 -7.1792579721246708e-05 0 9.4115568515211608e-05 -7.7309834683226888e-05 0 7.4848447945905872e-05 -7.1792579721246708e-05 0 7.8898218238419336e-05 -8.308102205209481e-05 0 7.8898218238419336e-05 -8.308102205209481e-05 0 7.4848447945905872e-05 -7.1792579721246708e-05 0 6.049805619978675e-05 -7.4724192386389532e-05 0 5.239389429287597e-05 -8.2799491903440199e-05 0 6.049805619978675e-05 -7.4724192386389532e-05 0 5.0010864234520188e-05 -7.0692725280602212e-05 0 6.4828432194201499e-05 -8.442576972164175e-05 0 7.8898218238419336e-05 -8.308102205209481e-05 0 6.049805619978675e-05 -7.4724192386389532e-05 0 5.239389429287597e-05 -8.2799491903440199e-05 0 6.4828432194201499e-05 -8.442576972164175e-05 0 6.049805619978675e-05 -7.4724192386389532e-05 0 6.3269707467426879e-05 -6.5459495043616165e-05 0 5.3623707756869853e-05 -6.5929729905504607e-05 0 6.049805619978675e-05 -7.4724192386389532e-05 0 5.0010864234520188e-05 -7.0692725280602212e-05 0 6.049805619978675e-05 -7.4724192386389532e-05 0 5.3623707756869853e-05 -6.5929729905504607e-05 0 4.7654455188263934e-05 -5.9576150968408138e-05 0 4.3939882389085364e-05 -6.5908674545205452e-05 0 5.3623707756869853e-05 -6.5929729905504607e-05 0 4.7654455188263934e-05 -5.9576150968408138e-05 0 5.3623707756869853e-05 -6.5929729905504607e-05 0 5.5306948302973543e-05 -5.8816822189659251e-05 0 6.3269707467426879e-05 -6.5459495043616165e-05 0 5.5306948302973543e-05 -5.8816822189659251e-05 0 5.3623707756869853e-05 -6.5929729905504607e-05 0 3.8067989612454042e-05 -6.6849230480960255e-05 0 4.3939882389085364e-05 -6.5908674545205452e-05 0 3.9046139248470378e-05 -5.9782799179690935e-05 0 4.7654455188263934e-05 -5.9576150968408138e-05 0 3.9046139248470378e-05 -5.9782799179690935e-05 0 4.3939882389085364e-05 -6.5908674545205452e-05 0 5.0010864234520188e-05 -7.0692725280602212e-05 0 4.3939882389085364e-05 -6.5908674545205452e-05 0 4.3425997749670534e-05 -7.3423709762044864e-05 0 5.0010864234520188e-05 -7.0692725280602212e-05 0 5.3623707756869853e-05 -6.5929729905504607e-05 0 4.3939882389085364e-05 -6.5908674545205452e-05 0 3.8067989612454042e-05 -6.6849230480960255e-05 0 4.3425997749670534e-05 -7.3423709762044864e-05 0 4.3939882389085364e-05 -6.5908674545205452e-05 0 5.239389429287597e-05 -8.2799491903440199e-05 0 5.0010864234520188e-05 -7.0692725280602212e-05 0 4.3425997749670534e-05 -7.3423709762044864e-05 0 4.305401050041669e-05 -7.9940593725943556e-05 0 5.239389429287597e-05 -8.2799491903440199e-05 0 4.3425997749670534e-05 -7.3423709762044864e-05 0 4.305401050041669e-05 -7.9940593725943556e-05 0 4.3425997749670534e-05 -7.3423709762044864e-05 0 3.8117959858861869e-05 -7.3229465226538445e-05 0 3.6160996472008145e-05 -7.6674208534705513e-05 0 4.305401050041669e-05 -7.9940593725943556e-05 0 3.8117959858861869e-05 -7.3229465226538445e-05 0 3.6160996472008145e-05 -7.6674208534705513e-05 0 3.8117959858861869e-05 -7.3229465226538445e-05 0 3.2093526677821926e-05 -6.9077135232307777e-05 0 3.8067989612454042e-05 -6.6849230480960255e-05 0 3.2093526677821926e-05 -6.9077135232307777e-05 0 3.8117959858861869e-05 -7.3229465226538445e-05 0 3.8067989612454042e-05 -6.6849230480960255e-05 0 3.8117959858861869e-05 -7.3229465226538445e-05 0 4.3425997749670534e-05 -7.3423709762044864e-05 0 2.9968086436656079e-05 -7.3616577842374747e-05 0 3.2308096539372995e-05 -7.4204177608578923e-05 0 2.9000664987951145e-05 -7.0760804806567859e-05 0 3.2308096539372995e-05 -7.4204177608578923e-05 0 3.6160996472008145e-05 -7.6674208534705513e-05 0 2.9000664987951145e-05 -7.0760804806567859e-05 0 3.6160996472008145e-05 -7.6674208534705513e-05 0 3.2093526677821926e-05 -6.9077135232307777e-05 0 2.9000664987951145e-05 -7.0760804806567859e-05 0 2.3806238003512259e-05 -6.6617383069212028e-05 0 2.9000664987951145e-05 -7.0760804806567859e-05 0 2.712171009574965e-05 -6.4737505375301517e-05 0 3.2093526677821926e-05 -6.9077135232307777e-05 0 2.712171009574965e-05 -6.4737505375301517e-05 0 2.9000664987951145e-05 -7.0760804806567859e-05 0 2.712171009574965e-05 -6.4737505375301517e-05 0 3.1620638225776277e-05 -6.2068490695254099e-05 0 2.6090757339338289e-05 -5.8973976109570958e-05 0 2.6090757339338289e-05 -5.8973976109570958e-05 0 2.212142157884884e-05 -6.0057350622595564e-05 0 2.712171009574965e-05 -6.4737505375301517e-05 0 2.3806238003512259e-05 -6.6617383069212028e-05 0 2.712171009574965e-05 -6.4737505375301517e-05 0 2.212142157884884e-05 -6.0057350622595564e-05 0 3.8067989612454042e-05 -6.6849230480960255e-05 0 3.1620638225776277e-05 -6.2068490695254099e-05 0 3.2093526677821926e-05 -6.9077135232307777e-05 0 3.2093526677821926e-05 -6.9077135232307777e-05 0 3.1620638225776277e-05 -6.2068490695254099e-05 0 2.712171009574965e-05 -6.4737505375301517e-05 0 3.8067989612454042e-05 -6.6849230480960255e-05 0 3.9046139248470378e-05 -5.9782799179690935e-05 0 3.1620638225776277e-05 -6.2068490695254099e-05 0 3.3153215663560163e-05 -5.6491341298491664e-05 0 3.1620638225776277e-05 -6.2068490695254099e-05 0 3.9046139248470378e-05 -5.9782799179690935e-05 0 3.3153215663560163e-05 -5.6491341298491664e-05 0 3.4918997054698353e-05 -5.1800260674820426e-05 0 2.9789422524911139e-05 -5.159884583191234e-05 0 3.3153215663560163e-05 -5.6491341298491664e-05 0 2.9789422524911142e-05 -5.159884583191234e-05 0 2.8941591809124712e-05 -5.6746866158149024e-05 0 2.5284738057048193e-05 -5.2434432945859515e-05 0 2.8941591809124712e-05 -5.6746866158149024e-05 0 2.9789422524911139e-05 -5.159884583191234e-05 0 3.3153215663560163e-05 -5.6491341298491664e-05 0 2.8941591809124712e-05 -5.6746866158149024e-05 0 3.1620638225776277e-05 -6.2068490695254099e-05 0 2.6090757339338289e-05 -5.8973976109570958e-05 0 2.8941591809124712e-05 -5.6746866158149024e-05 0 2.5284738057048193e-05 -5.2434432945859515e-05 0 2.6090757339338289e-05 -5.8973976109570958e-05 0 3.1620638225776277e-05 -6.2068490695254099e-05 0 2.8941591809124712e-05 -5.6746866158149024e-05 0 2.6090757339338289e-05 -5.8973976109570958e-05 0 2.0638211993808085e-05 -5.1753292180933748e-05 0 2.212142157884884e-05 -6.0057350622595564e-05 0 1.8306622056716949e-05 -5.5801183065937975e-05 0 2.212142157884884e-05 -6.0057350622595564e-05 0 2.0638211993808085e-05 -5.1753292180933748e-05 0 2.6090757339338289e-05 -5.8973976109570958e-05 0 2.5284738057048193e-05 -5.2434432945859515e-05 0 2.0638211993808085e-05 -5.1753292180933748e-05 0 1.9578628414438523e-05 -4.5593764892424337e-05 0 2.5284738057048197e-05 -5.2434432945859515e-05 0 2.5787631803026691e-05 -4.6441624414824037e-05 0 1.9578628414438523e-05 -4.5593764892424337e-05 0 2.0638211993808085e-05 -5.1753292180933748e-05 0 2.5284738057048193e-05 -5.2434432945859515e-05 0 1.9578628414438523e-05 -4.5593764892424337e-05 0 1.3685365772347395e-05 -4.794759314534944e-05 0 2.0638211993808085e-05 -5.1753292180933748e-05 0 1.9578628414438523e-05 -4.5593764892424337e-05 0 2.5787631803026691e-05 -4.6441624414824037e-05 0 2.2748562748251125e-05 -3.9551983766604442e-05 0 2.2748562748251125e-05 -3.9551983766604442e-05 0 2.5787631803026691e-05 -4.6441624414824037e-05 0 2.7908638166459467e-05 -4.062807345009644e-05 0 3.1144328942963314e-05 -4.6556200942200887e-05 0 2.7908638166459467e-05 -4.062807345009644e-05 0 2.5787631803026691e-05 -4.6441624414824037e-05 0 3.1144328942963314e-05 -4.6556200942200887e-05 0 2.5787631803026691e-05 -4.6441624414824037e-05 0 2.9789422524911139e-05 -5.159884583191234e-05 0 3.1144328942963314e-05 -4.6556200942200887e-05 0 2.9789422524911139e-05 -5.159884583191234e-05 0 3.4918997054698353e-05 -5.1800260674820426e-05 0 2.5284738057048193e-05 -5.2434432945859515e-05 0 2.9789422524911139e-05 -5.159884583191234e-05 0 2.5787631803026691e-05 -4.6441624414824037e-05 0 3.9349629897586739e-05 -0.00013537226768486232 0 2.2310677023247575e-05 -0.00012505464921056794 0 2.6286694738113361e-05 -0.00014349558576336419 0 2.0995714505848958e-05 -8.0043357477038265e-05 0 2.391200587460091e-05 -9.4322902637426577e-05 0 3.5902823889201812e-05 -0.00011500485972420234 0 2.2310677023247575e-05 -0.00012505464921056794 0 3.9349629897586739e-05 -0.00013537226768486232 0 6.2778879905241003e-06 -4.5059109844567751e-05 0 8.6528178087218396e-06 -5.3249838431349296e-05 0 1.3685365772347395e-05 -4.794759314534944e-05 0 6.2778879905241003e-06 -4.5059109844567751e-05 0 1.3685365772347395e-05 -4.794759314534944e-05 0 1.0309869741324567e-05 -4.0224738857530618e-05 0 1.9578628414438523e-05 -4.5593764892424337e-05 0 1.4904028896490577e-05 -4.1969001444948996e-05 0 1.3685365772347395e-05 -4.794759314534944e-05 0 1.3685365772347395e-05 -4.794759314534944e-05 0 1.4904028896490577e-05 -4.1969001444948996e-05 0 1.0309869741324567e-05 -4.0224738857530618e-05 0 1.8306622056716949e-05 -5.5801183065937975e-05 0 2.0638211993808085e-05 -5.1753292180933748e-05 0 1.3685365772347395e-05 -4.794759314534944e-05 0 8.6528178087218396e-06 -5.3249838431349296e-05 0 1.3717527139952395e-05 -5.5522272391853825e-05 0 1.3685365772347395e-05 -4.794759314534944e-05 0 1.8306622056716949e-05 -5.5801183065937975e-05 0 1.3685365772347395e-05 -4.794759314534944e-05 0 1.3717527139952395e-05 -5.5522272391853825e-05 0 1.8306622056716949e-05 -5.5801183065937975e-05 0 1.3717527139952395e-05 -5.5522272391853825e-05 0 1.8103261368810132e-05 -6.2162846918330163e-05 0 1.8306622056716949e-05 -5.5801183065937975e-05 0 1.8103261368810132e-05 -6.2162846918330163e-05 0 2.212142157884884e-05 -6.0057350622595564e-05 0 1.197476304792869e-05 -6.1027384156767978e-05 0 1.8103261368810132e-05 -6.2162846918330163e-05 0 1.3717527139952395e-05 -5.5522272391853825e-05 0 1.197476304792869e-05 -6.1027384156767978e-05 0 1.646944376457723e-05 -6.7896409349925608e-05 0 1.8103261368810132e-05 -6.2162846918330163e-05 0 4.2935382859433719e-05 -0.00015668617323200641 0 2.6286694738113361e-05 -0.00014349558576336419 0 1.7720006003881484e-05 -0.00016056113228854024 0 4.2935382859433719e-05 -0.00015668617323200641 0 1.7720006003881481e-05 -0.00016056113228854024 0 2.7922482013602756e-05 -0.00018091719352340694 0 2.712876653998714e-05 -0.00010877331804034999 0 3.2025996638568087e-05 -0.00012341664732313712 0 8.6528178087218396e-06 -5.3249838431349296e-05 0 1.197476304792869e-05 -6.1027384156767978e-05 0 1.3717527139952395e-05 -5.5522272391853825e-05 0 3.9349629897586739e-05 -0.00013537226768486232 0 2.6286694738113361e-05 -0.00014349558576336419 0 4.2935382859433719e-05 -0.00015668617323200641 0 2.391200587460091e-05 -9.4322902637426577e-05 0 2.712876653998714e-05 -0.00010877331804034999 0 4.2935382859433719e-05 -0.00015668617323200641 0 2.7922482013602756e-05 -0.00018091719352340694 0 4.6930915689713778e-05 -0.00017846381714419933 0 3.2025996638568087e-05 -0.00012341664732313712 0 3.4594245511754753e-05 -0.0001366477465511089 0 1.6469443764577234e-05 -6.7896409349925608e-05 0 2.2337334896173513e-05 -7.3212130921773534e-05 0 2.1059979440337129e-05 -6.8232122011237248e-05 0 4.6930915689713778e-05 -0.00017846381714419933 0 2.7922482013602756e-05 -0.00018091719352340694 0 5.163928397435673e-05 -0.00020103190119928721 0 5.163928397435673e-05 -0.00020103190119928721 0 2.7922482013602753e-05 -0.00018091719352340694 0 2.7218118655610395e-05 -0.00020163891716431907 0 2.3806238003512259e-05 -6.6617383069212028e-05 0 2.212142157884884e-05 -6.0057350622595564e-05 0 1.8103261368810132e-05 -6.2162846918330163e-05 0 2.3806238003512259e-05 -6.6617383069212028e-05 0 1.8103261368810132e-05 -6.2162846918330163e-05 0 2.1059979440337129e-05 -6.8232122011237248e-05 0 1.6469443764577234e-05 -6.7896409349925608e-05 0 2.1059979440337129e-05 -6.8232122011237248e-05 0 1.8103261368810132e-05 -6.2162846918330163e-05 0 2.3806238003512259e-05 -6.6617383069212028e-05 0 2.1059979440337129e-05 -6.8232122011237248e-05 0 2.5333855063323805e-05 -7.1244572350484306e-05 0 2.3806238003512259e-05 -6.6617383069212028e-05 0 2.5333855063323805e-05 -7.1244572350484306e-05 0 2.9000664987951145e-05 -7.0760804806567859e-05 0 2.2337334896173513e-05 -7.3212130921773534e-05 0 2.5333855063323805e-05 -7.1244572350484306e-05 0 2.1059979440337129e-05 -6.8232122011237248e-05 0 2.9042040548490327e-05 -7.6087706473704168e-05 0 2.5333855063323805e-05 -7.1244572350484306e-05 0 2.2337334896173513e-05 -7.3212130921773534e-05 0 2.9042040548490327e-05 -7.6087706473704168e-05 0 2.9968086436656079e-05 -7.3616577842374747e-05 0 2.5333855063323805e-05 -7.1244572350484306e-05 0 2.9968086436656079e-05 -7.3616577842374747e-05 0 2.9000664987951145e-05 -7.0760804806567859e-05 0 2.5333855063323805e-05 -7.1244572350484306e-05 0 5.163928397435673e-05 -0.00020103190119928721 0 2.7218118655610395e-05 -0.00020163891716431907 0 3.9581561523258541e-05 -0.00021320137460414062 0 3.4594245511754753e-05 -0.0001366477465511089 0 5.0990487755486809e-05 -0.0001504875072508023 0 5.8110359442372104e-05 -0.00022388140242245036 0 5.163928397435673e-05 -0.00020103190119928721 0 3.9581561523258541e-05 -0.00021320137460414062 0 5.8110359442372104e-05 -0.00022388140242245036 0 3.9581561523258541e-05 -0.00021320137460414062 0 3.47867725619494e-05 -0.00022719344910073191 0 3.47867725619494e-05 -0.00022719344910073191 0 3.9581561523258541e-05 -0.00021320137460414062 0 2.1097955504627831e-05 -0.00021601313506325144 0 1.1188170019968472e-05 -0.00022829656538206133 0 3.47867725619494e-05 -0.00022719344910073191 0 2.1097955504627831e-05 -0.00021601313506325144 0 2.7218118655610395e-05 -0.00020163891716431907 0 6.9913520852365969e-06 -0.00020735739493704167 0 2.1097955504627831e-05 -0.00021601313506325144 0 2.7218118655610395e-05 -0.00020163891716431907 0 2.1097955504627831e-05 -0.00021601313506325144 0 3.9581561523258541e-05 -0.00021320137460414062 0 1.1188170019968472e-05 -0.00022829656538206133 0 2.1097955504627834e-05 -0.00021601313506325147 0 6.9913520852365969e-06 -0.00020735739493704167 0 -1.1283840442766764e-05 -0.00022841141898375549 0 6.9913520852365969e-06 -0.00020735739493704167 0 -1.3157462591440415e-05 -0.0002001141070024526 0 -1.1283840442766764e-05 -0.00022841141898375549 0 -1.3157462591440415e-05 -0.0002001141070024526 0 -3.2050400106145115e-05 -0.00020795668783223225 0 -1.1283840442766764e-05 -0.00022841141898375549 0 1.1188170019968472e-05 -0.00022829656538206133 0 6.9913520852365969e-06 -0.00020735739493704167 0 7.9730921060694397e-06 -0.00018469576094693813 0 -1.3157462591440415e-05 -0.0002001141070024526 0 6.9913520852365969e-06 -0.00020735739493704167 0 7.9730921060694397e-06 -0.00018469576094693813 0 -1.5944588246800715e-05 -0.00017506925263269382 0 -1.3157462591440415e-05 -0.0002001141070024526 0 -3.6261583175699182e-05 -0.00018528826873570305 0 -1.3157462591440415e-05 -0.0002001141070024526 0 -1.5944588246800715e-05 -0.00017506925263269382 0 7.9730921060694397e-06 -0.00018469576094693813 0 -1.6659700192937542e-06 -0.0001635517357820798 0 -1.5944588246800715e-05 -0.00017506925263269382 0 7.9730921060694397e-06 -0.00018469576094693813 0 2.7922482013602756e-05 -0.00018091719352340694 0 1.7720006003881484e-05 -0.00016056113228854024 0 7.9730921060694397e-06 -0.00018469576094693813 0 2.7218118655610395e-05 -0.00020163891716431907 0 2.7922482013602756e-05 -0.00018091719352340694 0 7.9730921060694397e-06 -0.00018469576094693813 0 6.9913520852365952e-06 -0.00020735739493704167 0 2.7218118655610395e-05 -0.00020163891716431907 0 -7.6633349580536132e-05 -0.0002067589109141929 0 -6.2128592527913953e-05 -0.00021606986260378703 0 -5.2512419744677121e-05 -0.0002037474894591523 0 -7.6439470822160167e-05 -0.00022860801613695101 0 -6.2128592527913953e-05 -0.000216069862603787 0 -7.6633349580536132e-05 -0.0002067589109141929 0 -7.6439470822160167e-05 -0.00022860801613695101 0 -5.4733441035535525e-05 -0.00022839199645066733 0 -6.2128592527913953e-05 -0.000216069862603787 0 -5.4733441035535518e-05 -0.00022839199645066733 0 -4.4165440516234711e-05 -0.00021707762814978672 0 -6.2128592527913953e-05 -0.000216069862603787 0 -5.2512419744677121e-05 -0.0002037474894591523 0 -6.2128592527913953e-05 -0.000216069862603787 0 -4.4165440516234711e-05 -0.00021707762814978672 0 -5.2512419744677121e-05 -0.0002037474894591523 0 -4.4165440516234711e-05 -0.00021707762814978672 0 -3.2050400106145115e-05 -0.00020795668783223225 0 -3.2983561271314337e-05 -0.00022838659320389266 0 -3.2050400106145115e-05 -0.00020795668783223225 0 -4.4165440516234711e-05 -0.00021707762814978672 0 -5.4733441035535518e-05 -0.00022839199645066733 0 -3.2983561271314337e-05 -0.00022838659320389266 0 -4.4165440516234711e-05 -0.00021707762814978672 0 -3.2983561271314337e-05 -0.00022838659320389266 0 -1.1283840442766764e-05 -0.00022841141898375549 0 -3.2050400106145115e-05 -0.00020795668783223225 0 -3.6261583175699182e-05 -0.00018528826873570305 0 -3.2050400106145115e-05 -0.00020795668783223225 0 -1.3157462591440415e-05 -0.0002001141070024526 0 -3.6261583175699182e-05 -0.00018528826873570305 0 -1.5944588246800715e-05 -0.00017506925263269382 0 -3.1761182190298489e-05 -0.00016045878026591889 0 -3.6261583175699182e-05 -0.00018528826873570305 0 -5.0719631848216984e-05 -0.00016426610429331432 0 -5.7117916785232157e-05 -0.00018435663565319053 0 -3.6261583175699182e-05 -0.00018528826873570305 0 -5.2512419744677121e-05 -0.0002037474894591523 0 -3.2050400106145115e-05 -0.00020795668783223225 0 -3.6261583175699182e-05 -0.00018528826873570305 0 -5.7117916785232157e-05 -0.00018435663565319053 0 -5.2512419744677121e-05 -0.0002037474894591523 0 -7.6633349580536132e-05 -0.0002067589109141929 0 -5.2512419744677121e-05 -0.0002037474894591523 0 -5.7117916785232157e-05 -0.00018435663565319053 0 -7.5882098094277102e-05 -0.00016268873392486223 0 -7.6503382793044437e-05 -0.00018476936196989689 0 -5.7117916785232157e-05 -0.00018435663565319053 0 -7.6503382793044437e-05 -0.00018476936196989689 0 -7.6633349580536132e-05 -0.0002067589109141929 0 -5.7117916785232157e-05 -0.00018435663565319053 0 -7.4539387610218227e-05 -0.0001411259718689772 0 -7.5882098094277102e-05 -0.00016268873392486223 0 -6.0169200553556834e-05 -0.00014859682171938272 0 -7.5882098094277102e-05 -0.00016268873392486223 0 -5.7117916785232157e-05 -0.00018435663565319053 0 -5.0719631848216984e-05 -0.00016426610429331432 0 -4.4508137568797209e-05 -0.00014087381366196429 0 -6.0169200553556834e-05 -0.00014859682171938269 0 -5.0719631848216984e-05 -0.00016426610429331432 0 -7.5882098094277102e-05 -0.00016268873392486223 0 -5.0719631848216984e-05 -0.00016426610429331432 0 -6.0169200553556834e-05 -0.00014859682171938272 0 -4.4508137568797209e-05 -0.00014087381366196429 0 -5.0719631848216984e-05 -0.00016426610429331432 0 -3.1761182190298489e-05 -0.00016045878026591889 0 -3.6261583175699182e-05 -0.00018528826873570305 0 -3.1761182190298489e-05 -0.00016045878026591889 0 -5.0719631848216984e-05 -0.00016426610429331432 0 -4.4508137568797209e-05 -0.00014087381366196429 0 -3.1761182190298489e-05 -0.00016045878026591889 0 -2.8989429020918014e-05 -0.0001400576554798233 0 -1.597056738373618e-05 -0.00015120729725590158 0 -2.8989429020918017e-05 -0.0001400576554798233 0 -3.1761182190298489e-05 -0.00016045878026591889 0 -4.4508137568797209e-05 -0.00014087381366196429 0 -2.8989429020918014e-05 -0.0001400576554798233 0 -3.5615712767906183e-05 -0.000126596282458197 0 -3.2924614910945789e-05 -0.00010827794181717482 0 -3.5615712767906183e-05 -0.000126596282458197 0 -1.9090992655776525e-05 -0.00012719143296151806 0 -1.9090992655776525e-05 -0.00012719143296151806 0 -3.5615712767906183e-05 -0.000126596282458197 0 -2.8989429020918014e-05 -0.0001400576554798233 0 -4.4508137568797209e-05 -0.00014087381366196429 0 -3.5615712767906183e-05 -0.000126596282458197 0 -5.1579144871252569e-05 -0.00012029924632583081 0 -4.4508137568797209e-05 -0.00014087381366196429 0 -6.0831227886758625e-05 -0.00013378393660208387 0 -6.0169200553556834e-05 -0.00014859682171938272 0 -4.4508137568797209e-05 -0.00014087381366196429 0 -5.1579144871252569e-05 -0.00012029924632583081 0 -6.0831227886758625e-05 -0.00013378393660208387 0 -7.2316907266116527e-05 -0.00012005839707474819 0 -6.0831227886758625e-05 -0.00013378393660208387 0 -5.1579144871252569e-05 -0.00012029924632583081 0 -7.2316907266116527e-05 -0.00012005839707474819 0 -7.4539387610218227e-05 -0.0001411259718689772 0 -6.0831227886758625e-05 -0.00013378393660208387 0 -7.4539387610218227e-05 -0.0001411259718689772 0 -6.0169200553556834e-05 -0.00014859682171938272 0 -6.0831227886758625e-05 -0.00013378393660208387 0 1.1697106321946559e-05 -0.00013689828517662839 0 -1.9152423842300676e-06 -0.00014454208288868975 0 1.7720006003881484e-05 -0.00016056113228854024 0 1.7720006003881484e-05 -0.00016056113228854024 0 -1.9152423842300676e-06 -0.00014454208288868975 0 -1.6659700192937542e-06 -0.0001635517357820798 0 1.1697106321946559e-05 -0.00013689828517662839 0 1.7720006003881481e-05 -0.00016056113228854024 0 2.6286694738113361e-05 -0.00014349558576336419 0 7.9730921060694397e-06 -0.00018469576094693813 0 1.7720006003881484e-05 -0.00016056113228854024 0 -1.6659700192937542e-06 -0.0001635517357820798 0 -1.597056738373618e-05 -0.00015120729725590158 0 -1.5944588246800715e-05 -0.00017506925263269382 0 -1.6659700192937542e-06 -0.0001635517357820798 0 -1.597056738373618e-05 -0.00015120729725590158 0 -3.1761182190298489e-05 -0.00016045878026591889 0 -1.5944588246800715e-05 -0.00017506925263269382 0 -1.597056738373618e-05 -0.00015120729725590158 0 -1.6659700192937542e-06 -0.0001635517357820798 0 -1.9152423842300676e-06 -0.00014454208288868975 0 -1.9090992655776525e-05 -0.00012719143296151806 0 -1.9152423842300676e-06 -0.00014454208288868975 0 -2.9691262900342391e-06 -0.00012439807362601879 0 -1.597056738373618e-05 -0.00015120729725590158 0 -1.9152423842300676e-06 -0.00014454208288868975 0 -1.9090992655776525e-05 -0.00012719143296151806 0 -1.597056738373618e-05 -0.00015120729725590158 0 -1.9090992655776525e-05 -0.00012719143296151803 0 -2.8989429020918014e-05 -0.0001400576554798233 0 -1.9090992655776525e-05 -0.00012719143296151806 0 -2.9691262900342387e-06 -0.00012439807362601876 0 -1.3289773222770203e-05 -0.00010824921833728717 0 1.1697106321946559e-05 -0.00013689828517662839 0 9.2411293550895824e-06 -0.00012005279624047352 0 -2.9691262900342391e-06 -0.00012439807362601879 0 1.1697106321946559e-05 -0.00013689828517662839 0 -2.9691262900342391e-06 -0.00012439807362601879 0 -1.9152423842300676e-06 -0.00014454208288868975 0 1.1697106321946559e-05 -0.00013689828517662839 0 2.6286694738113361e-05 -0.00014349558576336419 0 2.2310677023247575e-05 -0.00012505464921056794 0 1.1697106321946559e-05 -0.00013689828517662839 0 2.2310677023247575e-05 -0.00012505464921056797 0 9.2411293550895824e-06 -0.00012005279624047352 0 1.6530539237742938e-05 -0.00010668318119732152 0 9.2411293550895824e-06 -0.00012005279624047352 0 2.2310677023247575e-05 -0.00012505464921056794 0 -1.0805018566538239e-06 -0.00010742524993764149 0 9.2411293550895824e-06 -0.00012005279624047352 0 1.6530539237742938e-05 -0.00010668318119732152 0 -1.0805018566538239e-06 -0.00010742524993764149 0 1.6530539237742935e-05 -0.00010668318119732152 0 6.6026745770809305e-06 -9.4740635349178329e-05 0 1.6530539237742938e-05 -0.00010668318119732152 0 1.72323622892499e-05 -8.8567941036889411e-05 0 6.6026745770809305e-06 -9.4740635349178329e-05 0 -1.0805018566538239e-06 -0.00010742524993764149 0 6.6026745770809305e-06 -9.4740635349178329e-05 0 -4.9466392637243572e-06 -9.2102530554279404e-05 0 -1.0805018566538239e-06 -0.00010742524993764149 0 -2.9691262900342391e-06 -0.00012439807362601879 0 9.2411293550895824e-06 -0.00012005279624047352 0 -1.0805018566538239e-06 -0.00010742524993764149 0 -1.3289773222770203e-05 -0.00010824921833728717 0 -2.9691262900342391e-06 -0.00012439807362601879 0 -3.2924614910945789e-05 -0.00010827794181717482 0 -1.9090992655776525e-05 -0.00012719143296151806 0 -1.3289773222770203e-05 -0.00010824921833728717 0 -3.2924614910945789e-05 -0.00010827794181717482 0 -1.3289773222770203e-05 -0.00010824921833728717 0 -1.9008411139806606e-05 -9.1296386732408089e-05 0 -1.0805018566538239e-06 -0.00010742524993764149 0 -4.9466392637243572e-06 -9.2102530554279404e-05 0 -1.3289773222770203e-05 -0.00010824921833728717 0 -1.9008411139806606e-05 -9.1296386732408089e-05 0 -1.3289773222770203e-05 -0.00010824921833728717 0 -4.9466392637243572e-06 -9.2102530554279404e-05 0 -1.9008411139806606e-05 -9.1296386732408089e-05 0 -4.9466392637243572e-06 -9.2102530554279404e-05 0 -6.3842824843485214e-06 -7.4250700078433662e-05 0 -1.777027908888197e-05 -6.8559932196632432e-05 0 -2.8078022436078282e-05 -7.9820857087657443e-05 0 -1.9008411139806606e-05 -9.1296386732408089e-05 0 -1.777027908888197e-05 -6.8559932196632432e-05 0 -1.9008411139806606e-05 -9.1296386732408089e-05 0 -6.3842824843485214e-06 -7.4250700078433662e-05 0 5.5196749591310997e-06 -7.9258589410967454e-05 0 4.822772440013432e-06 -5.8626025227294013e-05 0 -6.3842824843485214e-06 -7.4250700078433662e-05 0 5.5196749591310997e-06 -7.9258589410967454e-05 0 1.5858381719841723e-05 -6.8858725075315866e-05 0 4.822772440013432e-06 -5.8626025227294013e-05 0 5.5196749591310997e-06 -7.9258589410967454e-05 0 6.6026745770809314e-06 -9.4740635349178329e-05 0 1.72323622892499e-05 -8.8567941036889411e-05 0 5.5196749591310997e-06 -7.9258589410967454e-05 0 -6.3842824843485231e-06 -7.4250700078433649e-05 0 -4.9466392637243572e-06 -9.2102530554279404e-05 0 5.5196749591310997e-06 -7.9258589410967454e-05 0 -4.9466392637243572e-06 -9.2102530554279404e-05 0 6.6026745770809305e-06 -9.4740635349178329e-05 0 -6.9146458605376363e-05 -0.00010004511915880885 0 -6.031259599162806e-05 -0.00011005999698135965 0 -4.8453153511194891e-05 -9.9219246159739036e-05 0 -6.9146458605376363e-05 -0.00010004511915880885 0 -4.8453153511194891e-05 -9.9219246159739036e-05 0 -5.3676352558889647e-05 -8.5292323554023196e-05 0 -7.2316907266116527e-05 -0.00012005839707474819 0 -5.1579144871252569e-05 -0.00012029924632583081 0 -6.031259599162806e-05 -0.00011005999698135966 0 -6.9146458605376363e-05 -0.00010004511915880885 0 -7.2316907266116527e-05 -0.00012005839707474819 0 -6.031259599162806e-05 -0.00011005999698135966 0 -5.1579144871252569e-05 -0.00012029924632583081 0 -4.8453153511194891e-05 -9.9219246159739036e-05 0 -6.031259599162806e-05 -0.00011005999698135966 0 -3.2924614910945789e-05 -0.00010827794181717482 0 -3.3112642356990377e-05 -9.1643911633286035e-05 0 -4.8453153511194891e-05 -9.9219246159739036e-05 0 -3.2924614910945789e-05 -0.00010827794181717482 0 -4.8453153511194884e-05 -9.9219246159739036e-05 0 -5.1579144871252569e-05 -0.00012029924632583081 0 -3.2924614910945789e-05 -0.00010827794181717482 0 -5.1579144871252569e-05 -0.00012029924632583081 0 -3.5615712767906183e-05 -0.000126596282458197 0 -3.2924614910945789e-05 -0.00010827794181717482 0 -1.9008411139806606e-05 -9.1296386732408075e-05 0 -3.3112642356990377e-05 -9.1643911633286035e-05 0 -4.0739625079209731e-05 -8.0854774192771694e-05 0 -3.3112642356990377e-05 -9.1643911633286035e-05 0 -2.8078022436078282e-05 -7.9820857087657443e-05 0 -1.9008411139806606e-05 -9.1296386732408089e-05 0 -2.8078022436078282e-05 -7.9820857087657443e-05 0 -3.3112642356990377e-05 -9.1643911633286035e-05 0 -1.777027908888197e-05 -6.8559932196632432e-05 0 -3.0176044897785692e-05 -6.7848550238115845e-05 0 -2.8078022436078282e-05 -7.9820857087657443e-05 0 -4.0739625079209731e-05 -8.0854774192771694e-05 0 -2.8078022436078282e-05 -7.9820857087657443e-05 0 -3.0176044897785692e-05 -6.7848550238115845e-05 0 -4.0739625079209731e-05 -8.0854774192771694e-05 0 -3.0176044897785692e-05 -6.7848550238115845e-05 0 -4.7125958702633123e-05 -6.9000188927049064e-05 0 -4.0739625079209731e-05 -8.0854774192771694e-05 0 -4.8453153511194891e-05 -9.9219246159739036e-05 0 -3.3112642356990377e-05 -9.1643911633286035e-05 0 -4.0739625079209731e-05 -8.0854774192771694e-05 0 -5.3676352558889647e-05 -8.5292323554023196e-05 0 -4.8453153511194891e-05 -9.9219246159739036e-05 0 -4.0739625079209731e-05 -8.0854774192771694e-05 0 -4.7125958702633123e-05 -6.9000188927049064e-05 0 -5.3676352558889647e-05 -8.5292323554023196e-05 0 -6.5237149321351845e-05 -8.1212489135698844e-05 0 -5.3676352558889647e-05 -8.5292323554023196e-05 0 -4.7125958702633123e-05 -6.9000188927049064e-05 0 -6.5237149321351845e-05 -8.1212489135698844e-05 0 -6.9146458605376363e-05 -0.00010004511915880886 0 -5.3676352558889647e-05 -8.5292323554023196e-05 0 -5.4662298655844724e-05 -4.8425230563116733e-05 0 -6.0531309798783734e-05 -6.3940247015602106e-05 0 -4.6775168925773792e-05 -5.4301698948411519e-05 0 -6.0531309798783734e-05 -6.3940247015602106e-05 0 -6.5237149321351845e-05 -8.1212489135698844e-05 0 -4.7125958702633123e-05 -6.9000188927049064e-05 0 -6.0531309798783734e-05 -6.3940247015602106e-05 0 -4.7125958702633123e-05 -6.9000188927049064e-05 0 -4.6775168925773792e-05 -5.4301698948411519e-05 0 -3.5509078707442827e-05 -5.3906573354306546e-05 0 -4.6775168925773792e-05 -5.4301698948411519e-05 0 -4.7125958702633123e-05 -6.9000188927049064e-05 0 -3.5509078707442827e-05 -5.3906573354306546e-05 0 -4.7125958702633123e-05 -6.9000188927049064e-05 0 -3.0176044897785692e-05 -6.7848550238115845e-05 0 -1.777027908888197e-05 -6.8559932196632432e-05 0 -2.57972734402572e-05 -5.5884821355469697e-05 0 -3.0176044897785692e-05 -6.7848550238115845e-05 0 -3.5509078707442827e-05 -5.3906573354306546e-05 0 -3.0176044897785692e-05 -6.7848550238115845e-05 0 -2.57972734402572e-05 -5.5884821355469697e-05 0 -1.6749752518877159e-05 -4.7528995062880221e-05 0 -2.7090208661551223e-05 -4.5119205714578347e-05 0 -2.57972734402572e-05 -5.5884821355469697e-05 0 -3.5509078707442827e-05 -5.3906573354306546e-05 0 -2.57972734402572e-05 -5.5884821355469697e-05 0 -2.7090208661551223e-05 -4.5119205714578347e-05 0 -2.2014732508840452e-05 -3.3650278231318394e-05 0 -3.6691466755862603e-05 -3.8900264561138334e-05 0 -2.7090208661551223e-05 -4.5119205714578347e-05 0 -2.2014732508840452e-05 -3.3650278231318394e-05 0 -2.5871748393123112e-05 -2.6837618397599642e-05 0 -3.6691466755862603e-05 -3.8900264561138334e-05 0 -3.5509078707442827e-05 -5.3906573354306546e-05 0 -2.7090208661551223e-05 -4.5119205714578347e-05 0 -3.6691466755862603e-05 -3.8900264561138334e-05 0 -5.4662298655844724e-05 -4.8425230563116733e-05 0 -4.6775168925773792e-05 -5.4301698948411519e-05 0 -3.6691466755862603e-05 -3.8900264561138334e-05 0 -3.5509078707442827e-05 -5.3906573354306546e-05 0 -3.6691466755862596e-05 -3.8900264561138334e-05 0 -4.6775168925773792e-05 -5.4301698948411519e-05 0 -4.8716122275058526e-05 -3.5205373704002604e-05 0 -5.4662298655844724e-05 -4.8425230563116733e-05 0 -3.6691466755862603e-05 -3.8900264561138334e-05 0 -4.7113996747800722e-06 -4.3440997007498896e-05 0 -8.3060595453940483e-06 -5.7907121724147871e-05 0 4.822772440013432e-06 -5.8626025227294013e-05 0 -4.7113996747800722e-06 -4.3440997007498896e-05 0 4.822772440013432e-06 -5.8626025227294013e-05 0 5.7220714499269978e-06 -3.8717298130834123e-05 0 4.822772440013432e-06 -5.8626025227294013e-05 0 -8.3060595453940483e-06 -5.7907121724147871e-05 0 -6.3842824843485214e-06 -7.4250700078433662e-05 0 -1.777027908888197e-05 -6.8559932196632432e-05 0 -6.3842824843485214e-06 -7.4250700078433662e-05 0 -8.3060595453940483e-06 -5.7907121724147871e-05 0 -1.777027908888197e-05 -6.8559932196632432e-05 0 -1.6749752518877156e-05 -4.7528995062880228e-05 0 -2.57972734402572e-05 -5.5884821355469697e-05 0 -1.777027908888197e-05 -6.8559932196632432e-05 0 -8.3060595453940483e-06 -5.7907121724147871e-05 0 -1.6749752518877159e-05 -4.7528995062880221e-05 0 -4.7113996747800722e-06 -4.3440997007498896e-05 0 -1.6749752518877159e-05 -4.7528995062880221e-05 0 -8.3060595453940483e-06 -5.7907121724147871e-05 0 -4.7113996747800722e-06 -4.3440997007498896e-05 0 -1.2037173193686891e-05 -3.3860824147216717e-05 0 -1.6749752518877159e-05 -4.7528995062880221e-05 0 -2.2014732508840452e-05 -3.3650278231318394e-05 0 -2.7090208661551223e-05 -4.5119205714578347e-05 0 -1.6749752518877159e-05 -4.7528995062880221e-05 0 -2.2014732508840452e-05 -3.3650278231318394e-05 0 -1.2037173193686889e-05 -3.3860824147216717e-05 0 -1.6512005928323649e-05 -2.6720094149123883e-05 0 -2.2014732508840452e-05 -3.3650278231318394e-05 0 -1.6749752518877159e-05 -4.7528995062880221e-05 0 -1.2037173193686889e-05 -3.3860824147216717e-05 0 -4.7113996747800722e-06 -4.3440997007498896e-05 0 -4.2573541528155333e-06 -2.9749243553726136e-05 0 -1.2037173193686889e-05 -3.3860824147216717e-05 0 -4.2573541528155333e-06 -2.9749243553726136e-05 0 -4.7113996747800722e-06 -4.3440997007498896e-05 0 5.7220714499269978e-06 -3.8717298130834123e-05 0 3.7258402094115687e-06 -2.4545945493826495e-05 0 -4.2573541528155333e-06 -2.9749243553726136e-05 0 5.7220714499269978e-06 -3.8717298130834123e-05 0 1.0737503964054908e-05 -2.0516349914154135e-05 0 3.7258402094115687e-06 -2.4545945493826495e-05 0 5.7220714499269978e-06 -3.8717298130834123e-05 0 1.0737503964054908e-05 -2.0516349914154135e-05 0 7.0723271018318787e-06 -1.6547267460922549e-05 0 7.8083670710860756e-06 -1.554518316477986e-05 0 1.0737503964054908e-05 -2.0516349914154135e-05 0 5.7220714499269978e-06 -3.8717298130834123e-05 0 1.9198140867792855e-05 -4.2194668354450664e-05 0 8.8664729364586919e-06 -2.0249613104738306e-05 0 1.3852355016341646e-05 -2.9612727256433193e-05 0 1.9198140867792855e-05 -4.2194668354450664e-05 0 5.7220714499269978e-06 -3.8717298130834123e-05 0 1.4109190874036766e-05 -5.2000801806520081e-05 0 4.822772440013432e-06 -5.8626025227294013e-05 0 1.4109190874036766e-05 -5.2000801806520081e-05 0 5.7220714499269978e-06 -3.8717298130834123e-05 0 1.3852355016341646e-05 -2.9612727256433193e-05 0 1.4922963519422795e-05 -4.0309016870262575e-05 0 1.9198140867792855e-05 -4.2194668354450664e-05 0 1.4109190874036766e-05 -5.2000801806520081e-05 0 2.4728381474324901e-05 -5.9182209767458879e-05 0 1.4922963519422795e-05 -4.0309016870262575e-05 0 1.6737214335381104e-05 -5.2769024509997353e-05 0 2.4728381474324901e-05 -5.9182209767458879e-05 0 1.4109190874036766e-05 -5.2000801806520081e-05 0 1.5858381719841726e-05 -6.8858725075315852e-05 0 4.822772440013432e-06 -5.8626025227294013e-05 0 1.5858381719841726e-05 -6.8858725075315852e-05 0 1.4109190874036766e-05 -5.2000801806520081e-05 0 1.1287317510373928e-05 -2.079866285406181e-05 0 8.7774595765052587e-06 -1.6685268672327943e-05 0 8.2603519222493161e-06 -2.2845905415977262e-05 0 5.3975439534606877e-06 -2.1551517294722392e-05 0 4.5446835615543177e-06 -2.8571524549030705e-05 0 8.2603519222493161e-06 -2.2845905415977262e-05 0 5.3975439534606877e-06 -2.1551517294722392e-05 0 8.2603519222493161e-06 -2.2845905415977262e-05 0 8.7774595765052587e-06 -1.6685268672327943e-05 0 7.0723271018318787e-06 -1.6547267460922549e-05 0 5.3975439534606877e-06 -2.1551517294722392e-05 0 8.7774595765052587e-06 -1.6685268672327943e-05 0 8.7774595765052587e-06 -1.6685268672327943e-05 0 1.0373025792658139e-05 -1.2642703854582982e-05 0 7.8083670710860756e-06 -1.554518316477986e-05 0 7.0723271018318787e-06 -1.6547267460922549e-05 0 8.7774595765052587e-06 -1.668526867232794e-05 0 7.8083670710860756e-06 -1.554518316477986e-05 0 1.0737503964054908e-05 -2.0516349914154135e-05 0 7.8083670710860756e-06 -1.554518316477986e-05 0 8.7942886350106347e-06 -1.3793896711599492e-05 0 7.8083670710860756e-06 -1.554518316477986e-05 0 1.0373025792658139e-05 -1.2642703854582984e-05 0 8.7942886350106347e-06 -1.3793896711599492e-05 0 1.0373025792658139e-05 -1.2642703854582982e-05 0 8.7774595765052587e-06 -1.6685268672327943e-05 0 1.2890309355461497e-05 -1.6714764556975686e-05 0 1.0373025792658139e-05 -1.2642703854582982e-05 0 1.2890309355461497e-05 -1.6714764556975686e-05 0 1.4991164478456277e-05 -1.1616284935387478e-05 0 1.0373025792658139e-05 -1.2642703854582982e-05 0 1.4991164478456277e-05 -1.1616284935387478e-05 0 1.3194760897244703e-05 -7.6810246251474003e-06 0 1.6594011234659965e-05 -4.9510519408944334e-06 0 1.4991164478456277e-05 -1.1616284935387478e-05 0 1.8629733075035212e-05 -9.1832092448891395e-06 0 1.6594011234659965e-05 -4.9510519408944334e-06 0 1.3194760897244703e-05 -7.6810246251474003e-06 0 1.4991164478456277e-05 -1.1616284935387478e-05 0 1.9592552002965128e-05 -1.5633306042535187e-05 0 1.8629733075035212e-05 -9.1832092448891395e-06 0 1.4991164478456277e-05 -1.1616284935387478e-05 0 1.9592552002965128e-05 -1.5633306042535187e-05 0 1.6672700432269448e-05 -1.6617642956505908e-05 0 2.0217221900643215e-05 -2.1722449910634586e-05 0 1.9592552002965128e-05 -1.5633306042535187e-05 0 1.4991164478456277e-05 -1.1616284935387478e-05 0 1.6672700432269448e-05 -1.6617642956505908e-05 0 1.67268431437547e-05 -2.1160574225320841e-05 0 1.6672700432269448e-05 -1.6617642956505908e-05 0 1.2890309355461497e-05 -1.6714764556975686e-05 0 1.4991164478456277e-05 -1.1616284935387478e-05 0 1.2890309355461497e-05 -1.6714764556975686e-05 0 1.6672700432269448e-05 -1.6617642956505908e-05 0 1.67268431437547e-05 -2.1160574225320841e-05 0 2.0217221900643215e-05 -2.1722449910634586e-05 0 1.6672700432269448e-05 -1.6617642956505908e-05 0 1.1287317510373928e-05 -2.079866285406181e-05 0 1.2890309355461497e-05 -1.6714764556975686e-05 0 8.7774595765052587e-06 -1.6685268672327943e-05 0 1.67268431437547e-05 -2.1160574225320841e-05 0 1.2890309355461497e-05 -1.6714764556975686e-05 0 1.4770838539441406e-05 -2.4837835924627339e-05 0 1.1287317510373928e-05 -2.079866285406181e-05 0 1.4770838539441406e-05 -2.4837835924627339e-05 0 1.2890309355461497e-05 -1.6714764556975686e-05 0 1.1287317510373928e-05 -2.079866285406181e-05 0 1.0482659083290252e-05 -2.7585297410533319e-05 0 1.4770838539441406e-05 -2.4837835924627339e-05 0 1.8638037172204083e-05 -3.2242985690978153e-05 0 1.9702673654782797e-05 -2.6931636142332479e-05 0 1.4770838539441406e-05 -2.4837835924627339e-05 0 1.8638037172204083e-05 -3.2242985690978153e-05 0 1.4770838539441406e-05 -2.4837835924627339e-05 0 1.4052995318595514e-05 -3.1264515736770541e-05 0 1.0482659083290254e-05 -2.7585297410533319e-05 0 1.4052995318595514e-05 -3.1264515736770541e-05 0 1.4770838539441406e-05 -2.4837835924627339e-05 0 2.3836079980493006e-05 -2.7726383603360775e-05 0 2.0217221900643215e-05 -2.1722449910634586e-05 0 1.9702673654782801e-05 -2.6931636142332479e-05 0 1.67268431437547e-05 -2.1160574225320841e-05 0 1.9702673654782804e-05 -2.6931636142332479e-05 0 2.0217221900643215e-05 -2.1722449910634586e-05 0 1.67268431437547e-05 -2.1160574225320841e-05 0 1.4770838539441406e-05 -2.4837835924627339e-05 0 1.9702673654782801e-05 -2.6931636142332479e-05 0 1.8638037172204083e-05 -3.2242985690978153e-05 0 2.4486777766700506e-05 -3.3660548190523987e-05 0 1.9702673654782801e-05 -2.6931636142332479e-05 0 2.3836079980493006e-05 -2.7726383603360775e-05 0 1.9702673654782801e-05 -2.6931636142332479e-05 0 2.4486777766700506e-05 -3.3660548190523987e-05 0 3.0519498770856177e-05 -3.7518213731129538e-05 0 2.4486777766700506e-05 -3.3660548190523987e-05 0 2.7908638166459467e-05 -4.062807345009644e-05 0 1.8638037172204083e-05 -3.2242985690978153e-05 0 2.2748562748251125e-05 -3.9551983766604442e-05 0 2.4486777766700506e-05 -3.3660548190523987e-05 0 2.2748562748251125e-05 -3.9551983766604442e-05 0 2.7908638166459467e-05 -4.062807345009644e-05 0 2.4486777766700506e-05 -3.3660548190523987e-05 0 1.3076223862796606e-05 -3.6884947852233897e-05 0 1.7407315645050067e-05 -3.8214118527433138e-05 0 1.4052995318595514e-05 -3.1264515736770541e-05 0 1.8638037172204083e-05 -3.2242985690978153e-05 0 1.7407315645050067e-05 -3.8214118527433138e-05 0 2.2748562748251125e-05 -3.9551983766604442e-05 0 1.8638037172204083e-05 -3.2242985690978153e-05 0 1.4052995318595514e-05 -3.1264515736770541e-05 0 1.7407315645050067e-05 -3.8214118527433138e-05 0 1.9578628414438523e-05 -4.5593764892424337e-05 0 2.2748562748251125e-05 -3.9551983766604442e-05 0 1.7407315645050067e-05 -3.8214118527433138e-05 0 1.3076223862796606e-05 -3.6884947852233897e-05 0 1.4904028896490577e-05 -4.1969001444948996e-05 0 1.7407315645050067e-05 -3.8214118527433138e-05 0 1.9578628414438523e-05 -4.5593764892424337e-05 0 1.7407315645050067e-05 -3.8214118527433138e-05 0 1.4904028896490577e-05 -4.1969001444948996e-05 0 1.3076223862796606e-05 -3.6884947852233897e-05 0 1.0309869741324567e-05 -4.0224738857530618e-05 0 1.4904028896490577e-05 -4.1969001444948996e-05 0 1.3076223862796606e-05 -3.6884947852233897e-05 0 9.1106676284698684e-06 -3.3386038714049641e-05 0 1.0309869741324567e-05 -4.0224738857530618e-05 0 1.3076223862796606e-05 -3.6884947852233897e-05 0 1.4052995318595514e-05 -3.1264515736770541e-05 0 9.1106676284698684e-06 -3.3386038714049641e-05 0 4.8681626733904354e-06 -3.6762098524012067e-05 0 1.0309869741324567e-05 -4.0224738857530618e-05 0 9.1106676284698684e-06 -3.3386038714049641e-05 0 3.2519869892479879e-05 -9.5484379956781488e-05 0 1.6530539237742938e-05 -0.00010668318119732152 0 3.5902823889201812e-05 -0.00011500485972420234 0 1.8633319799255673e-05 -6.613284738597104e-05 0 2.0995714505848958e-05 -8.0043357477038265e-05 0 4.8681626733904354e-06 -3.6762098524012067e-05 0 6.2778879905241003e-06 -4.5059109844567751e-05 0 1.0309869741324567e-05 -4.0224738857530618e-05 0 3.5902823889201812e-05 -0.00011500485972420234 0 1.6530539237742938e-05 -0.00010668318119732152 0 2.2310677023247575e-05 -0.00012505464921056794 0 3.2519869892479879e-05 -9.5484379956781488e-05 0 1.72323622892499e-05 -8.8567941036889411e-05 0 1.6530539237742938e-05 -0.00010668318119732152 0 2.8871090859331325e-05 -7.6896872156095503e-05 0 1.72323622892499e-05 -8.8567941036889411e-05 0 3.2519869892479879e-05 -9.5484379956781488e-05 0 4.5446835615543177e-06 -2.8571524549030705e-05 0 4.8681626733904354e-06 -3.6762098524012067e-05 0 9.1106676284698684e-06 -3.3386038714049641e-05 0 1.6737214335381104e-05 -5.2769024509997353e-05 0 1.8633319799255673e-05 -6.613284738597104e-05 0 2.8871090859331325e-05 -7.6896872156095503e-05 0 1.5858381719841726e-05 -6.8858725075315852e-05 0 1.72323622892499e-05 -8.8567941036889411e-05 0 5.5196749591310997e-06 -7.9258589410967454e-05 0 1.72323622892499e-05 -8.8567941036889411e-05 0 1.5858381719841726e-05 -6.8858725075315852e-05 0 2.4728381474324901e-05 -5.9182209767458879e-05 0 1.5858381719841726e-05 -6.8858725075315852e-05 0 2.8871090859331325e-05 -7.6896872156095503e-05 0 4.5446835615543177e-06 -2.8571524549030705e-05 0 1.0482659083290252e-05 -2.7585297410533319e-05 0 8.2603519222493161e-06 -2.2845905415977262e-05 0 1.1287317510373928e-05 -2.079866285406181e-05 0 8.2603519222493144e-06 -2.2845905415977262e-05 0 1.0482659083290254e-05 -2.7585297410533319e-05 0 1.0482659083290254e-05 -2.7585297410533319e-05 0 9.1106676284698684e-06 -3.3386038714049641e-05 0 1.4052995318595514e-05 -3.1264515736770541e-05 0 4.5446835615543177e-06 -2.8571524549030705e-05 0 9.1106676284698684e-06 -3.3386038714049641e-05 0 1.0482659083290254e-05 -2.7585297410533319e-05 0 
</DataArray>
</PointData>
<CellData Scalars="region_id,cross_section_updated,displacement_divergence," Vectors="" Tensors="stress,">
<DataArray type="Float64" Name="region_id" format="ascii">
1 1 1 1 1 1 1 1 1 1 1 1 1 1 1 1 1 1 1 1 1 1 1 1 1 1 1 1 1 1 1 1 1 1 1 1 1 1 1 1 1 1 1 1 1 1 1 1 1 1 1 1 1 1 1 1 1 1 1 1 1 1 1 1 1 1 1 1 1 1 1 1 1 1 1 1 1 1 1 1 1 1 1 1 1 1 1 1 1 1 1 1 1 1 1 1 1 1 1 1 1 1 1 1 1 1 1 1 1 1 1 1 1 1 1 1 1 1 1 1 1 1 1 1 1 1 1 1 1 1 1 1 1 1 1 1 1 1 1 1 1 1 1 1 1 1 1 1 1 1 1 1 1 1 1 1 1 1 1 1 1 1 1 1 1 1 1 1 1 1 1 1 1 1 1 1 1 1 1 1 1 1 1 1 1 1 1 1 1 1 1 1 1 1 1 1 1 1 1 1 1 1 1 1 1 1 1 1 1 1 1 1 1 1 1 1 1 1 1 1 1 1 1 1 1 1 1 1 1 1 1 1 1 1 1 1 1 1 1 1 1 1 1 1 1 1 1 1 1 1 1 1 1 1 1 1 1 1 1 1 1 1 1 1 1 1 1 1 1 1 1 1 1 1 1 1 1 1 1 1 1 1 1 1 1 1 1 1 1 1 1 1 1 1 1 1 1 1 1 1 1 1 1 1 1 1 1 1 1 1 1 1 1 1 1 1 1 1 1 1 1 1 1 1 1 1 1 1 1 1 1 1 1 1 1 1 1 1 1 1 1 1 1 1 1 1 1 1 1 1 1 1 1 1 1 1 1 1 1 1 1 1 1 1 1 1 1 1 1 1 1 1 1 1 1 1 1 1 1 1 1 1 1 1 1 1 1 1 1 1 1 1 1 1 1 1 1 1 1 1 1 1 1 1 1 1 1 1 1 1 1 1 1 1 1 1 1 1 1 1 1 1 1 1 1 1 1 1 1 1 1 1 1 1 1 1 1 1 1 1 1 1 1 1 1 1 1 1 1 1 1 1 1 1 1 1 1 1 1 1 1 1 1 1 1 1 1 1 1 1 1 1 1 1 1 1 1 1 1 1 1 1 1 1 1 1 1 1 1 1 1 1 1 1 1 1 1 1 1 1 1 1 1 1 1 1 1 1 1 1 1 1 1 1 1 1 1 1 1 1 1 1 1 1 1 1 1 1 1 1 1 1 1 1 1 1 1 1 3 1 1 3 1 1 3 1 1 1 1 1 1 1 1 1 1 1 1 1 3 1 1 1 1 1 3 1 1 1 1 1 1 1 1 1 1 1 1 1 1 1 1 1 1 1 1 1 1 1 1 1 1 1 1 1 1 1 1 1 1 1 1 1 1 1 1 1 1 1 1 1 1 1 1 1 1 1 1 1 1 1 1 1 1 1 1 1 1 1 1 1 1 1 1 1 1 1 1 1 1 1 1 1 1 1 1 1 1 1 1 1 1 1 1 1 1 1 1 1 1 1 1 1 1 1 1 1 1 1 1 1 1 1 1 1 1 1 1 1 1 1 1 1 1 1 1 1 1 1 1 1 1 1 1 1 1 1 1 1 1 1 1 1 1 1 1 1 1 1 1 1 1 1 1 1 1 1 1 1 1 1 1 1 1 1 1 1 1 1 1 1 1 1 1 3 1 1 1 3 1 1 3 1 1 1 1 1 1 1 1 1 1 1 3 1 1 1 1 3 1 1 1 1 1 1 1 1 1 1 1 1 1 1 1 1 1 1 1 1 1 1 1 1 1 1 1 1 1 1 1 1 1 1 1 1 1 1 1 1 1 1 1 1 1 1 1 1 1 1 1 1 1 1 1 1 1 1 2 1 1 1 1 1 1 1 1 1 1 1 1 1 1 2 1 1 2 1 2 1 1 1 1 1 1 1 1 1 1 1 1 1 2 1 1 1 1 1 1 1 1 1 1 1 1 1 1 1 1 1 1 1 1 1 1 1 1 1 1 1 1 1 1 1 1 1 1 1 1 1 1 1 1 1 1 1 1 1 1 1 1 1 1 1 1 1 1 1 1 1 1 1 1 1 1 1 1 1 1 1 1 1 1 1 1 1 1 1 1 1 1 1 1 1 1 1 1 1 1 1 1 1 1 1 1 1 1 1 1 1 1 1 1 1 1 1 1 1 1 1 1 1 1 1 1 1 1 1 1 1 1 1 1 1 1 1 1 1 1 1 1 1 1 1 1 1 1 1 1 2 1 1 2 1 2 1 1 1 1 1 1 1 1 1 1 1 1 1 1 1 1 1 1 1 1 1 1 1 1 1 1 1 1 1 1 1 1 1 1 1 1 1 1 1 1 1 1 1 1 1 1 1 2 1 1 1 1 1 2 1 1 1 1 1 1 1 
</DataArray>
<DataArray type="Float64" Name="stress" NumberOfComponents="9" format="ascii">
-0.05348840962297096 0.0022185594949313443 0 0.0022185594949313443 -0.0068935254980458105 0 0 0 -0.015095483780254194 -0.050239264295757723 0.0035429326639982539 0 0.0035429326639982539 -0.016714996517203991 0 0 0 -0.016738565203240428 -0.053789656776421703 0.0046655189238831562 0 0.0046655189238831562 0.002946036947326253 0 0 0 -0.012710904957273863 -0.051001797161905386 0.0056182858536371538 0 0.0056182858536371538 -0.0074166750732297115 0 0 0 -0.014604618058783773 -0.041337568344413531 0.012342002778228474 0 0.012342002778228474 -0.013784636754282832 0 0 0 -0.013780551274674089 -0.04133026198107452 0.01234865363005523 0 0.01234865363005523 -0.013760956789566367 0 0 0 -0.013772804692660222 -0.047592164434464623 0.011868766345216494 0 0.011868766345216494 -0.003414983590461388 0 0 0 -0.012751787006231504 -0.049551419004137939 0.010768254259912367 0 0.010768254259912367 -0.0045071896148079701 0 0 0 -0.013514652154736477 -0.045789702400443277 0.014047516503458504 0 0.014047516503458504 -0.0033815638633635323 0 0 0 -0.0122928165659517 -0.036313681250288402 0.014493620655112678 0 0.014493620655112678 -0.00075257194629888002 0 0 0 -0.0092665632991468221 -0.052625405220813673 0.014851810269188475 0 0.014851810269188475 -0.0016860579986429369 0 0 0 -0.013577865804864156 -0.035824635922226122 0.016297201751977543 0 0.016297201751977543 0.0011286206805548593 0 0 0 -0.0086740038104178158 -0.065099696532470469 0.011613888296859439 0 0.011613888296859439 -0.00076933702535972315 0 0 0 -0.016467258389457555 -0.050838405326617979 0.012390705573774991 0 0.012390705573774991 0.00082051795100370958 0 0 0 -0.012504471843903568 -0.077635964412642977 0.0044786623666650347 0 0.0044786623666650347 -0.0025134095498915293 0 0 0 -0.020037343490633623 -0.063092215587496184 0.0057769804563398723 0 0.0057769804563398723 -0.00031023056576444039 0 0 0 -0.015850611538315153 -0.057730310071651525 0.0080477828193477822 0 0.0080477828193477822 0.0034869540622991966 0 0 0 -0.013560839002338084 -0.05843145802005624 0.011939501599930569 0 0.011939501599930569 -0.00095123141699981692 0 0 0 -0.01484567235926401 -0.006474371266773523 0.017419406127418494 0 0.017419406127418494 -0.0021542067426505484 0 0 0 -0.0021571445023560176 -0.013324181803206048 0.021077277213302752 0 0.021077277213302752 -0.0024099438861924921 0 0 0 -0.0039335314223496384 -0.015582945524442483 0.015947128390448789 0 0.015947128390448789 -0.0013336351406877597 0 0 0 -0.004229145166282559 -0.028405618316521757 0.018655374648956315 0 0.018655374648956315 -0.0020122646566343924 0 0 0 -0.0076044707432890435 -0.030008058463682416 0.017018042155832032 0 0.017018042155832032 -0.0058565445606934413 0 0 0 -0.0089661507560939626 -0.018789879419586829 0.018838466472217732 0 0.018838466472217732 -0.0030815453564412842 0 0 0 -0.0054678561940070258 -0.01909911755161612 0.016640812028162318 0 0.016640812028162318 -0.0063733339484431323 0 0 0 -0.0063681128750148119 -0.031618125693476537 0.018628568281766546 0 0.018628568281766546 -0.00078835818761086029 0 0 0 -0.0081016209702718528 -0.033832505268194007 0.014499587217581034 0 0.014499587217581034 -0.0010412622580224656 0 0 0 -0.0087184418815541183 -0.028224221814056177 0.015965171965404396 0 0.015965171965404396 -0.0027803773404720053 0 0 0 -0.0077511497886320439 -0.012602303308581163 0.015684367011552142 0 0.015684367011552142 -0.00017128179335859639 0 0 0 -0.0031933962754849415 -0.013437728727334796 0.017307940713506147 0 0.017307940713506147 -0.0019595191225641739 0 0 0 -0.0038493119624747468 -0.0059760951957912693 0.020281711972149074 0 0.020281711972149074 -0.0017750078016924645 0 0 0 -0.0019377757493709326 -0.00039946759457888323 0.015190622995987318 0 0.015190622995987318 0.00043699496722635588 0 0 0 9.3818431618694631e-06 -0.0016325758073770531 0.018164762439867334 0 0.018164762439867334 -0.0010164930962623317 0 0 0 -0.00066226722590984922 -0.0021696938452474765 0.013760218971911237 0 0.013760218971911237 0.00066346745508456817 0 0 0 -0.00037655659754072535 -0.014852701619527656 0.018946241856162348 0 0.018946241856162348 -0.00038954866921826758 0 0 0 -0.0038105625721864822 -0.033895350355550358 0.018714600608504977 0 0.018714600608504977 -0.0003187034284031498 0 0 0 -0.0085535134459883803 -0.027376042886266216 0.018773563782503083 0 0.018773563782503083 -0.00075923365923783945 0 0 0 -0.0070338191363760096 -0.018180471403274241 0.015128433688284242 0 0.015128433688284242 0.0012049998299676623 0 0 0 -0.0042438678933266437 -0.034104573223609984 0.015310738594475102 0 0.015310738594475102 0.0017354620955285852 0 0 0 -0.0080922777820203497 -0.037902248485783392 0.018643369389200984 0 0.018643369389200984 0.00043581061033716451 0 0 0 -0.0093666094688615552 -0.027451105102566115 0.014547588926073106 0 0.014547588926073106 0.00096143683404547112 0 0 0 -0.0066224170671301584 -0.019658071719695441 0.019025215661987269 0 0.019025215661987269 0.0027785672362806782 0 0 0 -0.004219876120853689 -0.019842699263521668 0.014834196462266188 0 0.014834196462266188 0.0030162099687708055 0 0 0 -0.0042066223236877191 -0.0051010854765521129 0.014013528507432288 0 0.014013528507432288 0.002314337749214392 0 0 0 -0.00069668693183442859 -0.018116890615605386 0.019169482692438157 0 0.019169482692438157 0.00065588470754522968 0 0 0 -0.0043652514770150357 -0.01408224855895528 0.012580935355981272 0 0.012580935355981272 0.0045069328645998136 0 0 0 -0.0023938289235888623 0.0078768378705947988 0.012930382047413418 0 0.012930382047413418 0.0023649996326439993 0 0 0 0.0025604593758096969 -0.0029874958454590879 0.016576417087035292 0 0.016576417087035292 0.0027375284537435457 0 0 0 -6.2491847928881211e-05 -0.076254884685985583 0.0051394598387842078 0 0.0051394598387842078 -0.0029137566931934991 0 0 0 -0.019792160344794769 -0.060834221939182365 0.013524939363515651 0 0.013524939363515651 4.8567752937156428e-05 0 0 0 -0.015196413546561309 -0.090833004601173745 0.0071455196373523353 0 0.0071455196373523353 -0.00036511674448570092 0 0 0 -0.022799530336414849 -0.062485221802663631 0.0098175041727806816 0 0.0098175041727806816 0.0023979649545809133 0 0 0 -0.015021814212020682 -0.048039126257108392 0.013842483437233349 0 0.013842483437233349 0.0016769960115064347 0 0 0 -0.011590532561400489 -0.049616611363019161 0.015429477862899882 0 0.015429477862899882 -0.00052423922734512463 0 0 0 -0.01253521264759108 -0.050646397239384452 0.017305817260573432 0 0.017305817260573432 -0.00024522963888327573 0 0 0 -0.012722906719566936 -0.058219109318740567 0.011674396022045275 0 0.011674396022045275 0.0017266514730212221 0 0 0 -0.014123114461429848 -0.041249977306327346 0.014127624860842253 0 0.014127624860842253 0.00047834632758196605 0 0 0 -0.010192907744686348 -0.06051937247833232 0.015947474342387667 0 0.015947474342387667 -4.0048048143295767e-05 0 0 0 -0.015139855131618907 -0.047827939757964837 0.01241596558085763 0 0.01241596558085763 0.00019424850598459206 0 0 0 -0.011908422812995072 -0.059247542120804825 0.012134081820749258 0 0.012134081820749258 0.00158900582128591 0 0 0 -0.01441463407487974 -0.081781536251793407 0.0091697699655010588 0 0.0091697699655010588 -0.00025199312117512446 0 0 0 -0.020508382343242145 -0.078311130923897951 0.0096074544839998659 0 0.0096074544839998659 -0.00079905834069446662 0 0 0 -0.019777547316148125 -0.076114005804500298 0.0059252920987561322 0 0.0059252920987561322 0.00092595210559458935 0 0 0 -0.018797013424726443 -0.10281880330986569 0.0068541906465807434 0 0.0068541906465807434 -0.00054995514283198883 0 0 0 -0.025842189613174405 -0.10872781405264828 0.0057237181505792323 0 0.0057237181505792323 -0.00034311013335878646 0 0 0 -0.027267731046501771 -0.079809146392741573 0.0075878984404138157 0 0.0075878984404138157 0.0024253882291262233 0 0 0 -0.019345939540903846 -0.090743242137163324 0.0048067093815769568 0 0.0048067093815769568 0.0016627643846858498 0 0 0 -0.02227011943811933 -0.12436508960972895 0.003677700308922221 0 0.003677700308922221 0.0023475926483347564 0 0 0 -0.030504374240348502 -0.094213369948966397 0.010819266881118436 0 0.010819266881118436 0.0035953885201822078 0 0 0 -0.022654495357196068 -0.091252124553143327 0.0016192032976500847 0 0.0016192032976500847 0.00023737781812029068 0 0 0 -0.02275368668375579 -0.099397329201392576 0.0040171350730672448 0 0.0040171350730672448 0.0042668748946940033 0 0 0 -0.023782613576674629 -0.13733895306972446 -0.00068537437302071066 0 -0.00068537437302071066 -0.00052372226454738824 0 0 0 -0.034465668833567956 -0.056513230005650866 0.0043553439773650476 0 0.0043553439773650476 0.0074368939701564551 0 0 0 -0.012269084008873575 -0.047454677770232268 0.014972481925888438 0 0.014972481925888438 0.0053684942489104215 0 0 0 -0.010521545880330468 -0.070932718857725313 0.0099814229328429854 0 0.0099814229328429854 0.00050738510446979301 0 0 0 -0.017606333438313866 -0.069704263601040428 0.010852952893726928 0 0.010852952893726928 0.004109948763455093 0 0 0 -0.016398578709396375 -0.047488983519221685 0.016420345438290723 0 0.016420345438290723 0.0037908367443426211 0 0 0 -0.010924536693719768 -0.081951889995238059 0.015312062666374459 0 0.015312062666374459 0.0045225245769308087 0 0 0 -0.019357341354576792 -0.068068139083314799 0.0098255060027084146 0 0.0098255060027084146 0.00023334992962224452 0 0 0 -0.016958697288423148 -0.061505033148809632 0.016150375495842483 0 0.016150375495842483 0.0024950894731749504 0 0 0 -0.014752485918908672 -0.043803555185411451 0.017214467965645752 0 0.017214467965645752 0.0025358169186102848 0 0 0 -0.010316934566700289 -0.028998499694642996 0.016047424102234791 0 0.016047424102234791 0.0026971018021577052 0 0 0 -0.0065753494731213211 -0.028444892006132313 0.013321257155098323 0 0.013321257155098323 0.0042590210792705432 0 0 0 -0.0060464677317154459 -0.026010487146612502 0.012049523327231481 0 0.012049523327231481 0.0077949214070870652 0 0 0 -0.0045538914348813488 -0.013387131388715327 0.015736053863334459 0 0.015736053863334459 0.0039712034586726758 0 0 0 -0.0023539819825106603 -0.046650014385645498 0.013062785458059315 0 0.013062785458059315 0.0042550148039702425 0 0 0 -0.010598749895418817 -0.00020115584128014424 0.011671447068516055 0 0.011671447068516055 0.0075493623144773855 0 0 0 0.0018370516182993069 -0.003869820901494762 0.016763041401919358 0 0.016763041401919358 0.0024773591238883182 0 0 0 -0.000348115444401614 -0.010228380048726563 0.010513448576319907 0 0.010513448576319907 0.0092196409789179305 0 0 0 -0.00025218476745216163 0.009147040590061304 0.0056369944928879789 0 0.0056369944928879789 0.012322968754045972 0 0 0 0.0053675023360268189 0.0045012655199558587 0.013657474306027866 0 0.013657474306027866 0.006949825703946054 0 0 0 0.0028627728059754786 -0.0076099389745240206 0.010009683919169586 0 0.010009683919169586 0.014835339987640597 0 0 0 0.0018063502532791424 0.011149012915932496 0.0062330451750379767 0 0.0062330451750379767 0.014394214586040996 0 0 0 0.00638580687549338 0.011485805655703778 0.0048901024608617831 0 0.0048901024608617831 0.023413438150158311 0 0 0 0.0087248109514655239 -0.027821602402127221 0.016007422361927939 0 0.016007422361927939 0.0055261654067784022 0 0 0 -0.0055738592488371874 -0.03884954330030492 0.0084104647322906789 0 0.0084104647322906789 0.0066701504403200232 0 0 0 -0.0080448482149962294 -0.0090383453054527687 0.010931252870696424 0 0.010931252870696424 0.0074644978847387133 0 0 0 -0.00039346185517852121 -0.019440005231012907 0.005683943433616178 0 0.005683943433616178 0.011774973534750821 0 0 0 -0.0019162579240655023 -0.025780099615493109 0.014587289021486045 0 0.014587289021486045 0.012365951620093768 0 0 0 -0.0033535369988498334 -0.037190043367443179 0.01260648429284103 0 0.01260648429284103 0.014642690699180283 0 0 0 -0.0056368381670657275 -0.0227685361998511 0.0056822205835287826 0 0.0056822205835287826 0.028986860879059217 0 0 0 0.0015545811698020329 -0.034939110889875849 -0.0014075244166350809 0 -0.0014075244166350809 0.015242230539757255 0 0 0 -0.004924220087529632 0.03448318123790009 -0.0014981813809056693 0 -0.0014981813809056693 0.027134480791165733 0 0 0 0.015404415507266449 -0.012087789281750442 0.010090740199471419 0 0.010090740199471419 0.021407605199256392 0 0 0 0.0023299539793764801 0.0043979064467354057 0.0017608811624474086 0 0.0017608811624474086 0.022244562964598591 0 0 0 0.0066606173528335061 0.0093949901134939007 0.0041417960097443474 0 0.0041417960097443474 0.036892934567794966 0 0 0 0.011571981170322237 0.026811836605260122 -0.0077073793264044177 0 -0.0077073793264044177 0.039264673190509275 0 0 0 0.016519127448942347 0.0041094173324899945 -0.0019383250497338467 0 -0.0019383250497338467 0.054079639576111574 0 0 0 0.014547264227150369 0.0011396251295675563 -0.016075781447703941 0 -0.016075781447703941 0.05025663576474404 0 0 0 0.012849065223577927 0.012036830768541201 -0.022369185102175948 0 -0.022369185102175948 0.043934196568531925 0 0 0 0.013992756834268288 0.029388359407545472 -0.012763038714446562 0 -0.012763038714446562 0.081184558291383935 0 0 0 0.027643229424732352 -0.030647537217084631 -0.0080856586057851954 0 -0.0080856586057851954 0.033319229060490896 0 0 0 0.00066792296085146918 -0.0063940673439396856 -0.0060795904570164691 0 -0.0060795904570164691 0.026084692883356131 0 0 0 0.004922656384854146 -0.0077159582147392353 -0.020858960452759701 0 -0.020858960452759701 0.031181045031689669 0 0 0 0.005866271704237605 -0.036349764791880401 -0.0036061889853108431 0 -0.0036061889853108431 0.017031085697580162 0 0 0 -0.004829669773575046 -0.041296606948188624 -0.016451756077481672 0 -0.016451756077481672 0.019597019318140507 0 0 0 -0.0054248969075120501 -0.062632144234282525 -0.0079694920833942792 0 -0.0079694920833942792 0.013873574659473087 0 0 0 -0.012189642393702321 -0.073245441578712045 0.0024150842805908956 0 0.0024150842805908956 0.0072804786449554015 0 0 0 -0.016491240733439161 -0.084937645151763191 -0.013414276471764935 0 -0.013414276471764935 0.010935604651652442 0 0 0 -0.018500510125027764 -0.09746072528685279 0.00012768396552706451 0 0.00012768396552706451 0.0033549284576068206 0 0 0 -0.023526449207311506 -0.13950239535262543 -0.0019307351168891074 0 -0.0019307351168891074 0.0047756870892874392 0 0 0 -0.03368167706583447 -0.10425579162921249 0.002231153709522371 0 0.002231153709522371 0.0037960004703451733 0 0 0 -0.025114947789716777 -0.10097327164839048 -0.0041702490204241216 0 -0.0041702490204241216 0.0046363162955268822 0 0 0 -0.024084238838215928 -0.1080917843184785 -0.001949343308220719 0 -0.001949343308220719 0.0002462593001610891 0 0 0 -0.02696138125457935 -0.09094581916944891 0.0086438341025356219 0 0.0086438341025356219 0.0038881070181874255 0 0 0 -0.021764428037815448 -0.14238252608426452 0.0036244583881095277 0 0.0036244583881095277 0.0015169578554925511 0 0 0 -0.035216392057192986 -0.10561823966302358 0.0091716029655049963 0 0.0091716029655049963 0.0031873621388653281 0 0 0 -0.025607719381039611 -0.070550152545148015 0.012201558404627104 0 0.012201558404627104 0.0075687967734395234 0 0 0 -0.015745338942927123 -0.053518043142053925 0.0077498551208388666 0 0.0077498551208388666 0.012751216635666023 0 0 0 -0.01019170662659695 -0.074832389578270583 -0.00077447109114142654 0 -0.00077447109114142654 0.0076136737360846252 0 0 0 -0.016804678960546479 0.028443060989660408 -0.0051345993643376123 0 -0.0051345993643376123 0.071834532445401098 0 0 0 0.025069398358765371 0.026927364172333511 -0.0075455357211408249 0 -0.0075455357211408249 0.059465541759912158 0 0 0 0.021598226483061415 0.026561159550143498 -0.0098338355828262378 0 -0.0098338355828262378 0.05298743329133801 0 0 0 0.019887148210370364 0.022868912340557934 -0.0017529855406819145 0 -0.0017529855406819145 0.061600321527857341 0 0 0 0.021117308467103826 0.030271897685711445 0.006384242235449024 0 0.006384242235449024 0.067063135994904072 0 0 0 0.024333758420153888 0.033291433617720627 0.0044761520436161538 0 0.0044761520436161538 0.079242505895120247 0 0 0 0.028133484878210203 0.024009218406764121 -0.005157218100019424 0 -0.005157218100019424 0.077313089993476844 0 0 0 0.025330577100060245 0.02237308337793361 -0.0040191628358922527 0 -0.0040191628358922527 0.074292964868489741 0 0 0 0.02416651206160584 0.02957385359246701 -0.0054540640999493663 0 -0.0054540640999493663 0.073317416201548191 0 0 0 0.025722817448503819 0.027230151285081751 -0.0040081860492670526 0 -0.0040081860492670526 0.069330195858651952 0 0 0 0.024140086785933441 0.014382248865691886 -0.0033887184860683928 0 -0.0033887184860683928 0.068899088319717777 0 0 0 0.020820334296352432 0.022676976605141307 -0.00709564118278741 0 -0.00709564118278741 0.075087231331778165 0 0 0 0.024441051984229877 0.018328501070072643 -0.0090078408211076849 0 -0.0090078408211076849 0.071596926195715643 0 0 0 0.022481356816447046 0.020619863828822499 -0.014142508656895744 0 -0.014142508656895744 0.077056987121351478 0 0 0 0.024419212737543494 0.020493556349242825 -0.0068042062394924564 0 -0.0068042062394924564 0.089005367990085793 0 0 0 0.027374731084832155 0.06814121539717409 -0.058081740252674541 0 -0.058081740252674541 0.13881818295198611 0 0 0 0.05173984958729004 0.0097156541197352536 -0.030641701204483493 0 -0.030641701204483493 0.086813375366300904 0 0 0 0.024132257371509008 0.061552512336581086 -0.037652905669544101 0 -0.037652905669544101 0.076696558164608158 0 0 0 0.034562267625297308 0.011298967363607831 -0.013773193414423289 0 -0.013773193414423289 0.077350792440190719 0 0 0 0.022162439950949631 0.07103674593133566 -0.011137380160812088 0 -0.011137380160812088 0.12075570401648605 0 0 0 0.047948112486955408 0.055033726418666995 -0.024454329369933858 0 -0.024454329369933858 0.065870219035361832 0 0 0 0.030225986363507179 0.10242199348869048 -0.031524046104052225 0 -0.031524046104052225 0.084351637016367276 0 0 0 0.046693407626264463 0.046141992992960623 -0.021769146464133235 0 -0.021769146464133235 0.064537870502132555 0 0 0 0.027669965873773295 0.033434045495296577 -0.0041458623946331596 0 -0.0041458623946331596 0.062953098461723422 0 0 0 0.024096785989255048 0.063611525986169634 -0.0148955385275618 0 -0.0148955385275618 0.049417973091078676 0 0 0 0.02825737476931206 0.031139791964802599 -0.0058091348985278082 0 -0.0058091348985278082 0.040804402101734444 0 0 0 0.017986048516634254 0.041236234336047825 -0.0068216668177546597 0 -0.0068216668177546597 0.029848770860294443 0 0 0 0.01777125129908556 0.030773851743150848 -0.021122261262846283 0 -0.021122261262846283 0.067285425872610369 0 0 0 0.024514819403940315 0.026787099783495409 -0.021323733394484672 0 -0.021323733394484672 0.051215491817816983 0 0 0 0.019500647900328114 0.043285608912957449 -0.018870091973143939 0 -0.018870091973143939 0.056527504577557591 0 0 0 0.024953278372628757 0.028212534226579235 -0.0095229612445974447 0 -0.0095229612445974447 0.031040934806998627 0 0 0 0.01481336725839447 0.033861386123882842 -0.0099506195234633499 0 -0.0099506195234633499 0.053435602230102505 0 0 0 0.02182424708849633 0.032466259801636643 -0.0075761492316356628 0 -0.0075761492316356628 0.034581071141356376 0 0 0 0.016761832735748248 0.03177455726619606 0.0027206219078673979 0 0.0027206219078673979 0.030567386550102119 0 0 0 0.015585485954074539 0.027248118632686665 -0.00029874941639521438 0 -0.00029874941639521438 0.01815661159188884 0 0 0 0.011351182556143872 0.026198398223285502 -0.0028383375230648447 0 -0.0028383375230648447 0.028966873131081261 0 0 0 0.013791317838591683 0.031826338737990803 -0.0034621208372710684 0 -0.0034621208372710684 0.022525769100185493 0 0 0 0.013588026959544088 0.026772743556910238 0.0037830106692085166 0 0.0037830106692085166 0.024410937903174355 0 0 0 0.012795920365021144 0.015900282490940904 0.0088891096592425296 0 0.0088891096592425296 0.016146386239907478 0 0 0 0.0080116671827120955 0.023553056389762843 0.0018432354549762046 0 0.0018432354549762046 0.014598427991679052 0 0 0 0.0095378710953604728 0.020984152659850673 0.010340279747726926 0 0.010340279747726926 0.012569788278103964 0 0 0 0.008388485234488657 0.016239199604698676 0.0076668576837531444 0 0.0076668576837531444 0.0077595822571724232 0 0 0 0.0059996954654677748 0.010059951047809745 0.01401796856341762 0 0.01401796856341762 0.0065454286457995794 0 0 0 0.0041513449234023298 0.030940955930076459 0.0020895944602326846 0 0.0020895944602326846 0.021189685806008669 0 0 0 0.013032660434021286 0.029183335851854987 0.00039662228456754586 0 0.00039662228456754586 0.019107196679439074 0 0 0 0.012072633132823515 0.027623001917652251 0.0068164648648681193 0 0.0068164648648681193 0.01717046076279425 0 0 0 0.011198365670111631 0.024924384673900943 0.0053641718984938358 0 0.0053641718984938358 0.01398539717310758 0 0 0 0.0097274454617521378 0.030901920374362332 0.0036542522720072936 0 0.0036542522720072936 0.023503592048173216 0 0 0 0.013601378105633886 0.033971526489755259 0.010071651287759983 0 0.010071651287759983 0.015253431547457674 0 0 0 0.012306239509303235 0.041107704062671162 0.010706517143791495 0 0.010706517143791495 0.023521678649731662 0 0 0 0.016157345678100697 0.04159393521233451 0.0098167076367716762 0 0.0098167076367716762 0.020512474593209207 0 0 0 0.015526602451385933 0.035073160958059992 0.0037390687610974385 0 0.0037390687610974385 0.026725152192432759 0 0 0 0.0154495782876232 0.035394905665136429 0.0036889594519239049 0 0.0036889594519239049 0.034717175923917251 0 0 0 0.017528020397263422 0.030531235914809607 0.00092734396024399951 0 0.00092734396024399951 0.030904889974941868 0 0 0 0.015359031472437862 0.036368664722256243 0.0020245571243508939 0 0.0020245571243508939 0.048159587171561019 0 0 0 0.02113206297345431 0.039453904622235567 0.0075072124464186738 0 0.0075072124464186738 0.03698021914847479 0 0 0 0.019108530942677587 0.027755639249422211 -0.00046572224897330552 0 -0.00046572224897330552 0.044107740095779648 0 0 0 0.017965844836300461 0.032414479401067009 -0.0028889605590880548 0 -0.0028889605590880548 0.059081472437951553 0 0 0 0.022873987959754656 0.027537677231890365 -0.0064101199609559786 0 -0.0064101199609559786 0.040824866725590381 0 0 0 0.017090635989370176 0.042591072888356479 0.012221708301604366 0 0.012221708301604366 0.073661533657283909 0 0 0 0.029063151636410114 0.031764775154990404 0.0063658368441867272 0 0.0063658368441867272 0.050567547130212984 0 0 0 0.020583080571300857 0.036248558324658925 0.0040050812811254343 0 0.0040050812811254343 0.064743944993972083 0 0 0 0.025248125829657745 0.039498783116382954 0.0080780889230831331 0 0.0080780889230831331 0.038276881363835953 0 0 0 0.019443916120054725 0.043976824388331552 0.013277702661183138 0 0.013277702661183138 0.048432342632500403 0 0 0 0.023102291755207983 0.045217972561152509 0.012718841255052196 0 0.012718841255052196 0.051536916990567491 0 0 0 0.024188722387929996 0.04743620174454799 0.013345764079903068 0 0.013345764079903068 0.027214369031725333 0 0 0 0.018662642694068345 0.048099051403513123 0.013953853192282831 0 0.013953853192282831 0.031587266505102227 0 0 0 0.019921579477153839 0.056294421117116092 0.016680622806749951 0 0.016680622806749951 0.023262145921246244 0 0 0 0.01988914175959058 0.054191447092567346 0.014860096177707661 0 0.014860096177707661 0.014023201212020855 0 0 0 0.01705366207614703 0.047849839615558137 0.011391908988347906 0 0.011391908988347906 0.006755177926602976 0 0 0 0.013651254385540282 0.047244961101153837 0.013887348192542321 0 0.013887348192542321 0.016950931585670695 0 0 0 0.016048973171706143 0.048477233025649713 0.012251385901435737 0 0.012251385901435737 0.01548178770676098 0 0 0 0.015989755183102687 0.035713519050022888 0.0075946974854864263 0 0.0075946974854864263 0.015478491345973733 0 0 0 0.012798002598999162 0.036803067778134774 0.011530244270540162 0 0.011530244270540162 0.0088124689286575159 0 0 0 0.011403884176698071 0.042167998170647272 0.012139487866422206 0 0.012139487866422206 0.010156115616195383 0 0 0 0.013081028446710677 0.043489130974312867 0.012375986317192382 0 0.012375986317192382 0.014413173106926344 0 0 0 0.014475576020309796 0.044519105211358045 0.010899006455663003 0 0.010899006455663003 0.0046943558144824996 0 0 0 0.012303365256460143 0.044233294629909402 0.012920764094485226 0 0.012920764094485226 0.0039818668166889393 0 0 0 0.012053790361649582 0.035903234733061104 0.011942390868474848 0 0.011942390868474848 0.0037614614005320735 0 0 0 0.0099161740333982909 0.050640713721122062 0.012030960693462992 0 0.012030960693462992 0.0027310248138360249 0 0 0 0.013342934633739527 0.049955577704075188 0.0096746414493471822 0 0.0096746414493471822 0.0015178131495480023 0 0 0 0.012868347713405788 0.056921550610319706 0.011395765500681335 0 0.011395765500681335 0.0035621255241189906 0 0 0 0.015120919033609665 0.052650957966631148 0.010384610355061019 0 0.010384610355061019 0.0027369852092425581 0 0 0 0.013846985793968437 0.049909045623836384 0.012826708610799436 0 0.012826708610799436 0.0071309464677150949 0 0 0 0.014259998022887875 0.0098172315712311241 0.013224959386641928 0 0.013224959386641928 0.008549543492415608 0 0 0 0.004591693765911683 0.019851673371154462 0.011459979511929872 0 0.011459979511929872 0.0039969128479463052 0 0 0 0.0059621465547751891 0.010431351829596064 0.014343214339279924 0 0.014343214339279924 0.0039969529602207898 0 0 0 0.0036070761974542134 0.026507250644527101 0.010660542389770693 0 0.010660542389770693 0.0024558671491340389 0 0 0 0.0072407794484152868 0.022015006855479993 0.012275914955807926 0 0.012275914955807926 0.0099232118957338772 0 0 0 0.0079845546878034787 0.027475788091239559 0.011279847619798389 0 0.011279847619798389 0.00863837092081602 0 0 0 0.0090285397530138773 0.030031017245550039 0.0077722098609158095 0 0.0077722098609158095 0.0086533039179020905 0 0 0 0.0096710802908630336 0.031174639042876727 0.013318490501089946 0 0.013318490501089946 0.011486570051698161 0 0 0 0.010665302273643727 0.034566370251069151 0.010352898341668564 0 0.010352898341668564 0.0038254092843194587 0 0 0 0.0095979448838471558 0.028954354529445999 0.010972902448232957 0 0.010972902448232957 0.0045481638030211366 0 0 0 0.008375629583116783 0.0354756226037415 0.013661985636311023 0 0.013661985636311023 0.0023751732565383821 0 0 0 0.0094626989650699669 0.024847278144885777 0.014522397280811106 0 0.014522397280811106 0.0056042969873562228 0 0 0 0.0076128937830604974 0.022634181782692317 0.013068705974756598 0 0.013068705974756598 0.0020384144728192444 0 0 0 0.0061681490638778869 0.01191296780127581 0.013899664289866888 0 0.013899664289866888 0.0020862804351579611 0 0 0 0.0034998120591084418 0.010107071788157729 0.016616362889993418 0 0.016616362889993418 0.00086872104820921725 0 0 0 0.0027439482090917365 0.0096993564395412325 0.014157801275648994 0 0.014157801275648994 0.0017335341877432325 0 0 0 0.0028582226568211154 0.00035947025590557687 0.01717903512327542 0 0.01717903512327542 0.0010960550041310413 0 0 0 0.00036388131500915237 0.0070023302533033099 0.018835107836191432 0 0.018835107836191432 6.2406855916283255e-05 0 0 0 0.0017661842773048914 -0.00076254103380715699 0.016339735505538182 0 0.016339735505538182 0.0020043538449439346 0 0 0 0.00031045320278418748 0.0075296706063985551 0.014214510592431617 0 0.014214510592431617 -6.3484146914316586e-05 0 0 0 0.001866546614871057 0.017738102579367185 0.016754068703179716 0 0.016754068703179716 0.0014150224866990961 0 0 0 0.0047882812665165728 0.016048227229568997 0.01461770834517525 0 0.01461770834517525 0.0013981751816189297 0 0 0 0.0043616006027969809 0.019564758658451309 0.017417449965297135 0 0.017417449965297135 0.0014518994556194792 0 0 0 0.0052541645285176936 0.025107120800486358 0.012582664842937769 0 0.012582664842937769 0.0014013136259174615 0 0 0 0.0066271086066009531 0.026823079722321726 0.014125126058818518 0 0.014125126058818518 0.003008610143289292 0 0 0 0.0074579224664027589 0.034741540607524525 0.014546178427223359 0 0.014546178427223359 0.0013160847596241677 0 0 0 0.0090144063417871775 0.02713156937596839 0.013169640647415097 0 0.013169640647415097 0.0052130662902848957 0 0 0 0.0080861589165633213 0.02353797128736294 0.018053138982300723 0 0.018053138982300723 0.0031000685153327323 0 0 0 0.0066595099506739208 0.020391829072001242 0.015680164094751411 0 0.015680164094751411 0.0067973953019259559 0 0 0 0.006797306093481799 0.01223564220247674 0.020401371986197528 0 0.020401371986197528 0.0011371720013352432 0 0 0 0.0033432035509529962 0.0072300609422820692 0.016865583978714651 0 0.016865583978714651 0.0024075261904058652 0 0 0 0.0024093967831719833 -8.2420319814421189e-05 0.021588040164381726 0 0.021588040164381726 -0.0014645965717857284 0 0 0 -0.00038675422290003481 0.048942852968282949 0.0091199239933010615 0 0.0091199239933010615 0.0038197225450595125 0 0 0 0.013190643878335611 0.050906016227206696 0.01019970066928225 0 0.01019970066928225 0.0015482934933093162 0 0 0 0.01311357743012901 0.04329670397394008 0.011403140347797802 0 0.011403140347797802 0.0022436266700029683 0 0 0 0.01138508266098576 0.043432662465124242 0.012152429033806325 0 0.012152429033806325 0.0017406144224975037 0 0 0 0.011293319221905442 0.035892804718383721 0.012267053008074647 0 0.012267053008074647 0.003925968808398024 0 0 0 0.0099546933816954345 0.040975109878653937 0.011840307360854266 0 0.011840307360854266 0.004671678460590141 0 0 0 0.011411697084811021 0.032179569593637901 0.013541789101609974 0 0.013541789101609974 0.01072053720488393 0 0 0 0.010725026699630458 0.032509803676806615 0.01534167776592732 0 0.01534167776592732 0.0064842463795421329 0 0 0 0.0097485125140871869 0.039277954355392226 0.011840505335812631 0 0.011840505335812631 0.013090805958886757 0 0 0 0.013092190078569745 0.039812999509363109 0.011756588368129818 0 0.011756588368129818 0.0068577730685147539 0 0 0 0.011667693144469467 0.048399525926940835 0.0082083064773570951 0 0.0082083064773570951 0.0079876582729191091 0 0 0 0.014096796049964989 0.044471583739735317 0.010372208656307178 0 0.010372208656307178 0.003043621286072831 0 0 0 0.01187880125645204 0.04278129992362787 0.0097344152912534551 0 0.0097344152912534551 0.007550786580642635 0 0 0 0.012583021626067626 0.043884880851786164 0.0093678752136324012 0 0.0093678752136324012 0.014626671407546456 0 0 0 0.014627888064833153 0.046670959577697679 0.0059258608808091962 0 0.0059258608808091962 0.0057036026177806169 0 0 0 0.01309364054886957 0.050551081722544688 0.0029402398918857305 0 0.0029402398918857305 0.01683945253522769 0 0 0 0.016847633564443094 0.046043859949347517 0.0013066171229500351 0 0.0013066171229500351 0.0038255442802369076 0 0 0 0.012467351057396105 0.054298459051319997 0.0011078724140622758 0 0.0011078724140622758 0.0059109711484200602 0 0 0 0.015052357549935017 0.05362777703885982 0.0043284828240845409 0 0.0043284828240845409 0.0037616288443412843 0 0 0 0.014347351470800275 0.054739044403273387 0.0062099240523603274 0 0.0062099240523603274 0.0020002577364314038 0 0 0 0.0141848255349262 0.052134873083553926 0.0032915559242981266 0 0.0032915559242981266 -0.00038186551125466567 0 0 0 0.012938251893074812 0.059202825996054295 0.0036016711676124962 0 0.0036016711676124962 0.0018493615506489484 0 0 0 0.015263046886675805 0.054823844687988101 0.0057492732466950351 0 0.0057492732466950351 -0.0023393357871855014 0 0 0 0.013121127225200641 0.056445758712006008 0.0010497775042733991 0 0.0010497775042733991 -0.0054020516462137784 0 0 0 0.012760926766448062 0.052138471799342924 -0.0056577238287852548 0 -0.0056577238287852548 -0.0063243839498152536 0 0 0 0.011453521962381922 0.055301436378943386 -0.0016143669409922744 0 -0.0016143669409922744 1.9114015936634587e-05 0 0 0 0.013830137598720009 0.052242593363157772 -0.0010374043710927557 0 -0.0010374043710927557 0.0013687099966596459 0 0 0 0.013402825839954353 0.049974820085146941 -0.0014871106032808329 0 -0.0014871106032808329 0.016661323746160975 0 0 0 0.01665903595782698 0.049173851305511759 -0.0056282152924872104 0 -0.0056282152924872104 0.016377716910091076 0 0 0 0.016387892053900708 0.045344373498532861 -0.0048305638974565435 0 -0.0048305638974565435 0.0043551109649236225 0 0 0 0.012424871115864121 0.04090366354236339 -0.01177990410494085 0 -0.01177990410494085 0.013631011469291238 0 0 0 0.013633668752913658 0.049642226364869813 -0.007018995669927048 0 -0.007018995669927048 0.0035336322107006705 0 0 0 0.013293964643892616 0.03893598264671029 -0.01172261795159624 0 -0.01172261795159624 -0.00074151539120482363 0 0 0 0.0095486168138763719 0.024927677407165397 -0.017448154842146235 0 -0.017448154842146235 0.0083011624631602488 0 0 0 0.0083072099675814103 0.026992139187148281 -0.019697971172079023 0 -0.019697971172079023 -0.0046055022593437106 0 0 0 0.0055966592319511427 0.012028763509871344 -0.025351094283744234 0 -0.025351094283744234 -0.006162276231081433 0 0 0 0.0014666218196974778 0.026663787218457875 -0.020021016129798983 0 -0.020021016129798983 -0.010976663819382365 0 0 0 0.0039217808497688765 0.032389052559790237 -0.015417388505404871 0 -0.015417388505404871 -0.0070391491661556949 0 0 0 0.0063374758484086319 0.039905711498943515 -0.012552643851696533 0 -0.012552643851696533 -0.0014374756981938362 0 0 0 0.0096170589501874196 0.021314265161435968 -0.018834160940532873 0 -0.018834160940532873 -0.0067507343346144277 0 0 0 0.0036408827067053798 0.039150752381879886 -0.012845581171110929 0 -0.012845581171110929 -0.0073274578213201619 0 0 0 0.0079558236401399314 0.051591973403331742 -0.0074783106673838584 0 -0.0074783106673838584 -0.0095104152148227511 0 0 0 0.010520389547127255 0.054160014045005526 -0.0037658994217165988 0 -0.0037658994217165988 -0.0037381936822157118 0 0 0 0.012605455090697455 0.056513046295854692 -0.0054859751020642422 0 -0.0054859751020642422 -0.0062666750169398655 0 0 0 0.012561592819728703 0.055122207086711728 -0.0047199957500253069 0 -0.0047199957500253069 -0.010035997172292735 0 0 0 0.011271552478604743 0.067851873446018118 0.0002834553691977125 0 0.0002834553691977125 -0.0077493751264273818 0 0 0 0.015025624579897685 0.045192429015293106 -0.013757660541733448 0 -0.013757660541733448 -0.013242764299185519 0 0 0 0.0079874161790269051 0.034991718322213997 -0.019364805891420669 0 -0.019364805891420669 -0.011562496229986452 0 0 0 0.0058573055230568827 0.045185134121398185 -0.0131075950106803 0 -0.0131075950106803 -0.010205802815008581 0 0 0 0.0087448328265974061 0.048915712500705671 -0.0090404301974618337 0 -0.0090404301974618337 -0.0089487533271836658 0 0 0 0.0099917397933804997 0.027148514093619291 -0.019557857128350804 0 -0.019557857128350804 -0.013926363595762797 0 0 0 0.0033055376244641201 0.045782479836579938 -0.019950477149449846 0 -0.019950477149449846 -0.014378752940156871 0 0 0 0.0078509317241057669 0.055453466411130442 -0.015223877057848017 0 -0.015223877057848017 -0.0093039636752393958 0 0 0 0.011537375683972763 0.051418292339911187 -0.012495219507537816 0 -0.012495219507537816 -0.012852174725000588 0 0 0 0.0096415294037276236 0.074560054335284037 -0.0047902841529132729 0 -0.0047902841529132729 -0.0056293967369589956 0 0 0 0.017232664399581269 0.055384189996006361 -0.019245150851070158 0 -0.019245150851070158 -0.0062766801967766087 0 0 0 0.012276877449807443 0.053449185275280753 -0.01812364869922975 0 -0.01812364869922975 -0.009221632486086706 0 0 0 0.011056888197298512 0.063295513349574548 0.00024597988799911636 0 0.00024597988799911636 -0.0061834850980389761 0 0 0 0.014278007062883897 0.065354301126747616 -0.0087153760429943532 0 -0.0087153760429943532 -0.0096045557156229991 0 0 0 0.013937436352781151 0.073572069531773726 0.0022144126948210711 0 0.0022144126948210711 -0.0077977194243708768 0 0 0 0.016443587526850705 0.085155519584009645 0.0085191266551346914 0 0.0085191266551346914 0.0027837696149330474 0 0 0 0.021984822299735682 0.072333678974613791 0.01063885136213032 0 0.01063885136213032 0.0038638127788267361 0 0 0 0.019049372938360145 0.075875113331957733 0.0099330825615123169 0 0.0099330825615123169 0.0052891869514496842 0 0 0 0.020291075070851858 0.068563805158040017 0.0071107174629175115 0 0.0071107174629175115 -0.003188739240614467 0 0 0 0.016343766479356397 0.06861612622390699 0.012895780930503725 0 0.012895780930503725 0.0051662765843528708 0 0 0 0.018445600702064954 0.071550963189269762 0.016675126800360457 0 0.016675126800360457 0.01448581591459186 0 0 0 0.021509194775965381 0.064862926517734704 0.012160563356813878 0 0.012160563356813878 0.0057688346805871427 0 0 0 0.017657940299580462 0.063808224591275164 0.016890553731467875 0 0.016890553731467875 0.016359809129673469 0 0 0 0.020042008430237152 0.056942868749167208 0.012545458337358643 0 0.012545458337358643 0.0070858011100916329 0 0 0 0.016007167464814703 0.055437358098152638 0.012388067263324018 0 0.012388067263324018 0.0066271782759511734 0 0 0 0.015516134093525948 0.060828681470858896 0.0086863067086775277 0 0.0086863067086775277 -0.00077834369277370898 0 0 0 0.015012584444521299 0.063347714367950697 0.010504654425769477 0 0.010504654425769477 0.002620477444299274 0 0 0 0.016492047953062493 0.055173020439726467 0.007898955578742305 0 0.007898955578742305 -0.0017828197614480727 0 0 0 0.013347550169569605 0.062200921979591192 0.0065716175688175782 0 0.0065716175688175782 0.00027427768063938065 0 0 0 0.015618799915057635 0.057985417405171852 0.0039851787087847668 0 0.0039851787087847668 -0.0047379766691999399 0 0 0 0.013311860183992972 0.061670033008119608 0.0025338099889687486 0 0.0025338099889687486 -0.0028379987442038578 0 0 0 0.014708008565978946 0.060296909126678525 -0.0025226324027326696 0 -0.0025226324027326696 -0.0061725711074190545 0 0 0 0.013531084504814876 0.062978200385980398 0.0056157095974185963 0 0.0056157095974185963 -0.0030472681247335574 0 0 0 0.014982733065311714 0.067215674554332833 0.0065770500684712158 0 0.0065770500684712158 -0.0027938946472249879 0 0 0 0.016105444976776968 -0.11140344745860978 -0.007974683761435248 0 -0.007974683761435248 -0.0046028051007445947 0 0 0 -0.029001563139838593 -0.077783951845432617 -0.021057888658868838 0 -0.021057888658868838 -0.0022217646079316401 0 0 0 -0.020001429113341067 -0.086036986718163469 -0.0098658824744790683 0 -0.0098658824744790683 -0.00069841834162366351 0 0 0 -0.021683851264946784 -0.076484243109514294 -0.013888470121741329 0 -0.013888470121741329 0.0059788258127358856 0 0 0 -0.017626354324194609 -0.068503050315876113 -0.0092781742642576437 0 -0.0092781742642576437 0.0051828760676861513 0 0 0 -0.01583004356204749 -0.06727853062369421 -0.0061584673824826991 0 -0.0061584673824826991 -0.0081620967191698823 0 0 0 -0.018860156835716024 -0.063718444827466428 -0.0081230662765312874 0 -0.0081230662765312874 -0.021197883914532235 0 0 0 -0.021229082185499664 -0.065495052432831644 -0.010761219376286053 0 -0.010761219376286053 -0.0085321241806393631 0 0 0 -0.018506794153367749 -0.063878368455397572 -0.018703371895186671 0 -0.018703371895186671 -0.0059115201786616028 0 0 0 -0.017447472158514794 -0.058190736225915474 -0.019681968966129441 0 -0.019681968966129441 -0.0037207035527595939 0 0 0 -0.015477859944668765 -0.050034202267747345 -0.019764225676642651 0 -0.019764225676642651 -0.016686434371376763 0 0 0 -0.016680159159781029 -0.050023497061611889 -0.019771735699443651 0 -0.019771735699443651 -0.016652310385931787 0 0 0 -0.016668951861885918 -0.05592277010207114 -0.023425399122700075 0 -0.023425399122700075 -0.0069643736823033625 0 0 0 -0.015721785946093619 -0.038445208904337898 -0.02410875906602249 0 -0.02410875906602249 -0.0022414632714478563 0 0 0 -0.010171668043946432 -0.063233903835603858 -0.021763949402297773 0 -0.021763949402297773 0.00098149463473884424 0 0 0 -0.015563102300216248 -0.091100594782747346 -0.021846308780691895 0 -0.021846308780691895 -0.0037344835239194601 0 0 0 -0.023708769576666684 -0.036649628692812498 -0.028857349025875098 0 -0.028857349025875098 -0.0017748419653335207 0 0 0 -0.0096061176645365134 -0.067371452527874021 -0.026467876518120347 0 -0.026467876518120347 -0.006493181839270723 0 0 0 -0.018466158591786189 -0.032502094226957066 -0.024729850131861984 0 -0.024729850131861984 -0.0057397070597193234 0 0 0 -0.0095604503216690992 -0.025797167388591061 -0.025113442006644515 0 -0.025113442006644515 -0.0089405496793727793 0 0 0 -0.0086844292669909506 -0.032221954584405889 -0.030193364480777862 0 -0.030193364480777862 -0.0063805024521943476 0 0 0 -0.0096506142591500504 -0.029245896158192373 -0.02762692789617447 0 -0.02762692789617447 -0.0036550542097057506 0 0 0 -0.00822523759197453 -0.031027147090330914 -0.02618564406971418 0 -0.02618564406971418 -0.0081695282216733139 0 0 0 -0.0097991688280010571 -0.013143075006666378 -0.022812194897606164 0 -0.022812194897606164 -0.004393241988669392 0 0 0 -0.0043840792488339421 -0.011898442117881599 -0.027109738152477691 0 -0.027109738152477691 -0.0073996633140219897 0 0 0 -0.0048245263579758954 -0.0056701234659301582 -0.02166481457942784 0 -0.02166481457942784 -0.0032446004137541423 0 0 0 -0.0022286809699210743 -0.0067461856543034118 -0.028674967312853281 0 -0.028674967312853281 -0.0060395314429042488 0 0 0 -0.0031964292743019151 0.0065467222637191295 -0.02136542212834646 0 -0.02136542212834646 0.0021844415234239575 0 0 0 0.0021827909467857717 0.018231989941434275 -0.017858319129374321 0 -0.017858319129374321 -0.0018238043851040511 0 0 0 0.0041020463890825525 0.0075239149787165345 -0.027204639973505636 0 -0.027204639973505636 -0.0090649286688981034 0 0 0 -0.0003852534225453931 0.00068922333154546045 -0.026973564685200943 0 -0.026973564685200943 -0.0090249402607117113 0 0 0 -0.0020839292322915662 0.0017506307911250461 -0.022013637131060051 0 -0.022013637131060051 -0.0082941652358808383 0 0 0 -0.0016358836111889522 0.018210608265806144 -0.026398617235989165 0 -0.026398617235989165 -0.015151445945680811 0 0 0 0.00076479058003132983 0.028827397902070763 -0.021405036858646628 0 -0.021405036858646628 -0.010094216490378893 0 0 0 0.0046832953529229518 0.0026626659075634925 -0.03116606126669625 0 -0.03116606126669625 -0.01534065842011868 0 0 0 -0.0031694981281387932 0.027486479907925788 -0.026620865807074647 0 -0.026620865807074647 -0.015324560960585543 0 0 0 0.0030404797368350604 0.0043247468619118544 -0.027931262443232768 0 -0.027931262443232768 -0.0052229127774322953 0 0 0 -0.00022454147888010829 -0.0058135741847951811 -0.035589550904380859 0 -0.035589550904380859 -0.011814475980543207 0 0 0 -0.004407012541334597 0.025330708622454401 -0.023974008736392056 0 -0.023974008736392056 -0.0063278837434382756 0 0 0 0.0047507062197540417 -0.0042781343968568836 -0.032077121657362838 0 -0.032077121657362838 -0.0061694892096945259 0 0 0 -0.0026119059016378489 0.00079223624444927851 -0.03852729825054986 0 -0.03852729825054986 -0.0041485955735531543 0 0 0 -0.00083908983227596809 -0.039701111810868009 -0.033290037884282177 0 -0.033290037884282177 -0.012889031189837592 0 0 0 -0.0131475357501764 -0.035510639880867459 -0.034964671438543038 0 -0.034964671438543038 -0.0086701276920139597 0 0 0 -0.011045191893220358 -0.038110284429066298 -0.028468655273034528 0 -0.028468655273034528 -0.00329997925293396 0 0 0 -0.010352565920500059 -0.00297349384146736 -0.027534484002974337 0 -0.027534484002974337 -0.0052104834689390214 0 0 0 -0.0020459943276015993 -0.023281575887730964 -0.030913100538012786 0 -0.030913100538012786 -0.010763065608210082 0 0 0 -0.0085111603739852562 -0.061229298620593522 -0.029222202637000955 0 -0.029222202637000955 -0.0063398619612709053 0 0 0 -0.016892290145466119 -0.057297869189696468 -0.026600544881137375 0 -0.026600544881137375 0.0020725582196874925 0 0 0 -0.013806327742502251 -0.081006043632615488 -0.02457718251885934 0 -0.02457718251885934 -0.00034662850083119756 0 0 0 -0.020338168033361657 -0.061527297264112747 -0.036261015497272335 0 -0.036261015497272335 -0.00093916833547692813 0 0 0 -0.015616616399897414 -0.077636408964036688 -0.027925756856792622 0 -0.027925756856792622 -0.0070060898752641772 0 0 0 -0.021160624709825215 -0.042308507367632399 -0.041155479568176223 0 -0.041155479568176223 -0.0020308641996229296 0 0 0 -0.011084842891813832 -0.077191787153914171 -0.031993998642919165 0 -0.031993998642919165 0.0032701398495739442 0 0 0 -0.018480411826085053 -0.12152927746198386 -0.022476935780330439 0 -0.022476935780330439 -0.0068242138193933197 0 0 0 -0.032088372820344296 -0.13134461192811217 -0.026533474381521059 0 -0.026533474381521059 -0.0036045415325772628 0 0 0 -0.033737288365172355 -0.16069901588174496 -0.014556324386367177 0 -0.014556324386367177 -0.0010076247896733254 0 0 0 -0.040426660167854574 -0.11500484390490998 -0.011594011027119785 0 -0.011594011027119785 0.00039600276012713778 0 0 0 -0.028652210286195696 -0.13448553612220759 -0.013349106901298109 0 -0.013349106901298109 -0.0010890709232513479 0 0 0 -0.033893651761364739 -0.083041146808379609 -0.026329831370349333 0 -0.026329831370349333 -0.00098959899517175876 0 0 0 -0.021007686450887825 -0.11334823776930206 -0.010429231350527361 0 -0.010429231350527361 -0.0063070392458626145 0 0 0 -0.02991381925379118 -0.084672716885663968 -0.017449029782017813 0 -0.017449029782017813 0.004312317268967289 0 0 0 -0.020090099904174159 -0.17138075068329517 -0.012994758504972725 0 -0.012994758504972725 0.0085519212249757781 0 0 0 -0.040707207364579889 -0.25059978186659165 -0.0019937887227352707 0 -0.0019937887227352707 0.00039922287770877141 0 0 0 -0.062550139747220679 -0.15939369902095638 -0.029631155143451812 0 -0.029631155143451812 0.0086472757844370043 0 0 0 -0.037686605809129831 -0.15822060483623657 -0.0079113426144911125 0 -0.0079113426144911125 0.0035622287028989064 0 0 0 -0.038664594033334387 -0.21589613600591728 -0.010929295344137767 0 -0.010929295344137767 0.0033729057628601178 0 0 0 -0.053130807560764298 -0.18475125953048097 -0.013609848667762405 0 -0.013609848667762405 -0.00020911198803112707 0 0 0 -0.046240092879628041 -0.12528782285962492 -0.014462120068782737 0 -0.014462120068782737 0.0025280846322052603 0 0 0 -0.030689934556854953 -0.14501829932678795 -0.01222655476935014 0 -0.01222655476935014 0.0024276533010162554 0 0 0 -0.035647661506442899 -0.13900795201414057 -0.032124125230655914 0 -0.032124125230655914 0.0045286030417825002 0 0 0 -0.033619837243089534 -0.081996488611360996 -0.03340113488471233 0 -0.03340113488471233 0.0047599597322488044 0 0 0 -0.019309132219778046 -0.083384374692238722 -0.03230737062061502 0 -0.03230737062061502 -0.0007477692824246901 0 0 0 -0.021033035993665856 -0.055738698763726467 -0.031802133576913902 0 -0.031802133576913902 -0.0089694586572440366 0 0 0 -0.016177039355242638 -0.081537794902276806 -0.044311716323724201 0 -0.044311716323724201 0.011769620860275443 0 0 0 -0.017442043510500327 -0.10853908176495325 -0.021614810336007387 0 -0.021614810336007387 0.0034460694174113585 0 0 0 -0.026273253086885499 -0.090009080581981787 -0.016543154012087335 0 -0.016543154012087335 0.011092595327610043 0 0 0 -0.019729121313592952 -0.017276390420410445 -0.035044565240444497 0 -0.035044565240444497 0.014800835450485161 0 0 0 -0.00061888874248131054 -0.0096206716106411461 -0.030454147489228284 0 -0.030454147489228284 0.035936472272646458 0 0 0 0.0065789501655013349 0.021113277756606728 -0.041660993607099975 0 -0.041660993607099975 0.0094690895444593248 0 0 0 0.007645591825266515 -0.066462021344487643 -0.030927387883109267 0 -0.030927387883109267 0.014225275481490593 0 0 0 -0.013059186465749257 -0.025238735401971909 -0.040754248535390947 0 -0.040754248535390947 0.006558786014244763 0 0 0 -0.004669987346931798 -0.062243652154866401 -0.044208800129794917 0 -0.044208800129794917 0.00072604128867594098 0 0 0 -0.015379402716547622 -0.028209036234902639 -0.045749906283078068 0 -0.045749906283078068 -0.0052546038053525573 0 0 0 -0.0083659100100637977 -0.021148381124484316 -0.03429523336396173 0 -0.03429523336396173 -0.00026563166600926391 0 0 0 -0.0053535031976233959 0.011338464808379625 -0.0416686613721933 0 -0.0416686613721933 0.00077267950217667185 0 0 0 0.003027786077639075 -0.024298174574213106 -0.03434997161092071 0 -0.03434997161092071 0.0055356822788736951 0 0 0 -0.0046906230738348494 0.013099231669173929 -0.030046370802313108 0 -0.030046370802313108 0.00017235139002661631 0 0 0 0.0033178957648001377 0.048810747821692313 -0.036523621784564836 0 -0.036523621784564836 0.0010856790472722712 0 0 0 0.012474106717241149 0.033031503965707795 -0.03511354972852572 0 -0.03511354972852572 -0.0049441252651083335 0 0 0 0.0070218446751498676 0.064739391116384451 -0.027405464904263616 0 -0.027405464904263616 -0.0028856499164709726 0 0 0 0.01546343529997837 0.033578168828674836 -0.023561796524163538 0 -0.023561796524163538 -0.0062603751638232868 0 0 0 0.0068294484162128855 0.051274450546176936 -0.020911752166044028 0 -0.020911752166044028 0.0076079477969449652 0 0 0 0.014720599585780477 0.085666214397697921 -0.029560532862743009 0 -0.029560532862743009 0.012561192947584066 0 0 0 0.02455685183632051 0.024714969408317557 -0.029421572568401291 0 -0.029421572568401291 0.01808447174745318 0 0 0 0.010699860288942686 0.069204928309298447 -0.036052464225874971 0 -0.036052464225874971 0.021920400015646102 0 0 0 0.02278133208123613 0.067584285491020274 -0.018276028529338822 0 -0.018276028529338822 0.032811110092874823 0 0 0 0.025098848895973781 0.10315441686716571 -0.0092186892322197872 0 -0.0092186892322197872 0.068247022304880833 0 0 0 0.042850359793011661 0.11716848332108265 -0.030355484555065544 0 -0.030355484555065544 0.050250999436577223 0 0 0 0.041854870689414972 0.040693345674647913 -0.022022946761079215 0 -0.022022946761079215 0.044532804341277141 0 0 0 0.021306537503981288 0.02124605835443974 -0.043723497360176444 0 -0.043723497360176444 0.04798518581389194 0 0 0 0.017307811042082927 0.077168543718784177 -0.043238160195047781 0 -0.043238160195047781 0.10282328490549719 0 0 0 0.044997957156070356 0.10763274133659795 -0.025267262197642359 0 -0.025267262197642359 0.19125505352901795 0 0 0 0.074721948716403974 0.11241897567444287 0.028344873944002369 0 0.028344873944002369 0.16148480239548252 0 0 0 0.068475944517481402 0.09145269079063878 0.022215544202769222 0 0.022215544202769222 0.20643713140425435 0 0 0 0.074472455548723282 0.068720510415126612 0.016476804064520734 0 0.016476804064520734 0.13043235904679151 0 0 0 0.049788217365479448 0.038041031254799573 -0.020562290219283463 0 -0.020562290219283463 0.098464536280943357 0 0 0 0.034126391883935708 0.064249018563731969 -0.001467886057077511 0 -0.001467886057077511 0.10060332477086986 0 0 0 0.041213085833650437 0.012576894593573723 0.034366051657571367 0 0.034366051657571367 0.11336666347910485 0 0 0 0.031485889518169691 -0.017637769338026632 0.013204334912198357 0 0.013204334912198357 0.066035795901421501 0 0 0 0.01209950664084869 -0.052175918656060249 0.023462665767425984 0 0.023462665767425984 0.082275785547834879 0 0 0 0.0075249667229436712 -0.025218284203930685 -0.017398572300753694 0 -0.017398572300753694 0.035688972756249271 0 0 0 0.0026176721380796741 -0.064418408876954797 -0.0057256489335741623 0 -0.0057256489335741623 0.036864661209915439 0 0 0 -0.0068884369167598603 -0.0064353383623811933 -0.012533391294922869 0 -0.012533391294922869 0.093344309005035542 0 0 0 0.021727242660663587 -0.060625042536899029 -0.037114362494944805 0 -0.037114362494944805 0.041632760377338526 0 0 0 -0.0047480705398900832 -0.11400323200598647 -0.03082674663895725 0 -0.03082674663895725 0.018393478234288385 0 0 0 -0.023902438442924528 -0.12398363736186149 -0.0040325100699110938 0 -0.0040325100699110938 0.016963195446976331 0 0 0 -0.026755110478721256 -0.083834982075362385 -0.025323835995218147 0 -0.025323835995218147 0.035789993676467846 0 0 0 -0.012011247099723621 -0.11257444508216022 0.015304876441093185 0 0.015304876441093185 0.035430034472186539 0 0 0 -0.019286102652493399 -0.07318127523877474 0.0088948383432738143 0 0.0088948383432738143 0.022866581096567473 0 0 0 -0.012578673535551782 -0.14529542690490788 0.029955596979351462 0 0.029955596979351462 0.017539361161215572 0 0 0 -0.031939016435923007 -0.11690876810727055 0.013069019352701661 0 0.013069019352701661 0.047723622245548936 0 0 0 -0.017296286465430327 -0.12519472904866158 -0.003408376866057175 0 -0.003408376866057175 0.018275290330405092 0 0 0 -0.026729859679564205 -0.17689618708818322 0.0097892977963809913 0 0.0097892977963809913 0.016349076252547667 0 0 0 -0.040136777708908888 -0.1706647562933393 0.00093277960020604622 0 0.00093277960020604622 0.0099519146244915202 0 0 0 -0.040178210417211868 -0.25878740076060613 0.0044286055164144836 0 0.0044286055164144836 0.011405710252405665 0 0 0 -0.061845422627050062 -0.18801049104302403 -0.0048130420388997619 0 -0.0048130420388997619 0.0064281367647480714 0 0 0 -0.04539558856956899 -0.2672885162234076 -0.0083693353043248798 0 -0.0083693353043248798 0.0073834632294906832 0 0 0 -0.064976263248479216 -0.19577339343892344 0.0020262158960786536 0 0.0020262158960786536 0.00082134543595546727 0 0 0 -0.048738012000741938 -0.1538359177062239 -0.021585514382774812 0 -0.021585514382774812 0.012324146369810746 0 0 0 -0.035377942834103289 -0.18508830873574267 -0.022468597216594666 0 -0.022468597216594666 0.008503833236147007 0 0 0 -0.044146118874898888 0.084390749729264081 0.030488378108016842 0 0.030488378108016842 0.044104259499340506 0 0 0 0.032123752307151143 0.088327088714555399 0.032356981256054393 0 0.032356981256054393 0.053657656144278254 0 0 0 0.035496186214708417 0.094289889487979284 0.034966393151336345 0 0.034966393151336345 0.055465106518274167 0 0 0 0.037438749001563312 0.072107946930373881 0.029474901162052421 0 0.029474901162052421 0.066612273271131645 0 0 0 0.034680055050376385 0.054326534654784452 0.022280663271623216 0 0.022280663271623216 0.074011525660364369 0 0 0 0.0320845150787872 0.062619406573658859 0.024339288753298556 0 0.024339288753298556 0.046065548678159096 0 0 0 0.027171238812954468 0.044537596342668385 0.016246966310521794 0 0.016246966310521794 0.052349123021240326 0 0 0 0.024221679840977166 0.071678354288783497 0.026767395298806645 0 0.026767395298806645 0.049173786023554239 0 0 0 0.03021303507808441 0.056746163671913326 0.018064127795927989 0 0.018064127795927989 0.028771589609664368 0 0 0 0.02137943832039442 0.057012882520065901 0.020180978008532465 0 0.020180978008532465 0.042717664644295862 0 0 0 0.02493263679109043 0.056150805449278612 0.014541436609044417 0 0.014541436609044417 0.015518141454786964 0 0 0 0.017917236726016403 0.066637479408162517 0.021554310970345106 0 0.021554310970345106 0.030601521708226623 0 0 0 0.024309750279097285 0.06961746661236308 0.017737840646533252 0 0.017737840646533252 0.013153904859173039 0 0 0 0.020692842867884011 0.070146672539148303 0.02161493626136643 0 0.02161493626136643 0.030998349496693424 0 0 0 0.025286255508960461 0.080447469240965103 0.024645635051520117 0 0.024645635051520117 0.027474670086397895 0 0 0 0.026980534831840743 0.084162951829032828 0.0154096193966174 0 0.0154096193966174 0.010651627099305568 0 0 0 0.023703644732084601 0.074834234240039516 0.012467086314594256 0 0.012467086314594256 0.0096898719093789984 0 0 0 0.021131026537354627 0.071828571959480128 -0.0037974173403693204 0 -0.0037974173403693204 -0.0048691553522480849 0 0 0 0.016739854151807999 0.091845916125429208 0.0040253811440743442 0 0.0040253811440743442 0.010734117402214499 0 0 0 0.025645008381910916 0.088260446279637486 0.0059759726607975048 0 0.0059759726607975048 0.0069045648250767935 0 0 0 0.023791252776178586 0.091620915138063114 0.021486526673955612 0 0.021486526673955612 0.02545377956460991 0 0 0 0.029268673675668246 0.067790141928050662 -0.010845318593668211 0 -0.010845318593668211 -0.0010769911494095622 0 0 0 0.016678287694660281 0.082945922277016526 -0.015077445358734764 0 -0.015077445358734764 0.0019509346719056558 0 0 0 0.021224214237230532 0.092365795560542446 -0.0025172346629977957 0 -0.0025172346629977957 0.016899811667358267 0 0 0 0.027316401806975189 0.10590986898519422 -0.008901558000050486 0 -0.008901558000050486 0.028145634837540595 0 0 0 0.033513875955683711 0.12469822800237726 0.010601017562217933 0 0.010601017562217933 0.047095087573539862 0 0 0 0.042948328893979287 0.10484866602030624 0.023131848885848894 0 0.023131848885848894 0.028823389258961926 0 0 0 0.03341801381981703 0.11895352374974918 0.01618946836308411 0 0.01618946836308411 0.025675240581103778 0 0 0 0.036157191082713223 0.10267290062604223 0.021946353917216443 0 0.021946353917216443 0.041549131760684706 0 0 0 0.036055508096681732 0.13094011511391479 0.028044075411161523 0 0.028044075411161523 0.048041316586792587 0 0 0 0.044745357925176796 0.1115203006252351 0.044075855207365955 0 0.044075855207365955 0.093438659702210936 0 0 0 0.051239740081861496 0.16609941067393758 0.046898949953280422 0 0.046898949953280422 0.088071631389382565 0 0 0 0.063542760515830063 0.13734455914558069 0.044888082999036405 0 0.044888082999036405 0.13765574383364473 0 0 0 0.068750075744806349 0.1054864161124608 0.050137722826184734 0 0.050137722826184734 0.14526200472302636 0 0 0 0.062687105208871816 0.12351349831787396 0.040865795585007553 0 0.040865795585007553 0.097519206159712102 0 0 0 0.055258176119396554 0.16217787575617765 -0.0048029788543970525 0 -0.0048029788543970525 0.07365084943600525 0 0 0 0.058957181298045724 0.16553224859452287 0.015326371140089584 0 0.015326371140089584 0.11892457159071176 0 0 0 0.071114205046308679 0.17302998144520715 -0.030283394097305245 0 -0.030283394097305245 0.10257809328835388 0 0 0 0.06890201868339027 0.30328615311140272 -0.014350782527859152 0 -0.014350782527859152 0.17563801982544075 0 0 0 0.11973104323421085 0.19891973015311981 -0.0064266420814625136 0 -0.0064266420814625136 0.39137499335532866 0 0 0 0.14757368087711212 0.28714264844767734 0.13013535898001208 0 0.13013535898001208 0.28253219913901484 0 0 0 0.14241871189667307 0.14520846022260459 0.076911497077290669 0 0.076911497077290669 0.24309451002809113 0 0 0 0.097075742562673942 0.073106011169165236 0.034008739014781408 0 0.034008739014781408 0.13810231979609469 0 0 0 0.052802082741314954 0.1390118498665758 0.050938442035444148 0 0.050938442035444148 0.14016539068757317 0 0 0 0.069794310138537263 0.081327560779726193 -0.025221691623596235 0 -0.025221691623596235 0.2788960395539683 0 0 0 0.090055900083423623 0.059210742739982669 -0.026663175557123619 0 -0.026663175557123619 0.15600338679315659 0 0 0 0.053803532383284849 0.061395390440622727 -0.026145347465967451 0 -0.026145347465967451 0.16694489119195929 0 0 0 0.057085070408145533 0.078823302551439933 0.033331356605531173 0 0.033331356605531173 0.15655112577180855 0 0 0 0.058843607080812099 0.076909175682459141 0.033165237972926254 0 0.033165237972926254 0.089900009223559674 0 0 0 0.041702296226504683 0.067892372811171359 0.026198813195573264 0 0.026198813195573264 0.14021243692663563 0 0 0 0.052026202434451746 0.047004935463412126 0.013588721467282849 0 0.013588721467282849 0.092254579229930855 0 0 0 0.034814878673335756 0.063119090524588847 0.027078555204153188 0 0.027078555204153188 0.11112951262836811 0 0 0 0.043562150788239218 0.067661773424326249 0.028918556341822468 0 0.028918556341822468 0.065162791353109817 0 0 0 0.033206141194359023 0.084042398702629723 0.039882281882113284 0 0.039882281882113284 0.097440967769574532 0 0 0 0.045370841618051078 0.044096590844321278 0.017101050264516825 0 0.017101050264516825 0.068022678112847165 0 0 0 0.028029817239292106 0.044856928758190071 0.015015488993849895 0 0.015015488993849895 0.094531835710412709 0 0 0 0.034847191117150692 0.054230373341324557 -0.024177574934165207 0 -0.024177574934165207 0.10502405513563465 0 0 0 0.039813607119239827 0.037172675437345142 -0.0030566754098398843 0 -0.0030566754098398843 0.094740099820017215 0 0 0 0.032978193814340591 0.033011093658675217 -8.7053873282994659e-05 0 -8.7053873282994659e-05 0.083752572868896591 0 0 0 0.029190916631892983 0.050396892073156153 0.008373163358641373 0 0.008373163358641373 0.12521073771766672 0 0 0 0.043901907447705689 0.04660105526118298 -0.020507753476099726 0 -0.020507753476099726 0.080252990698277335 0 0 0 0.031713511489865079 0.043234857249763101 -0.020962758540655851 0 -0.020962758540655851 0.065657373033958327 0 0 0 0.027223057570930353 0.07297413242646783 -0.039282499069779556 0 -0.039282499069779556 0.074584075980453732 0 0 0 0.036889552101730394 0.063649662349986799 -0.036789445774396592 0 -0.036789445774396592 0.039115117508773556 0 0 0 0.025691194964690064 0.049184418697819463 -0.024091056482944115 0 -0.024091056482944115 0.031944610229842844 0 0 0 0.020282257231915613 0.07694109444765701 -0.034472558322654057 0 -0.034472558322654057 0.039963333276397783 0 0 0 0.02922610693101374 0.078295177699932467 -0.034301422421196215 0 -0.034301422421196215 0.04403453658964844 0 0 0 0.030582428572395244 0.063386832624496514 -0.025145734154312441 0 -0.025145734154312441 0.014648111654486928 0 0 0 0.019508736069745847 0.11243426520977803 -0.01587542920957135 0 -0.01587542920957135 0.031418238727468184 0 0 0 0.035963125984311506 0.095230181963468191 -0.024976763826976153 0 -0.024976763826976153 0.012363314432266237 0 0 0 0.026898374098933642 0.1015212223601302 -0.030677262017367105 0 -0.030677262017367105 0.02127406456903802 0 0 0 0.030698821732292048 0.1300110457072359 -0.05617943127719939 0 -0.05617943127719939 0.06352367686351014 0 0 0 0.048383680642686569 0.05204083124855903 -0.026167494587906261 0 -0.026167494587906261 0.10492751192954763 0 0 0 0.039242085794526649 0.081062862616119252 -0.046420253231895282 0 -0.046420253231895282 0.075462601077517927 0 0 0 0.039131365923409288 0.081992500916146682 -0.050300266158980492 0 -0.050300266158980492 0.089679828913623832 0 0 0 0.042918082457442636 0.089336759364197493 -0.062026678888069155 0 -0.062026678888069155 0.13740074443440553 0 0 0 0.056684375949650763 0.054897289852623599 -0.055284387208794125 0 -0.055284387208794125 0.18057409496435495 0 0 0 0.058867846204244678 0.10523721283687905 -0.054265364098704597 0 -0.054265364098704597 0.18032668878819291 0 0 0 0.071390975406267959 0.14112869074773213 -0.017141151667054606 0 -0.017141151667054606 0.49895959962298286 0 0 0 0.16002207259267873 0.12721267148582463 -0.02069454726352378 0 -0.02069454726352378 -0.015466291598998427 0 0 0 0.027936594971706558 0.16702283914362032 -0.085531723058916653 0 -0.085531723058916653 0.11365223146699889 0 0 0 0.070168767652654826 0.26676364561320842 0.1803780626652105 0 0.1803780626652105 0.32527676178648984 0 0 0 0.14801010184992458 0.1622297454155846 -0.12354274920298133 0 -0.12354274920298133 0.2170825523540803 0 0 0 0.094828074442416255 0.0097213910737299816 0.0016378162131718658 0 0.0016378162131718658 0.026542911058853948 0 0 0 0.0090660755331459838 0.44270775576433419 0.15152989492715513 0 0.15152989492715513 0.093725494186237324 0 0 0 0.13410831248764277 0.23802884114936623 0.040776703639830769 0 0.040776703639830769 0.056554561843606133 0 0 0 0.07364585074824298 0.022489485847291019 0.0039696383032127667 0 0.0039696383032127667 0.067667479741628428 0 0 0 0.022539241397229862 0.046132201709337919 0.0065075142268347097 0 0.0065075142268347097 0.067277697306793172 0 0 0 0.028352474754032755 0.22938337981063983 0.036813919213131902 0 0.036813919213131902 0.049597122631824142 0 0 0 0.069745125610615966 0.032138595783359758 0.0055699342274772128 0 0.0055699342274772128 0.095971706071262694 0 0 0 0.032027575463655616 0.063769327680004317 0.013722783477391087 0 0.013722783477391087 0.079716176867256405 0 0 0 0.035871376136815236 0.1812591436326858 0.032280614987577505 0 0.032280614987577505 0.036432826006465913 0 0 0 0.054422992409787985 0.10934755831934276 -0.029693908662476121 0 -0.029693908662476121 0.0025567539593400745 0 0 0 0.027976078069670729 0.10534758570826627 0.0077246347036128982 0 0.0077246347036128982 0.049539414990394992 0 0 0 0.038721750174665309 0.1064716695824898 -0.0093257807482942101 0 -0.0093257807482942101 0.045263903851149867 0 0 0 0.037933893358409937 0.10979585872432301 -0.003168204655072282 0 -0.003168204655072282 0.032505810693496312 0 0 0 0.035575417354454852 0.093298287208555486 0.0093839424368561686 0 0.0093839424368561686 0.046211182487016833 0 0 0 0.034877367423893135 0.10324992367909216 0.0071088423676932688 0 0.0071088423676932688 0.081897545114801851 0 0 0 0.046286867198473552 0.09387656385080137 0.013903874338790811 0 0.013903874338790811 0.095783809366174977 0 0 0 0.047415093304244121 0.10799267664962481 0.0034001654813662074 0 0.0034001654813662074 0.048844225550400022 0 0 0 0.039209225550006221 0.16891843643828808 0.027685572206564757 0 0.027685572206564757 0.0484795877145201 0 0 0 0.054349506038202211 0.18014338066812219 0.018937731573002825 0 0.018937731573002825 0.087191870944315575 0 0 0 0.066833812903109524 0.20452524474198697 0.014303083325869371 0 0.014303083325869371 0.081969710044970334 0 0 0 0.071623738696739103 0.040608247265347966 0.0066575710651750365 0 0.0066575710651750365 0.12154585753883373 0 0 0 0.040538526201045429 0.18685393470598677 0.014903916954891728 0 0.014903916954891728 0.093265980075538657 0 0 0 0.070029978695381301 0.17926446904465776 0.013041665299106775 0 0.013041665299106775 0.0953719994419997 0 0 0 0.068659117121664281 0.15551731665907265 0.026091190799508279 0 0.026091190799508279 0.093404512262134531 0 0 0 0.06223045723030185 0.18448255677440883 0.012846977180224055 0 0.012846977180224055 0.1167702387789058 0 0 0 0.075313198888328436 0.11726625418422931 0.013803015616689063 0 0.013803015616689063 0.12379552259735316 0 0 0 0.060265444195395534 0.049079922443884275 0.0074367351958494129 0 0.0074367351958494129 0.14691479934123297 0 0 0 0.048998680446279308 0.1654812369107983 0.013947406940378659 0 0.013947406940378659 0.11979088717238406 0 0 0 0.07131803102079548 0.10324147061942855 0.011698571758095189 0 0.011698571758095189 0.074882862553932339 0 0 0 0.044531083293340198 0.099217995734593167 0.0075069591676910352 0 0.0075069591676910352 0.04592857086682911 0 0 0 0.036286641650355611 0.11492003074174778 0.0075455315409834189 0 0.0075455315409834189 0.10661932641406535 0 0 0 0.055384839288953269 0.1102658019910539 0.0082525643027050316 0 0.0082525643027050316 0.079445778721922267 0 0 0 0.047427895178244028 0.11736004926759452 0.013056482477843023 0 0.013056482477843023 0.087853615120227602 0 0 0 0.05130341609695549 0.09757002711469584 0.0075222157174799076 0 0.0075222157174799076 0.040011071673126383 0 0 0 0.034395274696955552 0.093533992371183317 0.0054989423528747639 0 0.0054989423528747639 0.045182564930530411 0 0 0 0.034679139325428265 0.10018833089202178 0.0060414911626973655 0 0.0060414911626973655 0.040557087352104948 0 0 0 0.035186354561031696 0.088972323932888023 -0.0061579938934885337 0 -0.0061579938934885337 0.011938736117176107 0 0 0 0.025227765012516019 0.089272713531788617 -0.0010998666429830259 0 -0.0010998666429830259 0.018915424339030484 0 0 0 0.027047034467704734 0.074577228150874697 -0.003127851171629073 0 -0.003127851171629073 0.012261198029067222 0 0 0 0.021709606544985494 0.077834204129292095 -0.0059327976776619717 0 -0.0059327976776619717 0.014148767418411312 0 0 0 0.02299574288692588 0.073491561281237877 -0.014197523973546122 0 -0.014197523973546122 0.007602584614660679 0 0 0 0.020273536473974674 0.082027395207206227 -0.0057012952374644876 0 -0.0057012952374644876 0.015063990816186187 0 0 0 0.024272846505848079 0.08579284423505959 -0.014024807293228553 0 -0.014024807293228553 0.0096145168241476009 0 0 0 0.023851840264801805 0.068256485953509305 -0.017128327801890705 0 -0.017128327801890705 0.0035759681215409289 0 0 0 0.017958113518762531 0.083523703410198893 -0.022401857645572398 0 -0.022401857645572398 0.012686715072945831 0 0 0 0.024052604620786192 0.067132594965114895 -0.023540489193900532 0 -0.023540489193900532 0.015502743182843504 0 0 0 0.020658834536989606 0.087772151135776355 -0.015059299432595111 0 -0.015059299432595111 0.0091066097968540149 0 0 0 0.024219690233157565 0.095734206910368824 -0.0029267191760893319 0 -0.0029267191760893319 0.017331350897719699 0 0 0 0.028266389452022145 0.10129190426816154 -0.0066200102710686493 0 -0.0066200102710686493 0.023644196662988545 0 0 0 0.031234025232787503 -0.13579904870287418 0.014070300671645386 0 0.014070300671645386 0.005331705082481264 0 0 0 -0.032616835905098229 -0.16156769938340576 0.019473969115732671 0 0.019473969115732671 0.0079607144221731652 0 0 0 -0.038401746240308121 -0.110220702824123 0.048108917892252578 0 0.048108917892252578 0.021014383669659242 0 0 0 -0.022301579788615911 -0.21665561978538461 0.020254333083123854 0 0.020254333083123854 0.0074154768726528708 0 0 0 -0.052310035728182935 -0.22603065414578166 0.015253200353111729 0 0.015253200353111729 0.012455179095402391 0 0 0 -0.053393868762594832 -0.13639979304246544 0.01844037853446312 0 0.01844037853446312 0.005887326489563055 0 0 0 -0.032628116638225423 -0.14284189390268559 0.024234872648637884 0 0.024234872648637884 0.0084827040562296396 0 0 0 -0.033589797461613891 -0.10092615214547462 0.050178294447957628 0 0.050178294447957628 0.028512762345552112 0 0 0 -0.018103347449980656 -0.060203277425724955 0.050283400449515847 0 0.050283400449515847 0.02987571538552003 0 0 0 -0.0075818905100513145 -0.031270861988074272 0.065376029899243848 0 0.065376029899243848 0.055564338239564082 0 0 0 0.0060733690628724801 -0.057803525388975041 0.04296375923532203 0 0.04296375923532203 0.011176819153435158 0 0 0 -0.011656676558885248 -0.042864387216543981 0.067109901170568254 0 0.067109901170568254 0.026455837320513265 0 0 0 -0.0041021374740075889 -0.083617384445600518 0.037684226971972379 0 0.037684226971972379 0.0059370432239869153 0 0 0 -0.019420085305403401 -0.026798276334782489 0.05530364015949174 0 0.05530364015949174 0.010593575722416482 0 0 0 -0.0040511751530913909 0.076844244567116637 0.079808935722801788 0 0.079808935722801788 0.031714029922277343 0 0 0 0.027139568622348731 0.023605104797695509 0.067981240354555938 0 0.067981240354555938 0.023192254728743755 0 0 0 0.011699339881609871 0.098772981769967849 0.098562031880408657 0 0.098562031880408657 0.066534712087010561 0 0 0 0.041326923464244603 0.023242589763331156 0.073397433900208919 0 0.073397433900208919 0.027763036582028944 0 0 0 0.01275140658634033 -0.051872958395602353 0.041206026472691004 0 0.041206026472691004 0.032792177202196182 0 0 0 -0.0047701952983515428 0.0024819506141010653 0.074952717368191424 0 0.074952717368191424 0.085982119585773509 0 0 0 0.022116017549968621 0.015811679145026944 0.061779062066594559 0 0.061779062066594559 0.060954189787476798 0 0 0 0.019191467233126078 0.076332927691919683 0.095329997180849668 0 0.095329997180849668 0.13888407574219452 0 0 0 0.053804250858528468 0.1028596646776464 0.10208058003836243 0 0.10208058003836243 0.22331367402849311 0 0 0 0.081543334676534851 0.15947387692413129 0.1206633846962808 0 0.1206633846962808 0.08544314259718333 0 0 0 0.06122925488032871 0.17951248440943601 0.10293190315887601 0 0.10293190315887601 0.086232759670949066 0 0 0 0.066436311020096284 0.11413992779041193 0.068705740806087823 0 0.068705740806087823 0.03324148768343349 0 0 0 0.036845353868461439 0.15116025266897992 0.075556594616386974 0 0.075556594616386974 0.042531527992500262 0 0 0 0.048422945165370157 0.1829151522981638 0.033682514872697966 0 0.033682514872697966 0.044475942664576884 0 0 0 0.056847773740685392 0.10220190507993293 0.054465184558279756 0 0.054465184558279756 0.023236701829818796 0 0 0 0.031359651727438091 0.10264610377333017 0.05838565551354935 0 0.05838565551354935 0.022886811540890228 0 0 0 0.031383228828555154 0.14881233824197149 0.037523379623206177 0 0.037523379623206177 0.046078019650331647 0 0 0 0.048722589473075839 0.1434296697598535 0.032792148736704885 0 0.032792148736704885 0.049877215874422287 0 0 0 0.048326721408568862 0.14849625102815733 0.024502474385688866 0 0.024502474385688866 0.065226385979944901 0 0 0 0.053430659252025725 0.13285826132851564 0.033124833054634539 0 0.033124833054634539 0.060018992583081854 0 0 0 0.04821931347789965 0.10383829481327589 0.041537591419739173 0 0.041537591419739173 0.036520776321001591 0 0 0 0.035089767783569314 0.10201366950142887 0.049937250928042243 0 0.049937250928042243 0.025728544180890545 0 0 0 0.031935553420579854 0.053423430987149009 0.042892229142902361 0 0.042892229142902361 0.023569440548166343 0 0 0 0.019248217883828841 0.060019699124076675 0.045590227068849076 0 0.045590227068849076 0.025298798651080645 0 0 0 0.021329624443789275 0.050247510174578958 0.045695290672582267 0 0.045695290672582267 0.018486079482090467 0 0 0 0.017183397414167301 0.00087973959003839752 0.054418306915246462 0 0.054418306915246462 0.012269672578251622 0 0 0 0.003287353042072505 0.053706862604314898 0.059470626698392204 0 0.059470626698392204 0.017529326598207717 0 0 0 0.017809047300630487 0.070379225396139056 0.047646191730558285 0 0.047646191730558285 0.016699320489514058 0 0 0 0.021769636471413278 0.017165275207300379 0.055626587999801691 0 0.055626587999801691 0.010379973101362516 0 0 0 0.0068863120771660569 0.0012567613880820616 0.068210067421919374 0 0.068210067421919374 0.01552220993717901 0 0 0 0.0041947428313151569 -0.036198396520176201 0.043218322065028625 0 0.043218322065028625 0.0041759078394747462 0 0 0 -0.0080056221701751973 -0.052060216943854098 0.053554852637179517 0 0.053554852637179517 0.014877877659555949 0 0 0 -0.0092955848210742875 -0.043212361599529681 0.033484091498188803 0 0.033484091498188803 0.0080364020796492852 0 0 0 -0.0087939898799698213 -0.041884461115416494 0.050966085171830322 0 0.050966085171830322 0.0070240607935028176 0 0 0 -0.0087151000804787659 0.0033653716978374604 0.048514971274154717 0 0.048514971274154717 0.0084857955894168668 0 0 0 0.0029627918218135818 0.009628469133680484 0.048696578159457715 0 0.048696578159457715 0.0059807454408398186 0 0 0 0.0039023036436302561 -0.016885316680036677 0.037041423558771047 0 0.037041423558771047 0.011237898117065548 0 0 0 -0.0014118546407428934 -0.035207790412547846 0.033210601436951315 0 0.033210601436951315 0.0051304068728947883 0 0 0 -0.0075193458849129868 -0.055573529796396626 0.039846672854777165 0 0.039846672854777165 0.0090563875653799641 0 0 0 -0.011629285557753999 -0.08473300791405336 0.014152548857704421 0 0.014152548857704421 0.0070432097187209664 0 0 0 -0.01942244954883332 -0.041677205963103869 0.013694263808369023 0 0.013694263808369023 0.01170429764288583 0 0 0 -0.0074932270800545098 -0.068718354207534582 0.015789361391241874 0 0.015789361391241874 0.010900559028006906 0 0 0 -0.014454448794882002 -0.12725820678593447 0.015218683711976639 0 0.015218683711976639 0.0055938048884049962 0 0 0 -0.030416100474382146 -0.096665843456416045 0.037742747140791955 0 0.037742747140791955 0.0069646274938226505 0 0 0 -0.022425303990648127 -0.091297455641999425 0.018994636331556292 0 0.018994636331556292 0.0052953069338510517 0 0 0 -0.021500537177036927 0.0030840266049664139 0.013257329160662135 0 0.013257329160662135 0.01704249286263676 0 0 0 0.0050316298669007414 -0.021244557850764068 0.0094318209966086641 0 0.0094318209966086641 0.0086769545222100675 0 0 0 -0.0031419008321387221 0.0018141211368285504 0.019412191264474798 0 0.019412191264474798 0.013594798810105502 0 0 0 0.0038522299867329579 -0.033565944879258236 0.011231023341669885 0 0.011231023341669885 0.012344555585833916 0 0 0 -0.005305347323356191 -0.028620635484340795 0.0089058065682294796 0 0.0089058065682294796 0.010585005304139194 0 0 0 -0.0045089075450501781 -0.060113490608160181 0.012688777500418568 0 0.012688777500418568 0.0087079675465693285 0 0 0 -0.01285138076539738 -0.049239294260217115 0.024759748129602022 0 0.024759748129602022 0.0068679540600529165 0 0 0 -0.010592835050040605 -0.031623222016487595 0.019902435416648601 0 0.019902435416648601 0.0095964220962776459 0 0 0 -0.0055066999800525984 -0.012536719609092639 0.033441413313601731 0 0.033441413313601731 0.0097653528997110328 0 0 0 -0.00069284167734551261 -0.0091968568536016093 0.024977688836359313 0 0.024977688836359313 0.014657224626874132 0 0 0 0.0013650919433176867 0.0053518272807333567 0.030552589952699938 0 0.030552589952699938 0.011290253947368711 0 0 0 0.004160520307025628 0.021979028644886434 0.026459556253691119 0 0.026459556253691119 0.017915173162227127 0 0 0 0.0099735504517788343 0.023058167123987339 0.02204091360440108 0 0.02204091360440108 0.019684973267552586 0 0 0 0.010685785097884537 -0.0015932420964477334 0.027825597725652074 0 0.027825597725652074 0.014754083801326701 0 0 0 0.0032902104262195753 0.023987079574070425 0.02500405803169703 0 0.02500405803169703 0.02065812460708738 0 0 0 0.011161301045289562 0.060187096219430636 0.023733905423561297 0 0.023733905423561297 0.033717523042955833 0 0 0 0.023476154815595951 0.064651400979884643 0.027096813747338633 0 0.027096813747338633 0.045873707083042614 0 0 0 0.02763127701573187 0.087610867159868766 0.025153691327771011 0 0.025153691327771011 0.045593536426780545 0 0 0 0.033301100896662605 0.026182102887450043 0.03272824005031838 0 0.03272824005031838 0.023074848466101194 0 0 0 0.012314237838388031 0.021247333962942427 0.040787657515699571 0 0.040787657515699571 0.014659166228261356 0 0 0 0.0089766250478011678 0.053626745988436975 0.030543807442914739 0 0.030543807442914739 0.02558931606617687 0 0 0 0.01980401551365385 0.049775967938248823 0.032221465645566383 0 0.032221465645566383 0.024115244500489179 0 0 0 0.018472803109684389 0.079282062810244108 0.039001692064215554 0 0.039001692064215554 0.034769974424223138 0 0 0 0.028513009308617138 0.056921406733115187 0.03238331842055181 0 0.03238331842055181 0.037502560853010181 0 0 0 0.023605991896531897 0.1078464163215557 0.023285358188914085 0 0.023285358188914085 0.063762405010424628 0 0 0 0.042902205332994742 0.10573317968598173 0.030428710401685599 0 0.030428710401685599 0.063980188853459019 0 0 0 0.042428342134860353 0.097627342905431291 0.033319502934268594 0 0.033319502934268594 0.040229133498669967 0 0 0 0.034464119101025315 0.12247334214931938 0.030134771317934739 0 0.030134771317934739 0.068451849177345814 0 0 0 0.047731297831665964 0.14568859631670561 0.016275869898666917 0 0.016275869898666917 0.10547595753462069 0 0 0 0.062791138462831242 0.12719150949089553 0.017240311251117246 0 0.017240311251117246 0.084443962761335811 0 0 0 0.052908868063058279 0.14056107679148444 0.025636087158222853 0 0.025636087158222853 0.11121015100758624 0 0 0 0.062942806949767727 0.095686842391492277 0.032955326417771102 0 0.032955326417771102 0.06063060858157332 0 0 0 0.039079362743266177 0.11395440802643009 0.02596682994977495 0 0.02596682994977495 0.084100930821593423 0 0 0 0.049513834712005877 0.15319592355752931 0.0063077906175417198 0 0.0063077906175417198 0.11544612091702255 0 0 0 0.067160511118637523 0.12464313793142123 0.001663510425660597 0 0.001663510425660597 0.10335543911406297 0 0 0 0.056999644261371163 0.16892295635033241 0.017118949484746349 0 0.017118949484746349 0.11891464739810798 0 0 0 0.071959400937110202 0.1508096494639104 0.00879056899376085 0 0.00879056899376085 0.10713413338075206 0 0 0 0.064485945711165282 0.18133254878886351 -0.0085689986592876188 0 -0.0085689986592876188 0.14882350674174383 0 0 0 0.082539013882652057 0.20204086941764121 0.01107533485030876 0 0.01107533485030876 0.15225829642214528 0 0 0 0.088574791459946844 0.15523083917116468 -0.012126934351086582 0 -0.012126934351086582 0.10633429648867576 0 0 0 0.065391283914960116 0.11513036377212416 0.00083096134568971802 0 0.00083096134568971802 0.096140551201578717 0 0 0 0.052817728743425718 0.060634636860666724 0.012765074354954997 0 0.012765074354954997 0.032354886102513802 0 0 0 0.023247380740795354 0.066871204922167582 0.0074522061188174128 0 0.0074522061188174128 0.051064590287136724 0 0 0 0.029483948802325965 0.09923141068111585 2.2728870697097392e-05 0 2.2728870697097392e-05 0.047985442429617109 0 0 0 0.036804213277683129 0.061164492143291449 0.018659108460662654 0 0.018659108460662654 0.033454668756255579 0 0 0 0.023654790224886701 0.10793609982098795 0.011804375849266302 0 0.011804375849266302 0.063971318730326132 0 0 0 0.04297685463782841 0.069174290235324953 0.016794474358279743 0 0.016794474358279743 0.05682608164913372 0 0 0 0.031500092971114668 0.10109542647910508 0.015779765737025109 0 0.015779765737025109 0.060554700736632494 0 0 0 0.040412531803934559 0.031817606190154279 0.019197501979067555 0 0.019197501979067555 0.027592575394788099 0 0 0 0.014852545396235151 0.0027373674665165937 0.013247770035266893 0 0.013247770035266893 0.015205760259059287 0 0 0 0.004485781931394206 0.029057993753168088 0.011767038905380778 0 0.011767038905380778 0.019174682399402343 0 0 0 0.012058169038143163 0.01514834550491484 0.015103162866348274 0 0.015103162866348274 0.019739834803806033 0 0 0 0.0087220450771807734 0.031899669211386872 0.01376154649996586 0 0.01376154649996586 0.025479969860388252 0 0 0 0.014344909767943559 0.03804079569527552 0.0032789952772533937 0 0.0032789952772533937 0.017081718372732979 0 0 0 0.013780628517002125 0.025069567469190687 0.0030511579683505374 0 0.0030511579683505374 0.009821670143979961 0 0 0 0.0087228094032926629 0.037057396108437057 0.0080460123941645811 0 0.0080460123941645811 0.017592382159037356 0 0 0 0.013662444566868714 0.023390124037912408 0.0097459668615895723 0 0.0097459668615895723 0.016375953885479966 0 0 0 0.0099415194808480933 0.015596326916718084 0.0055837106498408673 0 0.0055837106498408673 0.013496032491779886 0 0 0 0.0072730898521244924 0.018527213829879763 0.0037443524129794348 0 0.0037443524129794348 0.014144587687637156 0 0 0 0.0081679503793790076 0.015674838894668586 0.0021217295764790478 0 0.0021217295764790478 0.012838300766823352 0 0 0 0.0071282849153728733 0.011007523723757906 0.00307386738592482 0 0.00307386738592482 0.012381836202980168 0 0 0 0.0058473399816847405 0.01516489951908695 0.0052880200831912916 0 0.0052880200831912916 0.016415290224273793 0 0 0 0.0078950474358399081 0.0025829378274844217 0.0070434295287229763 0 0.0070434295287229763 0.016706604149739235 0 0 0 0.0048223854943056921 0.0079996350408220174 0.005967416360072697 0 0.005967416360072697 0.013905369969062775 0 0 0 0.0054762512524710871 -0.013708152746715996 0.007268643775555742 0 0.007268643775555742 0.011270037038633163 0 0 0 -0.00060952892702070827 0.085784957430464992 0.0057421080831628335 0 0.0057421080831628335 0.039197299498593186 0 0 0 0.031245564232264544 0.11440877162128721 0.0090602558175865155 0 0.0090602558175865155 0.081087337020143702 0 0 0 0.048874027160357769 0.11532700710090438 0.014929014907481768 0 0.014929014907481768 0.071877300938915534 0 0 0 0.046801077009955061 0.10266454624532076 0.016639941022001503 0 0.016639941022001503 0.060923987073052341 0 0 0 0.040897133329593244 0.079182859074696132 0.0097944982053060348 0 0.0097944982053060348 0.032175283253066844 0 0 0 0.027839535581940633 0.062947394079482855 0.00204644001980131 0 0.00204644001980131 0.022191312828856335 0 0 0 0.021284676727084728 0.063251740444609128 -0.002214327175874109 0 -0.002214327175874109 0.017480530394538452 0 0 0 0.020183067709786839 0.075550833142169871 0.0028228815315771982 0 0.0028228815315771982 0.024022373269355857 0 0 0 0.02489330160288139 0.063916245100007263 -0.0028725033797295241 0 -0.0028725033797295241 0.015127132945971233 0 0 0 0.019760844511494624 0.063696883136639473 -0.0056204937662877597 0 -0.0056204937662877597 0.013938439101457645 0 0 0 0.019408830559524207 0.089882662128109969 0.005401612228961003 0 0.005401612228961003 0.03217223577128836 0 0 0 0.030513724474849624 0.089891168036592917 0.0061436953114340186 0 0.0061436953114340186 0.032118770283581233 0 0 0 0.03050248458004351 0.07899217830871641 0.0066769470721216861 0 0.0066769470721216861 0.038012653149919945 0 0 0 0.029251207864659123 0.10080578253589156 0.010813768390291821 0 0.010813768390291821 0.064624700294281245 0 0 0 0.041357620707543119 0.10492961090069075 0.012636196259605881 0 0.012636196259605881 0.058870593553396633 0 0 0 0.040950051113521901 0.11715348543537377 0.0095414712758853382 0 0.0095414712758853382 0.095078405668869936 0 0 0 0.053057972776060974 0.13146806664255378 0.0076909587134593727 0 0.0076909587134593727 0.13478478060641719 0 0 0 0.066563211812242784 0.1533433201784225 0.0071249638230754253 0 0.0071249638230754253 0.15835815927891983 0 0 0 0.077925369864335514 0.13502411462522654 0.016145000319619518 0 0.016145000319619518 0.10655207820444734 0 0 0 0.060394048207418533 0.16409863886307452 0.024596408820802163 0 0.024596408820802163 0.11491794672162658 0 0 0 0.069754146396175276 0.19220039574351588 0.0087248464838019339 0 0.0087248464838019339 0.15148983077014044 0 0 0 0.085922556628414082 0.14644882621611682 0.013501824629088222 0 0.013501824629088222 0.14489453039252864 0 0 0 0.072835839152161352 0.057670560341107256 0.0079699188969189309 0 0.0079699188969189309 0.17264913561365877 0 0 0 0.057579923988691509 0.15558778663199457 0.018620996966309367 0 0.018620996966309367 0.10484902226117132 0 0 0 0.065109202223291307 0.17338056987888084 0.016008052785407845 0 0.016008052785407845 0.15748166935225694 0 0 0 0.082715559807784445 0.17498241999446795 0.0061373988783541833 0 0.0061373988783541833 0.15927863439310175 0 0 0 0.08356526359689187 0.066528444275900878 0.0082769540599652441 0 0.0082769540599652441 0.19926377172750531 0 0 0 0.066448054000851547 0.17840973878159105 0.014302651283586154 0 0.014302651283586154 0.16851772322525338 0 0 0 0.086731865501711081 0.19962689005593148 0.012434626317981716 0 0.012434626317981716 0.1647493712716166 0 0 0 0.091094065331886576 0.075949169037799108 0.0083878866169122476 0 0.0083878866169122476 0.2271580574309878 0 0 0 0.075776806617196726 0.17651419342148422 0.021445813583482298 0 0.021445813583482298 0.15643424775471271 0 0 0 0.08323711029404901 0.13031297951738496 0.011904258815004287 0 0.011904258815004287 0.11559988212123584 0 0 0 0.061478215409655146 0.17331521721721938 0.011342774936670574 0 0.011342774936670574 0.17860363914416066 0 0 0 0.087979714090345051 0.13726884996969574 0.022337249538777304 0 0.022337249538777304 0.10642729894613212 0 0 0 0.060924037228956951 0.15672101650148584 0.011726497151875015 0 0.011726497151875015 0.12103737934887615 0 0 0 0.069439598962590554 0.17589043509648727 0.024170075120232504 0 0.024170075120232504 0.13760344987096496 0 0 0 0.078373471241863002 0.14673381473275732 0.0087215210828859857 0 0.0087215210828859857 0.11400900071867626 0 0 0 0.065185703862858213 0.21365621428070986 0.016553657372496478 0 0.016553657372496478 0.18565646363338117 0 0 0 0.099828169478522744 0.20598976281915365 0.0059148799933115281 0 0.0059148799933115281 0.20195062255896723 0 0 0 0.10198509634453018 0.19616051937727097 0.0028913862744084917 0 0.0028913862744084917 0.14888839004176679 0 0 0 0.086262227354759635 0.21615919436666298 0.0011184177953000862 0 0.0011184177953000862 0.19810206271301034 0 0 0 0.10356531426991777 0.08539492725866718 0.0082672394059893142 0 0.0082672394059893142 0.25660413223727147 0 0 0 0.085499764873984668 0.26077313896697768 0.013759224000026826 0 0.013759224000026826 0.21276693893691923 0 0 0 0.11838501947597418 0.24071402183204427 0.013588159421496382 0 0.013588159421496382 0.2062931245286439 0 0 0 0.11175178659017204 0.20113186532168015 -0.0016992913172626523 0 -0.0016992913172626523 0.18953426337317958 0 0 0 0.097666532173714571 0.2323244493785368 0.018295305893910818 0 0.018295305893910818 0.20535071004998429 0 0 0 0.10941878985712972 0.097876252985230866 0.0082284267179976271 0 0.0082284267179976271 0.28942350686809193 0 0 0 0.096824939963330692 0.2949135771422231 0.00071675742145949073 0 0.00071675742145949073 0.23433891991088807 0 0 0 0.13231312426327779 0.2438016774699133 -0.013021583419318361 0 -0.013021583419318361 0.21947051682257257 0 0 0 0.1158180485731209 0.15761611140195442 0.024045424806982518 0 0.024045424806982518 0.10360647798461708 0 0 0 0.065305647346642903 0.2264452278283447 0.019974704295031898 0 0.019974704295031898 0.21546705320833226 0 0 0 0.11047807025916928 0.28833688424908577 0.0021792025929265879 0 0.0021792025929265879 0.22529967087899139 0 0 0 0.12840913878201932 0.22946367541201473 0.0233486307854891 0 0.0233486307854891 0.19960655567286656 0 0 0 0.10726755777122032 0.18999774946002507 -0.0032664512728006884 0 -0.0032664512728006884 0.1132909260993773 0 0 0 0.07582216888985055 0.08475119055742103 0.010611203415007764 0 0.010611203415007764 0.030497995378064191 0 0 0 0.028812296483871347 0.13741324405705113 0.018679745338877285 0 0.018679745338877285 0.074492364969277247 0 0 0 0.052976402256582067 0.11353970607468145 0.0055339675865067051 0 0.0055339675865067051 0.0031526419033361809 0 0 0 0.029173086994504379 0.12013533896652295 0.0059296452856568704 0 0.0059296452856568704 0.081296559744412189 0 0 0 0.05035797467773373 0.10449737226283301 0.0097878967196359801 0 0.0097878967196359801 0.033103013524330871 0 0 0 0.034400096446790929 0.089395189568199696 0.01278766427297412 0 0.01278766427297412 0.037200545766995052 0 0 0 0.031648933833798742 0.099759450940890115 0.0075204533533327622 0 0.0075204533533327622 0.061149158277345794 0 0 0 0.040227152304558977 0.12597782244431321 0.021400785973491682 0 0.021400785973491682 0.077282245547001471 0 0 0 0.050815016997828644 0.065004815496834803 0.0057442985690676629 0 0.0057442985690676629 0.014428556492585232 0 0 0 0.019858342997355019 0.068722242823755705 0.0047787652518371804 0 0.0047787652518371804 0.028818697813802988 0 0 0 0.024385235159389715 0.069049894223015384 0.010922294049362125 0 0.010922294049362125 0.01397015745798047 0 0 0 0.020755012920249172 0.078048629775045064 0.0045841807451413308 0 0.0045841807451413308 0.03448376731986813 0 0 0 0.028133099273728424 0.057283402739999878 0.00064338861787643919 0 0.00064338861787643919 0.0092852865867090184 0 0 0 0.016642172331677085 0.069258188903858819 -0.0019373484880294556 0 -0.0019373484880294556 -0.0031927096327231119 0 0 0 0.016516369817783705 0.060692361135451678 0.0054735717055605093 0 0.0054735717055605093 -0.040759040741285828 0 0 0 0.0049833300985414088 0.055201920292703877 -0.0026860695719564398 0 -0.0026860695719564398 -0.015909841245381084 0 0 0 0.0098230197618305315 0.052251535625654981 -0.003607450781035304 0 -0.003607450781035304 -0.052265705538041905 0 0 0 -3.5424780966478346e-06 0.051674960832100214 0.00202022398453644 0 0.00202022398453644 -0.018384413763998797 0 0 0 0.0083226367670253265 0.048858247082017525 -0.0066160501038948771 0 -0.0066160501038948771 -0.0011146709413019096 0 0 0 0.011935894035178807 0.053985389082808477 0.0017481703011461569 0 0.0017481703011461569 -0.01431942624947169 0 0 0 0.0099164907083342246 0.091530647655335196 -0.014652178437932317 0 -0.014652178437932317 0.017974754206050953 0 0 0 0.02737635046534654 0.076528445293295833 -0.0025728031844340915 0 -0.0025728031844340915 -0.027184511326428629 0 0 0 0.012335983491716829 0.060864630914859941 -0.0098790426954524641 0 -0.0098790426954524641 0.000776322280064079 0 0 0 0.015410238298730894 0.077066885961602216 -0.0080368918799419986 0 -0.0080368918799419986 0.040181410206889145 0 0 0 0.029312074042122716 0.067444812016919375 -0.0079618664178512932 0 -0.0079618664178512932 0.0041687454100094445 0 0 0 0.017903389356732247 0.061360955251855254 -0.0087386414028738368 0 -0.0087386414028738368 0.018297835327116485 0 0 0 0.019914697644742907 0.065132789023067586 -0.010501973047527868 0 -0.010501973047527868 0.035511733116568411 0 0 0 0.025161130534909051 0.079083637481447699 -0.01591914305749087 0 -0.01591914305749087 0.035114641065716767 0 0 0 0.028549569636791061 0.058707782510851736 -0.0023737763353234298 0 -0.0023737763353234298 0.0054449940211964698 0 0 0 0.016038194133012107 0.056533791333422179 -0.0079659655867199419 0 -0.0079659655867199419 0.01841645850842144 0 0 0 0.018737562460460988 0.052154467423407347 -0.0037322504834559345 0 -0.0037322504834559345 0.013097203925000356 0 0 0 0.016312917837101981 0.05992683160233192 -0.0016726853830245081 0 -0.0016726853830245081 0.01672684806255309 0 0 0 0.019163419916221169 0.057858171041701989 -0.004597827510946062 0 -0.004597827510946062 0.015323159418187293 0 0 0 0.018295332614972293 0.060108812763000397 -0.0060696340587660935 0 -0.0060696340587660935 0.018713052956433884 0 0 0 0.019705466429858709 0.055322821969326585 -0.0088954381238907088 0 -0.0088954381238907088 0.018421577240030018 0 0 0 0.018436099802339068 0.052512208158274863 -0.0054552824368004904 0 -0.0054552824368004904 0.016307467049196667 0 0 0 0.017204918801868051 0.058670350012501093 -0.010730260422781468 0 -0.010730260422781468 0.02112645162976623 0 0 0 0.019949200410566803 0.056968743178740122 -0.010485516529427974 0 -0.010485516529427974 0.021327748017987647 0 0 0 0.019574122799182025 0.065563818873300761 -0.015538173102962627 0 -0.015538173102962627 0.034134950698412103 0 0 0 0.024924692392928161 0.071182575046803587 -0.0137051894197458 0 -0.0137051894197458 0.04976679571256315 0 0 0 0.030237342689841795 0.059727052295711458 -0.011970476678579006 0 -0.011970476678579006 0.02804023607393602 0 0 0 0.0219418220924118 0.055336488704451681 -0.013603218775096348 0 -0.013603218775096348 0.019968537712460988 0 0 0 0.018826256604228153 0.057782083652664462 -0.015381727671316597 0 -0.015381727671316597 0.029076576963543266 0 0 0 0.021714665154051849 0.062024760364000064 -0.015545921609024016 0 -0.015545921609024016 0.042941553121345927 0 0 0 0.02624157837133656 0.059363406337158559 -0.015645524894390528 0 -0.015645524894390528 0.021915725838159289 0 0 0 0.020319783043829504 0.05493500667826634 -0.014624570141884813 0 -0.014624570141884813 0.0090486030785481564 0 0 0 0.015995902439203569 0.066275864841440768 -0.0099910616186918016 0 -0.0099910616186918016 0.014578042970744054 0 0 0 0.020213476953046261 0.057066711341406652 -0.0085394829598050004 0 -0.0085394829598050004 0.011628233090947231 0 0 0 0.017173736108088457 0.065770645667400207 -0.0041142263889432651 0 -0.0041142263889432651 0.017945859141754283 0 0 0 0.020929126202288706 0.06020491587663454 -0.010269463198866458 0 -0.010269463198866458 0.019403550291077543 0 0 0 0.019902116541928055 0.086901212709731168 -0.018033039758997393 0 -0.018033039758997393 0.082354074974940961 0 0 0 0.042313821921167949 0.030483626819479578 -0.012178585958791635 0 -0.012178585958791635 0.091264237810838561 0 0 0 0.030436966157579539 0.098341721773372304 -0.015674198024013597 0 -0.015674198024013597 0.07442958078348183 0 0 0 0.043192825639213339 0.075554086552788668 -0.017069140296947061 0 -0.017069140296947061 0.074666751293710476 0 0 0 0.037555209461624772 0.062704153208431812 -0.014229322289564972 0 -0.014229322289564972 0.070224625579181632 0 0 0 0.033232194696903417 0.057444795878052624 -0.020189248474103361 0 -0.020189248474103361 0.039705784047034176 0 0 0 0.024287644981271672 0.059199208311633833 -0.018786798826269047 0 -0.018786798826269047 0.047677433976064276 0 0 0 0.026719160571924527 0.068591534681038374 -0.016430509333273613 0 -0.016430509333273613 0.044051760008622765 0 0 0 0.028160823672415264 0.084928451110910075 -0.01142495302016211 0 -0.01142495302016211 0.082535033541319525 0 0 0 0.041865871163057289 0.075053004402402701 -0.017488899399104835 0 -0.017488899399104835 0.066938388232339108 0 0 0 0.035497848158685508 0.093080848596903049 -0.013475763441885391 0 -0.013475763441885391 0.068155146448501736 0 0 0 0.040308998761351217 0.081705095784956328 -0.019661853971736643 0 -0.019661853971736643 0.056960160317033548 0 0 0 0.034666314025497469 0.10238066682460906 -0.014186987488116642 0 -0.014186987488116642 0.09853004150368927 0 0 0 0.050227677082074595 0.12959738274342147 -0.016057272469248509 0 -0.016057272469248509 0.10113258236475842 0 0 0 0.057682491277044945 0.093456427899568428 -0.013135161566502518 0 -0.013135161566502518 0.083330669464905416 0 0 0 0.044196774341118572 0.096123628025873514 -0.022153397537359565 0 -0.022153397537359565 0.083578494222475055 0 0 0 0.044925530562087174 0.041362772896268343 -0.012401564981590601 0 -0.012401564981590601 0.1237748959624959 0 0 0 0.041284417214691067 0.10120477570271802 -0.0169911362162109 0 -0.0169911362162109 0.091009831798916085 0 0 0 0.048053651875408443 0.10550081740853312 -0.016879632276287193 0 -0.016879632276287193 0.08701426266739376 0 0 0 0.048128770018981748 0.035633445921719561 -0.012447089703297378 0 -0.012447089703297378 0.10669446508257395 0 0 0 0.035581977751073385 0.12102779322815449 -0.0099228653913412401 0 -0.0099228653913412401 0.10736927854653899 0 0 0 0.057099267943673704 0.047739073587313968 -0.012058532994487729 0 -0.012058532994487729 0.14305285283405791 0 0 0 0.047697981605342971 0.16392785379625563 -0.013983682853939486 0 -0.013983682853939486 0.11623852896660525 0 0 0 0.07004159569071533 0.13827516590933234 -0.016372029826690282 0 -0.016372029826690282 0.11348992751084802 0 0 0 0.062941273355045096 0.11789170076085198 -0.0079148760462655066 0 -0.0079148760462655066 0.10202823316837772 0 0 0 0.05497998348230726 0.090794157115513197 -0.010253096860286415 0 -0.010253096860286415 0.063152030160693817 0 0 0 0.038486546819051726 0.10946467635270729 -0.019626517263004795 0 -0.019626517263004795 0.072032901694490059 0 0 0 0.045374394511799254 0.12655870229338501 -0.010341420383060074 0 -0.010341420383060074 0.11252105281539271 0 0 0 0.059769938777194331 0.12348615260996942 -0.0051803952035439638 0 -0.0051803952035439638 0.079265884468002645 0 0 0 0.050688009269493017 0.10062656944083742 -0.018343451271122413 0 -0.018343451271122413 0.044262185506955154 0 0 0 0.036222188736948102 0.14367846058510181 -0.01834108919559696 0 -0.01834108919559696 0.11718966722157892 0 0 0 0.065217031951670057 0.18384271077529463 -0.0045077101723196566 0 -0.0045077101723196566 0.12242697057760843 0 0 0 0.076567420338225722 0.14744340358075275 -0.018754416032801147 0 -0.018754416032801147 0.101865211995347 0 0 0 0.062327153894024941 0.12173169329374406 0.0015334354345883927 0 0.0015334354345883927 0.050459538615176269 0 0 0 0.043047807977230124 0.1429504493362076 -0.016919158954694424 0 -0.016919158954694424 0.11270852219141769 0 0 0 0.063914742881906572 0.055516203059101557 -0.011784771680010559 0 -0.011784771680010559 0.16549924967370583 0 0 0 0.055253863183201829 0.182499299617644 -0.0046581009802108405 0 -0.0046581009802108405 0.13334906889994791 0 0 0 0.078962092129398087 0.15194359593576157 0.004613708227940716 0 0.004613708227940716 0.12130486111508088 0 0 0 0.068312114262710777 0.1287621537763064 -0.0087736815102639198 0 -0.0087736815102639198 0.082416672941385549 0 0 0 0.052794706679422543 0.097244524002861127 0.0057917831316296464 0 0.0057917831316296464 0.055947988669255509 0 0 0 0.038298128168029161 0.094081988495089752 -0.0094682185893697479 0 -0.0094682185893697479 0.057333513553597282 0 0 0 0.037853875512171675 0.11070598270489151 -8.5733123567743874e-05 0 -8.5733123567743874e-05 0.077964801988596122 0 0 0 0.047167696173371798 0.069999123304592681 -0.0032554040804351203 0 -0.0032554040804351203 0.047997382119538301 0 0 0 0.029499126356032912 0.039299683978931244 -0.0076508094528300319 0 -0.0076508094528300319 0.023069075899587066 0 0 0 0.015592189969629633 0.037249531338435782 -0.0097894801154789161 0 -0.0097894801154789161 0.016918617978201489 0 0 0 0.013542037329159262 0.061547578032187245 -0.0020559016658119322 0 -0.0020559016658119322 0.022966069513531646 0 0 0 0.021128411886429669 0.06540280206184157 -0.013194693341451957 0 -0.013194693341451957 0.034165574070381677 0 0 0 0.024892094033055923 0.037232072026541885 -0.017226753117640881 0 -0.017226753117640881 0.027735036148076375 0 0 0 0.016241777043654593 0.033654527444643811 -0.015877065101288279 0 -0.015877065101288279 0.017539500611263747 0 0 0 0.01279850701397689 0.052157759361494582 -0.017372332321450856 0 -0.017372332321450856 0.030569787246117919 0 0 0 0.020681886651903181 0.082617610772414946 -0.014004950695556406 0 -0.014004950695556406 0.059431542452101638 0 0 0 0.035512288306129319 0.10082953752028123 -0.018133313607846979 0 -0.018133313607846979 0.064175160162019296 0 0 0 0.041251174420574799 0.073143020048224816 -0.0081415672401933814 0 -0.0081415672401933814 0.051894692163438449 0 0 0 0.031259428052915705 0.0089167375240624125 -0.00347139260231355 0 -0.00347139260231355 0.010012963873684999 0 0 0 0.0047324253494367419 0.0065271833873483676 -0.0019399334791319056 0 -0.0019399334791319056 0.0071733096260153673 0 0 0 0.0034251232533411002 0.0091913330997054777 -0.0013164783807591007 0 -0.0013164783807591007 0.007672197673964226 0 0 0 0.0042158826934170371 0.011293126005336385 -0.0025082717544844257 0 -0.0025082717544844257 0.008091420840926844 0 0 0 0.0048461367115659737 0.0079368017208334418 -0.004240489517055579 0 -0.004240489517055579 0.0072841412210813417 0 0 0 0.0038052357354787514 0.013596739233114885 -0.0072046992026724155 0 -0.0072046992026724155 0.0076965103125132828 0 0 0 0.0053233123864067089 0.02265677670837718 -0.0056731466334036251 0 -0.0056731466334036251 0.0093892624537144087 0 0 0 0.008011509790522453 0.014406405135033305 -0.0024435156735509445 0 -0.0024435156735509445 0.004917404309539501 0 0 0 0.004830952361142813 0.022362523253920779 -0.0035540358454730914 0 -0.0035540358454730914 0.0069245577808980654 0 0 0 0.0073217702587046549 0.017468294025815068 -0.011808583973754783 0 -0.011808583973754783 0.010781991730304696 0 0 0 0.0070625714390297745 0.01115048659796003 -0.017317483864758065 0 -0.017317483864758065 0.01225851076788409 0 0 0 0.0058522493414610022 -0.0042443630642379215 -0.011364965255781234 0 -0.011364965255781234 0.0070715730628485574 0 0 0 0.0007068024996523814 0.016104395395603044 -0.009510627622561163 0 -0.009510627622561163 0.0097159927988510475 0 0 0 0.0064550970486134673 0.0077764034537187721 -0.011424046172054281 0 -0.011424046172054281 0.011049756575613245 0 0 0 0.0047065400073330599 0.0022867630652533277 -0.0046177089993291176 0 -0.0046177089993291176 0.007541965847030041 0 0 0 0.0024571822280706757 -0.011298104305005774 -0.0054315910839061376 0 -0.0054315910839061376 0.0058679078059871159 0 0 0 -0.001357549124754609 0.00049365966863179622 -0.0047022348712955075 0 -0.0047022348712955075 0.009798853405341923 0 0 0 0.0025731282684935408 -0.02585140749463255 -0.0067645748521568631 0 -0.0067645748521568631 0.00837924849564331 0 0 0 -0.004368039749746977 -0.0015830218630212833 -0.0091953362784054082 0 -0.0091953362784054082 0.010043828011309763 0 0 0 0.002115201537072231 -0.0050723861644510482 -0.014465607709033712 0 -0.014465607709033712 0.0083207466300216915 0 0 0 0.00081209011639282735 -0.019727076395153337 -0.0071468185431304843 0 -0.0071468185431304843 0.0036561804285853983 0 0 0 -0.0040177239916421026 -0.0072283730188769102 -0.017118855187005066 0 -0.017118855187005066 0.0076554347455424221 0 0 0 0.00010676543166643349 0.010774806011295102 -0.018205439948704771 0 -0.018205439948704771 0.012772692801046759 0 0 0 0.0058868747030853541 0.0067346034517563602 -0.023335544451904111 0 -0.023335544451904111 0.011041328290545493 0 0 0 0.0044439829355755744 0.0081052277948687745 -0.022289646607031477 0 -0.022289646607031477 0.013976148797385068 0 0 0 0.0055203441480633497 -0.0082148206748733285 -0.018796171417067686 0 -0.018796171417067686 0.0063911959753373548 0 0 0 -0.00045590617488410617 -0.0094742217548891006 -0.023662333825390819 0 -0.023662333825390819 0.0088811818550675881 0 0 0 -0.00014825997495537813 0.0064241462587171366 -0.027306590370045791 0 -0.027306590370045791 0.014695662421424338 0 0 0 0.0052799521700355317 -0.015988910339691853 -0.022393790698110649 0 -0.022393790698110649 0.0063779130618693003 0 0 0 -0.0024027493194558325 -0.024151662714011923 -0.013443845548167799 0 -0.013443845548167799 0.006643949713663222 0 0 0 -0.0043769282500871753 -0.030429912173138396 -0.011224365194981045 0 -0.011224365194981045 0.0029527309621331099 0 0 0 -0.006869295302751155 -0.031572058980520623 -0.011399632544427218 0 -0.011399632544427218 0.0083116652948498349 0 0 0 -0.005815098421417586 -0.046166924396839004 -0.0063108005159840785 0 -0.0063108005159840785 0.0037379688316168114 0 0 0 -0.010607238891305659 -0.026515979595265193 -0.0055914702703225849 0 -0.0055914702703225849 0.0065466992230502896 0 0 0 -0.0049923200930535039 0.064264255505457779 -0.024122550604166904 0 -0.024122550604166904 0.040560373226480539 0 0 0 0.02620615718298458 0.050488403969923601 -0.021812531994363171 0 -0.021812531994363171 0.04000508929146207 0 0 0 0.022623373315346473 0.070943965703119227 -0.024833971471183991 0 -0.024833971471183991 0.061178517737723759 0 0 0 0.033030620860210469 0.063111127268600242 -0.024988704387746363 0 -0.024988704387746363 0.04341477176149855 0 0 0 0.026631474757524476 0.028500981949497461 -0.022154165081694252 0 -0.022154165081694252 0.023433629509031384 0 0 0 0.0129836528646321 0.026421711125621195 -0.021576215227261386 0 -0.021576215227261386 0.016928645556913757 0 0 0 0.010837589170633821 0.045118198419105582 -0.025597383938391172 0 -0.025597383938391172 0.025975010823355404 0 0 0 0.017773302310615025 0.036866776476748075 -0.029030996930891284 0 -0.029030996930891284 0.02178836823726904 0 0 0 0.01466378617850439 0.022688261540860566 -0.025853607569480519 0 -0.025853607569480519 0.021066632508326522 0 0 0 0.010938723512296855 0.019742547087951978 -0.023763858245482772 0 -0.023763858245482772 0.013872586071733473 0 0 0 0.0084037832899215292 0.019122234533504562 -0.024587258865670147 0 -0.024587258865670147 0.017559381243231753 0 0 0 0.0091704039441838636 0.056227504964486918 -0.026783961424779831 0 -0.026783961424779831 0.033147667123940572 0 0 0 0.022343793022106873 0.041526410384788104 -0.025287853936955429 0 -0.025287853936955429 0.035329044121713338 0 0 0 0.019213863626625249 0.07855234945511147 -0.020113812186942415 0 -0.020113812186942415 0.055182250337661776 0 0 0 0.033433649948193311 0.061145955178145361 -0.024960590745894295 0 -0.024960590745894295 0.048800609881062051 0 0 0 0.027486641264801714 0.072597005855514762 -0.02058156178099646 0 -0.02058156178099646 0.045854773119945236 0 0 0 0.029612944743864666 0.054926543413348905 -0.028864966116304513 0 -0.028864966116304513 0.033514799518770566 0 0 0 0.022110335733029673 0.058586576988673672 -0.023307661028960203 0 -0.023307661028960203 0.034734810710547265 0 0 0 0.023330346924805428 0.067161308214926052 -0.026365511596536495 0 -0.026365511596536495 0.034667888124694901 0 0 0 0.025457299084905349 0.037902157395145686 -0.032290858605319994 0 -0.032290858605319994 0.022305447274960866 0 0 0 0.015051901167526749 0.043109134719123032 -0.024456033854044545 0 -0.024456033854044545 0.031204912645268479 0 0 0 0.018578511841097933 0.035255523643783405 -0.031960236917360607 0 -0.031960236917360607 0.019494061033888288 0 0 0 0.013687396169418088 0.01101216160770957 -0.031002306782903055 0 -0.031002306782903055 0.01257356994735126 0 0 0 0.0058964328887651796 0.0050383989883881659 -0.025340174642105917 0 -0.025340174642105917 0.010299759849147327 0 0 0 0.003834539709383928 0.033761861730569276 -0.02683127092882337 0 -0.02683127092882337 0.01950071621321392 0 0 0 0.013315644485945688 0.016278860802632522 -0.035242203597703359 0 -0.035242203597703359 0.011935059313949115 0 0 0 0.0070534800291455202 0.029265030379619542 -0.02842761376414904 0 -0.02842761376414904 0.015129698144240783 0 0 0 0.011098682130965057 0.0035905298362917115 -0.030357783991365572 0 -0.030357783991365572 0.0087292563386132116 0 0 0 0.0030799465437261198 0.0049542647284214203 -0.034554585688990953 0 -0.034554585688990953 0.015274476471954124 0 0 0 0.0050571853000939138 0.061502946235732714 -0.032124037781761317 0 -0.032124037781761317 0.023273120630860511 0 0 0 0.021194016716648334 0.06621082608164558 -0.025346668056790922 0 -0.025346668056790922 0.030584010963523589 0 0 0 0.024198709261292306 0.059502429843912186 -0.024291367728964543 0 -0.024291367728964543 0.035885847395290327 0 0 0 0.023847069309800739 0.030869479273953893 -0.034194992437860949 0 -0.034194992437860949 0.018737914600277517 0 0 0 0.012401848468557963 0.055365392169328453 -0.027748246205535065 0 -0.027748246205535065 0.0248800847560533 0 0 0 0.020061369231345494 -0.050411797545080184 -0.01213302626909496 0 -0.01213302626909496 0.0063631049827557185 0 0 0 -0.011012173140581116 -0.063807010837203873 -0.0077223627890424806 0 -0.0077223627890424806 0.0016886816795324555 0 0 0 -0.015529582289417827 -0.04861945834590066 -0.0071007212374609718 0 -0.0071007212374609718 0.0020664648652328199 0 0 0 -0.01163824837016704 -0.065631681346106419 -0.0084998368592523292 0 -0.0084998368592523292 0.0060136702485165117 0 0 0 -0.014904502774397477 -0.034753034381520553 -0.010618631773779683 0 -0.010618631773779683 0.0014694116980313865 0 0 0 -0.0083209056708724027 -0.017540708562785667 -0.021241210845728803 0 -0.021241210845728803 0.0071825100110376461 0 0 0 -0.0025895496379371163 -0.035284248446388555 -0.021323453954023019 0 -0.021323453954023019 0.0061170614076324625 0 0 0 -0.0072917967596891065 -0.0092926622213246324 -0.021448447010531169 0 -0.021448447010531169 0.006835924242782454 0 0 0 -0.00061418449463546132 -0.015158357817861789 -0.030683885569355973 0 -0.030683885569355973 0.0092615956195167826 0 0 0 -0.0014741905495861962 -0.020661332087160034 -0.027822303204086518 0 -0.027822303204086518 0.0085521425854300226 0 0 0 -0.0030272973754323917 -0.016803175334642151 -0.024886976199934963 0 -0.024886976199934963 0.0084986740715287112 0 0 0 -0.0020761253157783877 -0.018971774641414696 -0.032958216513771288 0 -0.032958216513771288 0.012628237845431378 0 0 0 -0.0015858841989958017 -0.03107181214044533 -0.020413233171298506 0 -0.020413233171298506 0.0056645057846091001 0 0 0 -0.0063518265889590843 -0.044912008371479795 -0.024420600957149818 0 -0.024420600957149818 0.0076066535522534284 0 0 0 -0.009326338704806536 -0.0434070833101734 -0.020044865976116377 0 -0.020044865976116377 0.0039536987878592278 0 0 0 -0.0098633461305785985 -0.043127316567604823 -0.020346264007513937 0 -0.020346264007513937 0.0067635833608657991 0 0 0 -0.009090933301684756 -0.070539807260366238 -0.013910950171191039 0 -0.013910950171191039 0.0037396091362316142 0 0 0 -0.016700049531033656 -0.066531733473033983 -0.0078689595642467136 0 -0.0078689595642467136 0.0035678043967001249 0 0 0 -0.015740982269083492 -0.081936450966131558 -0.011572976557150616 0 -0.011572976557150616 0.0043864412785157292 0 0 0 -0.019387502421903902 -0.1239880385552849 -0.0084746702653138266 0 -0.0084746702653138266 0.0036525974812531281 0 0 0 -0.030083860268508067 -0.099036398060027842 -0.0092400097740558754 0 -0.0092400097740558754 0.0040645352634827159 0 0 0 -0.023742965699136143 -0.083416700971588681 -0.0055123146903324205 0 -0.0055123146903324205 0.002466062823320625 0 0 0 -0.020237659537066993 -0.071520767664502799 -0.02172662056646657 0 -0.02172662056646657 0.009364012884078482 0 0 0 -0.015539188695105982 -0.057198024196756347 -0.01629873555716127 0 -0.01629873555716127 0.0034515194657911419 0 0 0 -0.013436626182741274 -0.026188632500732556 -0.023916007722594168 0 -0.023916007722594168 0.0080334339912566666 0 0 0 -0.0045387996273689168 -0.031359466278485848 -0.030640467033990149 0 -0.030640467033990149 0.014833492117662939 0 0 0 -0.0041314935402058106 -0.02938270690967687 -0.028710290871491351 0 -0.028710290871491351 0.024489970088380164 0 0 0 -0.0012231842053242459 -0.043406946945241151 -0.017947451505271328 0 -0.017947451505271328 0.0036834370215126366 0 0 0 -0.0099308774809321182 -0.044829805387413907 -0.021443016738174836 0 -0.021443016738174836 0.012229730893907498 0 0 0 -0.008150018623376637 -0.068072657266401521 -0.0063353474001412169 0 -0.0063353474001412169 0.014151269071729922 0 0 0 -0.013480347048667879 -0.065783541735974838 -0.021243460730789393 0 -0.021243460730789393 0.011361838707929395 0 0 0 -0.013605425757011402 -0.086540552142114896 -0.010602102309225564 0 -0.010602102309225564 0.0041782912332927191 0 0 0 -0.020590565227205565 -0.08196812344210902 -0.0068997888637812865 0 -0.0068997888637812865 0.0033335218322756432 0 0 0 -0.019658650402458289 -0.12526420438472713 -0.0056209188257822507 0 -0.0056209188257822507 0.0047626752152162277 0 0 0 -0.030125382292377711 0.033590602284130244 -0.032431091312330046 0 -0.032431091312330046 0.0232737174039368 0 0 0 0.014216079922016733 0.074348245988580697 -0.052422472101807283 0 -0.052422472101807283 0.046331649388300256 0 0 0 0.030169973844220266 0.032274217264540321 -0.037897817860636618 0 -0.037897817860636618 0.023936949551717462 0 0 0 0.014052791704064475 0.02785073818049616 -0.030820310325264888 0 -0.030820310325264888 0.014680240471096728 0 0 0 0.010632744662898264 -0.0047080535129643275 -0.032186842262954825 0 -0.032186842262954825 0.013246389357645771 0 0 0 0.0021345839611702777 -0.0026623949605075747 -0.033631436684737781 0 -0.033631436684737781 0.019755180731898303 0 0 0 0.0042731964428477376 0.023117575603836413 -0.042003422375794353 0 -0.042003422375794353 0.029023625271266784 0 0 0 0.013035300218775789 -0.0046165465869370537 -0.025060415364610233 0 -0.025060415364610233 0.028492508941644679 0 0 0 0.0059689905886769479 -0.039735954447379207 -0.01650575964192641 0 -0.01650575964192641 0.01257247098073333 0 0 0 -0.0067908708666614692 -0.028348159921984736 -0.011794118047096791 0 -0.011794118047096791 0.020904044808627176 0 0 0 -0.0018610287783393659 -0.011844544244188016 -0.032369190171214951 0 -0.032369190171214951 0.033634228787663978 0 0 0 0.0054474211358689906 0.027786802251193565 -0.037372909056565283 0 -0.037372909056565283 0.043089238551746289 0 0 0 0.017719010200735019 0.028625620293177501 -0.034583442297970508 0 -0.034583442297970508 0.043131031123721186 0 0 0 0.017939162854224644 0.060325526733466903 -0.04766493129154753 0 -0.04766493129154753 0.066340372880652837 0 0 0 0.031666474903529931 0.085778970112167396 -0.070824101800629147 0 -0.070824101800629147 0.1353477315395985 0 0 0 0.055281675412941461 -0.052809389648637656 0.020249360622387497 0 0.020249360622387497 0.07614315023636109 0 0 0 0.0058334401469308794 0.20121599118873507 -0.071649728961618531 0 -0.071649728961618531 0.062167211726975591 0 0 0 0.065845800728927706 0.0052491413486228135 -0.0025000676664057543 0 -0.0025000676664057543 0.01542832759275593 0 0 0 0.0051693672353446867 0.098640495827698321 -0.033302936280498185 0 -0.033302936280498185 0.014084349624046866 0 0 0 0.028181211362936304 0.091806247809182118 -0.028177783810685586 0 -0.028177783810685586 0.028277235963079295 0 0 0 0.030020870943065381 0.012681313277326869 -0.0063769005742756735 0 -0.0063769005742756735 0.037975420887783412 0 0 0 0.012664183541277569 0.13003987291334379 -0.019815952230434364 0 -0.019815952230434364 0.036184219921979288 0 0 0 0.041556023208830728 0.017234750035543256 -0.0088311290248461218 0 -0.0088311290248461218 0.051588138054408442 0 0 0 0.017205722022487924 0.09476758089773557 -0.01708771449382207 0 -0.01708771449382207 0.037498186121531996 0 0 0 0.033066441754816933 0.087520462970292423 -0.028670586623947114 0 -0.028670586623947114 0.02717684212562399 0 0 0 0.028674326273979089 0.020010813663103005 -0.015847365475935432 0 -0.015847365475935432 0.026263219582149389 0 0 0 0.011568508311313064 -0.0052682336798033358 -0.022790750133936759 0 -0.022790750133936759 0.038778364042597491 0 0 0 0.0083775325906985665 0.020570680495260348 -0.017419012974093553 0 -0.017419012974093553 0.032793456516859804 0 0 0 0.01334103425303005 -0.027191906129635693 -0.022289491341884914 0 -0.022289491341884914 0.025610403106849589 0 0 0 -0.00039537575569653649 0.020496266460217946 -0.0031726457910036254 0 -0.0031726457910036254 0.05315992207859277 0 0 0 0.018414047134702669 0.014104263532826775 -0.0011239017515375094 0 -0.0011239017515375094 0.013985837421311736 0 0 0 0.007022525238534652 -0.010140095861632253 -0.0077709797123261953 0 -0.0077709797123261953 0.13881397429756986 0 0 0 0.032168469608984451 0.013859234244211906 0.0077035456873569275 0 0.0077035456873569275 0.053165835327474327 0 0 0 0.016756267392921555 0.029458472087673757 -0.0067407852533516305 0 -0.0067407852533516305 0.021459643588364163 0 0 0 0.012729528919009497 0.037934919168355147 -0.009424336967238163 0 -0.009424336967238163 0.051721219508503558 0 0 0 0.022414034669214655 0.027006947080246511 -0.010226703860725245 0 -0.010226703860725245 0.049131910862654275 0 0 0 0.019034714485725208 0.036446591549022467 -0.016017545470832534 0 -0.016017545470832534 0.052288425847217851 0 0 0 0.022183754349060086 0.036330954279440629 -0.014435403066507424 0 -0.014435403066507424 0.073659845599255799 0 0 0 0.027497699969674102 0.055108881615540561 -0.027375768395087211 0 -0.027375768395087211 0.055316870238068305 0 0 0 0.027606437963402217 0.061836541446227571 -0.029077637025513775 0 -0.029077637025513775 0.0322958408283366 0 0 0 0.023533095568641048 0.04745676923640553 -0.018055125177066395 0 -0.018055125177066395 0.03029677113121737 0 0 0 0.019438385091905735 0.049985085125744178 -0.022678907026406417 0 -0.022678907026406417 0.026156560298731701 0 0 0 0.01903541135611897 0.044978294284183845 -0.016485379969364528 0 -0.016485379969364528 0.023673453283775181 0 0 0 0.017162936891989722 0.049397581730378684 -0.021983318729205475 0 -0.021983318729205475 0.014163418554290957 0 0 0 0.015890250071167438 0.02993736052924071 -0.020451168375729745 0 -0.020451168375729745 0.026908575441959126 0 0 0 0.01421148399279995 0.045478375038922644 -0.019853395840963461 0 -0.019853395840963461 0.018858528010327391 0 0 0 0.016084225762312498 0.043651036602959575 -0.021862084017207836 0 -0.021862084017207836 0.014540547571360529 0 0 0 0.014547896043580005 0.035659450118240815 -0.021819939882038425 0 -0.021819939882038425 0.022294872981136526 0 0 0 0.014488580774844356 0.049572245743774501 -0.023854876024668403 0 -0.023854876024668403 0.012237338899547645 0 0 0 0.01545239616083055 0.047821301445689801 -0.021575848121277511 0 -0.021575848121277511 0.016947006487123439 0 0 0 0.016192076983203352 0.044577472831394349 -0.023448068445544007 0 -0.023448068445544007 0.02328673598090969 0 0 0 0.01696605220307601 0.063455147697958875 -0.02118308702463137 0 -0.02118308702463137 0.0095883980959570181 0 0 0 0.018260886448479063 0.056451428090892986 -0.023514490173034405 0 -0.023514490173034405 0.016824310180960977 0 0 0 0.018318934567963463 0.053715848785545667 -0.021752485617954315 0 -0.021752485617954315 0.011870432150217547 0 0 0 0.016396570233940783 0.060204623863595839 -0.020265985182109258 0 -0.020265985182109258 0.0098233502314796495 0 0 0 0.017506993523768853 0.063535644684112241 -0.022169844960481244 0 -0.022169844960481244 0.0097662060364797978 0 0 0 0.018325462680148039 0.061946378025341392 -0.012027589602246924 0 -0.012027589602246924 0.0035769397785070378 0 0 0 0.016380829450962114 0.054637113169435481 -0.019272857876983185 0 -0.019272857876983185 0.007735470201557737 0 0 0 0.015593145842748346 0.065890132002816987 -0.014776617023265937 0 -0.014776617023265937 0.01262934431361748 0 0 0 0.019629869079108603 0.047171601407045932 -0.02037803068116889 0 -0.02037803068116889 0.028672010434501904 0 0 0 0.018960902960386966 0.056405212320080278 -0.018786393397031892 0 -0.018786393397031892 0.018950333743865566 0 0 0 0.018838886515986475 0.04728448553254018 -0.022839952125080054 0 -0.022839952125080054 0.01729660508708239 0 0 0 0.016145272654905632 0.051964958940388023 -0.018447702447288938 0 -0.018447702447288938 0.017440984602169141 0 0 0 0.017351485885639284 0.049390849184105245 -0.020291387752573331 0 -0.020291387752573331 0.029148559426430687 0 0 0 0.019634852152633941 0.057175028646240023 -0.017818014889781394 0 -0.017818014889781394 0.033215208392779694 0 0 0 0.02259755925975504 0.054107681868598045 -0.018727470255600343 0 -0.018727470255600343 0.047021449224725842 0 0 0 0.025282282773331 0.042539635030629741 -0.021599742681833345 0 -0.021599742681833345 0.041908613459857413 0 0 0 0.021112062122621844 0.046871205067001764 -0.020460642989491407 0 -0.020460642989491407 0.035795226538021918 0 0 0 0.020666607901255907 0.048993010931203784 -0.015378855285400783 0 -0.015378855285400783 0.062078678146989197 0 0 0 0.027767922269548218 0.092657231131807238 -0.01523549582013517 0 -0.01523549582013517 0.061462637605218529 0 0 0 0.038529967184256442 0.02579030373543904 -0.011566612704281972 0 -0.011566612704281972 0.077219717945095162 0 0 0 0.025752505420133551 0.051843004518340063 -0.016957138286641998 0 -0.016957138286641998 0.065306593258465551 0 0 0 0.029287399444201445 0.078311442588399838 -0.019775817036446375 0 -0.019775817036446375 0.066706291443266341 0 0 0 0.036254433507916572 0.078366551572683185 -0.017778651003020784 0 -0.017778651003020784 0.056452730029914688 0 0 0 0.033704820400649538 0.095070693214128199 -0.013603373173789346 0 -0.013603373173789346 0.051690221520878099 0 0 0 0.036690228683751491 0.024866471479202013 -0.018008772246020988 0 -0.018008772246020988 0.053896751280094746 0 0 0 0.01969080568982412 0.021455032339099837 -0.010502533486381079 0 -0.010502533486381079 0.064243746267611521 0 0 0 0.021424694651677845 0.084375215329852482 -0.016040270273444346 0 -0.016040270273444346 0.048418519798069326 0 0 0 0.033198433781980508 0.076060443372569619 -0.024456914831729237 0 -0.024456914831729237 0.030591729068573992 0 0 0 0.026663043110285833 0.10243213250056821 -0.014301135371475815 0 -0.014301135371475815 0.042162996861293545 0 0 0 0.036148782340465424 0.023139459484258055 -0.018371179851233821 0 -0.018371179851233821 0.03996161129859975 0 0 0 0.015775267695714416 0.031475683458873902 -0.024701603621215262 0 -0.024701603621215262 0.022855508238676714 0 0 0 0.013582797924387643 0.031555657067491472 -0.023009586049310221 0 -0.023009586049310221 0.02996618258117778 0 0 0 0.015380459912167355 0.037340907237661508 -0.019605956762051346 0 -0.019605956762051346 0.044884714346735355 0 0 0 0.020556405396099237 
</DataArray>
<DataArray type="Float64" Name="cross_section_updated" format="ascii">
1 1 1 1 1 1 1 1 1 1 1 1 1 1 1 1 1 1 1 1 1 1 1 1 1 1 1 1 1 1 1 1 1 1 1 1 1 1 1 1 1 1 1 1 1 1 1 1 1 1 1 1 1 1 1 1 1 1 1 1 1 1 1 1 1 1 1 1 1 1 1 1 1 1 1 1 1 1 1 1 1 1 1 1 1 1 1 1 1 1 1 1 1 1 1 1 1 1 1 1 1 1 1 1 1 1 1 1 1 1 1 1 1 1 1 1 1 1 1 1 1 1 1 1 1 1 1 1 1 1 1 1 1 1 1 1 1 1 1 1 1 1 1 1 1 1 1 1 1 1 1 1 1 1 1 1 1 1 1 1 1 1 1 1 1 1 1 1 1 1 1 1 1 1 1 1 1 1 1 1 1 1 1 1 1 1 1 1 1 1 1 1 1 1 1 1 1 1 1 1 1 1 1 1 1 1 1 1 1 1 1 1 1 1 1 1 1 1 1 1 1 1 1 1 1 1 1 1 1 1 1 1 1 1 1 1 1 1 1 1 1 1 1 1 1 1 1 1 1 1 1 1 1 1 1 1 1 1 1 1 1 1 1 1 1 1 1 1 1 1 1 1 1 1 1 1 1 1 1 1 1 1 1 1 1 1 1 1 1 1 1 1 1 1 1 1 1 1 1 1 1 1 1 1 1 1 1 1 1 1 1 1 1 1 1 1 1 1 1 1 1 1 1 1 1 1 1 1 1 1 1 1 1 1 1 1 1 1 1 1 1 1 1 1 1 1 1 1 1 1 1 1 1 1 1 1 1 1 1 1 1 1 1 1 1 1 1 1 1 1 1 1 1 1 1 1 1 1 1 1 1 1 1 1 1 1 1 1 1 1 1 1 1 1 1 1 1 1 1 1 1 1 1 1 1 1 1 1 1 1 1 1 1 1 1 1 1 1 1 1 1 1 1 1 1 1 1 1 1 1 1 1 1 1 1 1 1 1 1 1 1 1 1 1 1 1 1 1 1 1 1 1 1 1 1 1 1 1 1 1 1 1 1 1 1 1 1 1 1 1 1 1 1 1 1 1 1 1 1 1 1 1 1 1 1 1 1 1 1 1 1 1 1 1 1 1 1 1 1 1 1 1 1 1 1 1 1 1 1 1 1 1 1 1 1 1 1 1 1 1 1 1 1 1 1 1 1 1 1 1 1 1 1 1 1 1 1 1 0.0020436920888142699 1 1 0.002112820595860996 1 1 0.0021598603265190175 1 1 1 1 1 1 1 1 1 1 1 1 1 0.0022025183283444706 1 1 1 1 1 0.0022447902972373844 1 1 1 1 1 1 1 1 1 1 1 1 1 1 1 1 1 1 1 1 1 1 1 1 1 1 1 1 1 1 1 1 1 1 1 1 1 1 1 1 1 1 1 1 1 1 1 1 1 1 1 1 1 1 1 1 1 1 1 1 1 1 1 1 1 1 1 1 1 1 1 1 1 1 1 1 1 1 1 1 1 1 1 1 1 1 1 1 1 1 1 1 1 1 1 1 1 1 1 1 1 1 1 1 1 1 1 1 1 1 1 1 1 1 1 1 1 1 1 1 1 1 1 1 1 1 1 1 1 1 1 1 1 1 1 1 1 1 1 1 1 1 1 1 1 1 1 1 1 1 1 1 1 1 1 1 1 1 1 1 1 1 1 1 1 1 1 1 0.0022876730290624183 1 1 1 0.0023320392943166346 1 1 0.0023784531270344775 1 1 1 1 1 1 1 1 1 1 1 0.0024277609184082168 1 1 1 1 0.0024814964172619031 1 1 1 1 1 1 1 1 1 1 1 1 1 1 1 1 1 1 1 1 1 1 1 1 1 1 1 1 1 1 1 1 1 1 1 1 1 1 1 1 1 1 1 1 1 1 1 1 1 1 1 1 1 1 1 1 1 1 0.0010760340895665738 1 1 1 1 1 1 1 1 1 1 1 1 1 1 0.0011031130984347562 1 1 0.0010888906091643758 1 0.0011191935890358937 1 1 1 1 1 1 1 1 1 1 1 1 1 0.00113780673311313 1 1 1 1 1 1 1 1 1 1 1 1 1 1 1 1 1 1 1 1 1 1 1 1 1 1 1 1 1 1 1 1 1 1 1 1 1 1 1 1 1 1 1 1 1 1 1 1 1 1 1 1 1 1 1 1 1 1 1 1 1 1 1 1 1 1 1 1 1 1 1 1 1 1 1 1 1 1 1 1 1 1 1 1 1 1 1 1 1 1 1 1 1 1 1 1 1 1 1 1 1 1 1 1 1 1 1 1 1 1 1 1 1 1 1 1 1 1 1 1 1 1 1 1 1 1 1 1 1 1 1 1 1 1 1 1 0.0010128237004467641 1 1 0.0010316390466831324 1 0.0010429780200399007 1 1 1 1 1 1 1 1 1 1 1 1 1 1 1 1 1 1 1 1 1 1 1 1 1 1 1 1 1 1 1 1 1 1 1 1 1 1 1 1 1 1 1 1 1 1 1 0.0010643340156562019 1 1 1 1 1 0.0010535238145199172 1 1 1 1 1 1 1 
</DataArray>
<DataArray type="Float64" Name="displacement_divergence" format="ascii">
-3.7738709450635477e-05 -4.1846413008101072e-05 -3.1777262393184652e-05 -3.6511545146959438e-05 -3.4451378186685221e-05 -3.4432011731650555e-05 -3.1879467515578772e-05 -3.3786630386841202e-05 -3.0732041414879287e-05 -2.3166408247867046e-05 -3.3944664512160371e-05 -2.1685009526044524e-05 -4.1168145973643888e-05 -3.1261179609758907e-05 -5.0093358726584045e-05 -3.9626528845787884e-05 -3.3902097505845217e-05 -3.7114180898160001e-05 -5.3928612558900447e-06 -9.8338285558740898e-06 -1.0572862915706395e-05 -1.9011176858222598e-05 -2.2415376890234904e-05 -1.3669640485017569e-05 -1.5920282187537033e-05 -2.0254052425679628e-05 -2.1796104703885298e-05 -1.9377874471580117e-05 -7.9834906887123538e-06 -9.6232799061868644e-06 -4.8444393734273215e-06 2.3454607904671896e-08 -1.6556680647746077e-06 -9.4139149385181228e-07 -9.5264064304662169e-06 -2.1383783614970935e-05 -1.7584547840940052e-05 -1.0609669733316643e-05 -2.0230694455050886e-05 -2.34165236721539e-05 -1.6556042667825353e-05 -1.0549690302134238e-05 -1.05165558092193e-05 -1.7417173295860827e-06 -1.0913128692537582e-05 -5.9845723089721475e-06 6.4011484395242173e-06 -1.5622961982221008e-07 -4.9480400861986922e-05 -3.7991033866403242e-05 -5.6998825841037142e-05 -3.7554535530051707e-05 -2.8976331403501214e-05 -3.133803161897769e-05 -3.1807266798917305e-05 -3.5307786153574584e-05 -2.5482269361715866e-05 -3.7849637829047306e-05 -2.9771057032487687e-05 -3.6036585187199362e-05 -5.1270955858105275e-05 -4.9443868290370269e-05 -4.6992533561816067e-05 -6.4605474032936082e-05 -6.8169327616254415e-05 -4.8364848852259601e-05 -5.5675298595298374e-05 -7.6260935600871359e-05 -5.6636238392990045e-05 -5.6884216709389433e-05 -5.9456533941686663e-05 -8.6164172083919878e-05 -3.0672710022183985e-05 -2.6303864700826176e-05 -4.4015833595784635e-05 -4.0996446773490909e-05 -2.731134173429939e-05 -4.8393353386441944e-05 -4.2396743221057877e-05 -3.6881214797271693e-05 -2.5792336416750739e-05 -1.6438373682803313e-05 -1.5116169329288603e-05 -1.1384728587203335e-05 -5.8849549562766529e-06 -2.6496874738547074e-05 4.5926290457482631e-06 -8.7028861100403636e-07 -6.3046191863039608e-07 1.3418755840067043e-05 7.1569320149386865e-06 4.5158756331978807e-06 1.5964517188733434e-05 2.1812027378663858e-05 -1.3934648122092974e-05 -2.0112120537490498e-05 -9.836546379462621e-07 -4.790644810163773e-06 -8.3838424971245591e-06 -1.409209541766433e-05 3.8864529245051754e-06 -1.2310550218824118e-05 3.8511038768166138e-05 5.8248849484411906e-06 1.6651543382083727e-05 2.8929952925805586e-05 4.1297818622355878e-05 3.6368160567876013e-05 3.2122663058944869e-05 3.4981892085670697e-05 6.9108073561830905e-05 1.6698074021288659e-06 1.2306640962135324e-05 1.4665679260594003e-05 -1.2074174433937611e-05 -1.3562242268780182e-05 -3.0474105984255775e-05 -4.1228101833597956e-05 -4.6251275312569266e-05 -5.8816123018278507e-05 -8.4204192664586266e-05 -6.2787369474291894e-05 -6.0210597095539917e-05 -6.7403453136448481e-05 -5.4411070094538495e-05 -8.8040980142982568e-05 -6.4019298452598882e-05 -3.9363347357317737e-05 -2.5479266566492402e-05 -4.2011697401366286e-05 6.2673495896913391e-05 5.3995566207653551e-05 4.971787052592592e-05 5.2793271167759628e-05 6.0834396050384722e-05 7.0333712195525514e-05 6.3326442750150666e-05 6.041628015401461e-05 6.430704362125947e-05 6.0350216964833621e-05 5.2050835740881086e-05 6.1102629960574698e-05 5.6203392041117645e-05 6.1048031843858702e-05 6.8436827712080469e-05 0.00012934962396822511 6.0330643428772542e-05 8.6405669063243295e-05 5.5406099877374035e-05 0.00011987028121738868 7.5564965908768032e-05 0.00011673351906566122 6.9174914684433256e-05 6.0241964973137578e-05 7.064343692328017e-05 4.4965121291585622e-05 4.4428128247713931e-05 6.1287048509850784e-05 4.875161975082017e-05 6.2383195931571913e-05 3.7033418145986202e-05 5.4560617721240823e-05 4.1904581839370633e-05 3.8963714885186373e-05 2.8377956390359692e-05 3.4478294596479214e-05 3.3970067398860237e-05 3.1989800912552894e-05 2.0029167956780239e-05 2.3844677738401191e-05 2.0971213086221654e-05 1.4999238663669431e-05 1.0378362308505832e-05 3.2581651085053227e-05 3.0181582832058787e-05 2.7995914175279088e-05 2.4318613654380342e-05 3.4003445264084758e-05 3.0765598773258082e-05 4.039336419525172e-05 3.8816506128464798e-05 3.8623945719057956e-05 4.3820050993158559e-05 3.8397578681094673e-05 5.2830157433635743e-05 4.777132735669389e-05 4.4914612090751203e-05 5.7184969899386587e-05 4.2726589973425457e-05 7.2657879091025295e-05 5.1457701428252075e-05 6.3120314574144354e-05 4.8609790300136797e-05 5.7755729388019999e-05 6.0471805969824955e-05 4.6656606735170835e-05 4.9803948692884644e-05 4.9722854398976464e-05 4.2634155190367622e-05 3.4128135963850681e-05 4.0122432929265408e-05 3.9974387957756646e-05 3.1995006497497874e-05 2.8509710441745188e-05 3.2702571116776646e-05 3.61889400507745e-05 3.0758413141150345e-05 3.013447590412395e-05 2.4790435083495732e-05 3.3357336584348811e-05 3.2170869283514513e-05 3.7802297584024176e-05 3.4617464484921084e-05 3.5649995057219677e-05 1.1479234414779215e-05 1.4905366386937971e-05 9.0176904936355273e-06 1.8101948621038229e-05 1.9961386719508678e-05 2.2571349382534691e-05 2.417770072715763e-05 2.6663255684109327e-05 2.3994862209617912e-05 2.0939073957791975e-05 2.3656747412674888e-05 1.9032234457651248e-05 1.542037265969474e-05 8.7495301477711016e-06 6.8598705227293578e-06 7.1455566420528048e-06 9.0970328752286805e-07 4.4154606932622363e-06 7.7613300696044701e-07 4.6663665371776431e-06 1.1970703166291428e-05 1.0904001506992464e-05 1.3135411321294247e-05 1.656777151650238e-05 1.8644806166006882e-05 2.2536015854467932e-05 2.02153972914083e-05 1.6648774876684797e-05 1.6993265233704498e-05 8.3580088773824957e-06 6.0234919579299587e-06 -9.6688555725008566e-07 3.297660969583902e-05 3.2783943575322512e-05 2.8462706652464415e-05 2.8233298054763588e-05 2.4886733454238596e-05 2.8529242712027557e-05 2.6812566749076147e-05 2.4371281285217972e-05 3.2730475196424365e-05 2.9169232861173674e-05 3.5241990124912469e-05 2.9697003141130094e-05 3.1457554065169064e-05 3.656972016208289e-05 3.2734101372173936e-05 4.2119083911107739e-05 3.1168377643490254e-05 3.7630893874837542e-05 3.5868378677000689e-05 3.546206383731552e-05 3.2345629732687033e-05 3.8157617216689522e-05 3.2802818063001619e-05 3.1902316916120137e-05 2.8633804905954796e-05 3.4575343996800012e-05 3.3507064599885889e-05 4.1647589894567448e-05 4.0969730134751772e-05 3.1062177789660308e-05 3.4084171882284136e-05 3.3234911609731537e-05 2.3871542034690924e-05 2.076802491895353e-05 1.3991648079877865e-05 3.6665545492436922e-06 9.8044521244221869e-06 1.5843689621021554e-05 2.4042647375468551e-05 9.1022067667634622e-06 1.9889559100349838e-05 2.6300973867818117e-05 3.1513637726743641e-05 3.1403982049321756e-05 2.8178881196511857e-05 3.756406144974418e-05 1.9968540447567235e-05 1.4643263807642224e-05 2.1862082066493516e-05 2.4979349483451225e-05 8.2638440611602925e-06 1.9627329310264449e-05 2.884343920993189e-05 2.4103823509319089e-05 4.3081660998953187e-05 3.0692193624518637e-05 2.7642220493246271e-05 3.5695017657209743e-05 3.4843590881952875e-05 4.1108968817126716e-05 5.496205574933922e-05 4.7623432345900347e-05 5.0727687677129654e-05 4.0859416198390953e-05 4.6114001755162407e-05 5.3772986939913535e-05 4.4144850748951121e-05 5.0105021075592906e-05 4.0017918662036741e-05 3.879033523381491e-05 3.7531461111303238e-05 4.1230119882656241e-05 3.3368875423924035e-05 3.9046999787644084e-05 3.3279650459982444e-05 3.6770021414947359e-05 3.3827711262037155e-05 3.7456832663279217e-05 4.0263612441942406e-05 -7.2503907849596504e-05 -5.0003572783352645e-05 -5.4209628162366973e-05 -4.4065885810486511e-05 -3.9575108905118721e-05 -4.7150392089290053e-05 -5.3072705463749154e-05 -4.6266985383419386e-05 -4.3618680396286975e-05 -3.8694649861671928e-05 -4.170039789945256e-05 -4.1672379654714788e-05 -3.930446486523405e-05 -2.5429170109866091e-05 -3.8907755750540618e-05 -5.9271923941666701e-05 -2.4015294161341247e-05 -4.6165396479465459e-05 -2.3901125804172744e-05 -2.171107316747739e-05 -2.4126535647875141e-05 -2.0563093979936334e-05 -2.4497922070002646e-05 -1.0960198122084856e-05 -1.2061315894939738e-05 -5.5717024248026813e-06 -7.9910731857547843e-06 5.456977366964429e-06 1.0255115972706389e-05 -9.6313355636347571e-07 -5.2098230807289095e-06 -4.0897090279723657e-06 1.9119764500783349e-06 1.1708238382307374e-05 -7.9237453203469795e-06 7.601199342087654e-06 -5.6135369720026008e-07 -1.10175313533365e-05 1.1876765549385121e-05 -6.5297647540946233e-06 -2.0977245806899262e-06 -3.286883937544099e-05 -2.7612979733050892e-05 -2.588141480125013e-05 -5.1149858190039782e-06 -2.1277900934963141e-05 -4.2230725363665346e-05 -3.4515819356255604e-05 -5.0845420083404171e-05 -3.9041540999743506e-05 -5.2901561774563033e-05 -2.7712107229534546e-05 -4.620102956521261e-05 -8.0220932050860795e-05 -8.4343220912930949e-05 -0.00010106665041963636 -7.1630525715489306e-05 -8.473412940341182e-05 -5.2519216127219599e-05 -7.4784548134477932e-05 -5.0225249760435411e-05 -0.00010176801841144979 -0.00015637534936805152 -9.4216514522824907e-05 -9.6661485083336185e-05 -0.00013282701890191068 -0.0001156002321990701 -7.6724836392137304e-05 -8.9119153766107105e-05 -8.4049593107723844e-05 -4.8272830549445104e-05 -5.2582589984164637e-05 -4.0442598388106565e-05 -4.3605108776250811e-05 -6.5683132717213671e-05 -4.932280328398249e-05 -1.5472218562032937e-06 1.6447375413753334e-05 1.911397956316629e-05 -3.2647966164373144e-05 -1.1674968367329493e-05 -3.8448506791369052e-05 -2.0914775025159477e-05 -1.3383757994058522e-05 7.5694651940976797e-06 -1.1726557684587105e-05 8.2947394120003462e-06 3.1185266793102869e-05 1.7554611687874643e-05 3.8658588249945894e-05 1.707362104053221e-05 3.680149896445118e-05 6.1392129590801236e-05 2.6749650722356689e-05 5.6953330203090262e-05 6.2747122239934457e-05 0.00010712589948252906 0.00010463717672353748 5.3266343759953244e-05 4.3269527605207348e-05 0.00011249489289017584 0.00018680487179101009 0.0001711898612937036 0.00018618113887180847 0.00012447054341369881 8.5315979709839302e-05 0.000103032714584126 7.8714723795424168e-05 3.0248766602121707e-05 1.881241680735913e-05 6.5441803451989902e-06 -1.7221092291899698e-05 5.4318106651658944e-05 -1.1870176349725306e-05 -5.9756096107311239e-05 -6.6887776196803079e-05 -3.002811774930887e-05 -4.8215256631233732e-05 -3.144668383887959e-05 -7.9847541089807586e-05 -4.3240716163575816e-05 -6.6824649198910391e-05 -0.00010034194427227246 -0.00010044552604302989 -0.00015461355656762516 -0.00011348897142392277 -0.00016244065812119797 -0.00012184503000185477 -8.844485708525846e-05 -0.00011036529718724711 8.0309380767877846e-05 8.8740465536771046e-05 9.3596872503908413e-05 8.6700137625940992e-05 8.0211287696967901e-05 6.7928097032386199e-05 6.0554199602442908e-05 7.5532587695211094e-05 5.3448595800986049e-05 6.2331591977726086e-05 4.4793091815040979e-05 6.0774375697743259e-05 5.1732107169710049e-05 6.3215638772401087e-05 6.7451337079601836e-05 5.9259111830211496e-05 5.2827566343386604e-05 4.1849635379520013e-05 6.4112520954777349e-05 5.9478131940446492e-05 7.3171684189170713e-05 4.1695719236650699e-05 5.306053559307637e-05 6.8291004517437938e-05 8.3784689889209341e-05 0.00010737082223494823 8.3545034549542562e-05 9.0392977706783045e-05 9.0138770241704331e-05 0.00011186339481294202 0.0001280993502046538 0.00015885690128957512 0.0001718751893620157 0.00015671776302217947 0.00013814544029849135 0.00014739295324511437 0.00017778551261577157 0.00017225504670847569 0.00029932760808552703 0.00036893420219278022 0.00035604677974168279 0.00024268935640668485 0.00013200520685328746 0.0001744857753463433 0.00022513975020855922 0.00013450883095821219 0.00014271267602036393 0.0001471090177020303 0.00010425574056626185 0.00013006550608612928 8.7037196683339348e-05 0.00010890537697059806 8.3015352985897595e-05 0.00011342710404512764 7.0074543098230322e-05 8.7117977792876776e-05 9.9534017798099555e-05 8.2445484535851519e-05 7.2977291579732435e-05 0.0001097547686192642 7.9283778724662722e-05 6.8057643927325824e-05 9.2223880254325893e-05 6.4227987411725172e-05 5.0705643079788988e-05 7.3065267327534166e-05 7.6456071430988241e-05 4.8771840174364675e-05 8.990781496077873e-05 6.724593524733407e-05 7.6747054330730021e-05 0.00012095920160671638 9.8105214486316644e-05 9.7828414808523209e-05 0.00010729520614360655 0.00014171093987412685 0.00014716961551061172 0.00017847743851566998 0.00040005518148169677 6.9841487429266557e-05 0.00017542191913163705 0.00037002525462481126 0.00023707018610604066 0.022665188832864953 0.00033527078121910734 0.000184114626870608 0.056348103493074647 7.0881186885081752e-05 0.00017436281402654014 0.080068938659139027 8.9678440342038268e-05 0.00013605748102447001 6.9940195174176813e-05 9.6804375436663451e-05 9.4834733396025083e-05 8.8938543386137052e-05 8.7193418559732721e-05 0.00011571716799618369 0.00011853773326061043 9.8023063875015554e-05 0.00013587376509550464 0.00016708453225777352 0.00017905934674184755 0.10134631550261355 0.00017507494673845315 0.00017164779280416046 0.00015557614307575495 0.0001882829972208221 0.00015066361048848907 0.12249670111569827 0.00017829507755198911 0.00011132770823335059 9.0716604125888872e-05 0.0001384620982223833 0.00011856973794561001 0.0001282585402423886 8.5988186742389094e-05 8.6697848313571082e-05 8.7965886402579011e-05 6.3069412531290353e-05 6.7617586169261743e-05 5.4274016362463565e-05 5.7489357217314625e-05 5.0683841184936853e-05 6.0682116264620137e-05 5.9629600662004572e-05 4.4895283796906639e-05 6.0131511551965553e-05 5.1647086342474066e-05 6.0549225582893856e-05 7.0665973630055161e-05 7.8085063081968789e-05 -8.1542089762745183e-05 -9.6004365600770372e-05 -5.5753949471540418e-05 -0.00013077508932045736 -0.00013348467190648717 -8.1570291595563837e-05 -8.3974493654034432e-05 -4.5258368624952021e-05 -1.8954726275128208e-05 1.5183422657181599e-05 -2.9141691397212375e-05 -1.0255343685018842e-05 -4.8550213263508484e-05 -1.0127937882728315e-05 6.7848921555871996e-05 2.9248349704023933e-05 0.0001033173086606113 3.1878516465850496e-05 -1.1925488245878926e-05 5.5290043874921485e-05 4.7978668082815097e-05 0.00013451062714632121 0.00020385833669133726 0.00015307313720082198 0.00016609077755024032 9.2113384671153875e-05 0.00012105736291342538 0.00014211943435171303 7.8399129318595159e-05 7.8458072071388354e-05 0.00012180647368268977 0.00012081680352142186 0.00013357664813006421 0.00012054828369474895 8.7724419458924154e-05 7.9838883551449497e-05 4.8120544709571956e-05 5.3324061109473377e-05 4.2958493535418321e-05 8.218382605180985e-06 4.4522618251577068e-05 5.4424091178533439e-05 1.7215780192914726e-05 1.0486857078287771e-05 -2.0014055425437733e-05 -2.3238962052686291e-05 -2.1984974699925004e-05 -2.1787750201196195e-05 7.4069795545335729e-06 9.7557591090763427e-06 -3.5296366018566783e-06 -1.8798364712282935e-05 -2.9073213894384962e-05 -4.8556123872083544e-05 -1.8733067700137107e-05 -3.6136121987205474e-05 -7.604025118595429e-05 -5.6063259976619735e-05 -5.3751342942591528e-05 1.257907466725269e-05 -7.8547520803457643e-06 9.6305749668346152e-06 -1.3263368308391067e-05 -1.1272268862625411e-05 -3.2128451913492929e-05 -2.6482087625102034e-05 -1.3766749950131201e-05 -1.732104193363955e-06 3.4127298582939739e-06 1.0401300767562058e-05 2.4933876129445455e-05 2.6714462744712071e-05 8.2255260655480535e-06 2.7903252613223871e-05 5.8690387038991265e-05 6.907819253933016e-05 8.3252752241655924e-05 3.0785594595970737e-05 2.2441562619503717e-05 4.9510038784133896e-05 4.6182007774211287e-05 7.128252327154392e-05 5.9014979741329326e-05 0.00010725551333248709 0.00010607085533714984 8.6160297752563113e-05 0.00011932824457916522 0.00015697784615707842 0.00013227217015764504 0.00015735701737441777 9.7698406858167178e-05 0.00012378458678001525 0.00016790127779659457 0.00014249911065342818 0.00017989850234277421 0.00016121486427791466 0.00020634753470662702 0.00022143697864986621 0.00016347820978740064 0.00013204432185856714 5.8118451851988349e-05 7.3709872005814706e-05 9.2010533194209279e-05 5.9136975562216511e-05 0.00010744213659457172 7.8750232427786913e-05 0.00010103132950983577 3.7131363490587599e-05 1.121445482848548e-05 3.0145422595356797e-05 2.1805112692951066e-05 3.5862274419858585e-05 3.4451571292505936e-05 2.1807023508232002e-05 3.4156111417171092e-05 2.4853798702120528e-05 1.8182724630310884e-05 2.0419875948448143e-05 1.7820712288431351e-05 1.4618349954212406e-05 1.9737618589600039e-05 1.2055963735765202e-05 1.369062813117751e-05 -1.5238223175506604e-06 7.8113910580661318e-05 0.00012218506790089435 0.00011700269252488764 0.00010224283332398284 6.9598838954851262e-05 5.3211691817711953e-05 5.0457669274466747e-05 6.2233254007203588e-05 4.9402111278736807e-05 4.8522076398810679e-05 7.6284311187123951e-05 7.6256211450108748e-05 7.3128019661647902e-05 0.00010339405176885757 0.00010237512778380473 0.00013264493194015234 0.00016640802953060718 0.00019481342466083889 0.0001509851205185465 0.0001743853659904376 0.00021480639157103482 0.00018208959788040368 0.14394980997172876 0.00016277300555822809 0.00020678889951946094 0.00020891315899222989 0.16612013500212883 0.00021682966375427732 0.00022773516332971755 0.18944201654299181 0.00020809277573512197 0.00015369553852413791 0.00021994928522586256 0.00015231009307239258 0.00017359899740647584 0.00019593367810465741 0.00016296425965714586 0.00024957042369630705 0.00025496274086132494 0.00021565556838689845 0.00025891328567479496 0.2137494121849616 0.00029596254868993559 0.00027937946647543094 0.00024416633043428603 0.00027354697464282429 0.24206234990832673 0.0003307828106581959 0.00028954512143280245 0.0001632641183666073 0.00027619517564792277 0.00032102284695504843 0.00026816889442805077 0.00018955542222462668 7.2030741209678541e-05 0.00013244100564145525 7.2932717486260941e-05 0.00012589493669433447 8.6000241116977001e-05 7.912233458449709e-05 0.0001005678807613976 0.00012703754249457138 4.9645857493387457e-05 6.0963087898474434e-05 5.1887532300622444e-05 7.0332748184320911e-05 4.1605430829193182e-05 4.1290924544459687e-05 1.2458325246353504e-05 2.4557549404576225e-05 -8.8561952415241766e-09 2.0806591917562874e-05 2.9839735087947364e-05 2.4791226770835752e-05 6.844087616336647e-05 3.0839958729292089e-05 3.8525595746827061e-05 7.3280185105306954e-05 4.4758473391830287e-05 4.9786744111857107e-05 6.2902826337272468e-05 7.1373924091977753e-05 4.0095485332530432e-05 4.6843906151152132e-05 4.0782294592754762e-05 4.7908549790553296e-05 4.5738331537430567e-05 4.9263666074646521e-05 4.609024950584799e-05 4.301229700466976e-05 4.9873001026416773e-05 4.8935306997955003e-05 6.2311730982320037e-05 7.5593356724604384e-05 5.4854555231029787e-05 4.7065641510570574e-05 5.4286662885129995e-05 6.5603945928341124e-05 5.0799457609573809e-05 3.9989756098008896e-05 5.0533692382615609e-05 4.2934340270221009e-05 5.2322815505721591e-05 4.9755291354820167e-05 0.00010578455480292001 0.076092415393948842 0.00010798206409803413 9.388802365406187e-05 8.3080486742258394e-05 6.0719112453179241e-05 6.6797901429811388e-05 7.0402059181038225e-05 0.00010466467790764373 8.8744620396713362e-05 0.00010077249690337793 8.6665785063743924e-05 0.00012556919270518651 0.0001442062281926124 0.00011049193585279619 0.00011231382640521777 0.10321104303672766 0.00012013412968852168 0.00012032192504745471 0.088954944377683476 0.00014274816985918428 0.11924495401335744 0.00017510398922678883 0.00015735318338761282 0.00013744995870576841 9.6216367047629583e-05 0.0001134359862794978 0.00014942484694298612 0.00012672002317373266 9.055547184237049e-05 0.00016304257987917529 0.00019141855084556431 0.00015581788473506257 0.00010761951994307534 0.00015978685720476678 0.13813465795800456 0.00019740523032349584 0.00017078028565677573 0.00013198676669855681 9.5745320420072025e-05 9.4634688780429518e-05 0.00011791924043343029 7.37478158900828e-05 3.8980474924074117e-05 3.3855093322897323e-05 5.282102971607462e-05 6.2230235082639043e-05 4.0604442609136916e-05 3.1996267534942831e-05 5.1704716629757778e-05 8.8780720765323511e-05 0.00010312793605143705 7.8148570132289576e-05 1.1831063373591005e-05 8.5628081333520567e-06 1.0539706733542247e-05 1.2115341778915108e-05 9.5130893386962193e-06 1.3308280966017882e-05 2.0028774476307798e-05 1.2077380902856997e-05 1.8304425646762367e-05 1.7656428597573673e-05 1.4630623353652618e-05 1.767006249132029e-06 1.6137742621534414e-05 1.1766350018332103e-05 6.1429555701769103e-06 -3.3938728118869735e-06 6.4328206712338867e-06 -1.092009937436831e-05 5.2880038426800745e-06 2.0302252909817041e-06 -1.0044309979105061e-05 2.6691357916637862e-07 1.4717186757713923e-05 1.110995733893819e-05 1.3800860370158374e-05 -1.1397654372099705e-06 -3.7064993738860144e-07 1.3199880425088012e-05 -6.006873298639373e-06 -1.0942320625217678e-05 -1.7173238256878737e-05 -1.4537746053544694e-05 -2.6518097228263315e-05 -1.2480800232634107e-05 6.5515392957460989e-05 5.6558433288366513e-05 8.2576552150526693e-05 6.6578686893812092e-05 3.2459132161580598e-05 2.7093972926584735e-05 4.443325577653881e-05 3.6659465446261044e-05 2.7346808780742281e-05 2.1009458224803372e-05 2.2926009860459878e-05 5.5859482555267563e-05 4.8034659066563228e-05 8.3584124870482706e-05 6.8716603162004633e-05 7.4032361859661076e-05 5.5275839332574826e-05 5.832586731201328e-05 6.3643247712262974e-05 3.7629752918816664e-05 4.6446279602744504e-05 3.421849042354489e-05 1.4741082221913062e-05 9.5863492734599121e-06 3.3289111214863856e-05 1.7633700072863367e-05 2.7746705327412553e-05 7.6998663593155683e-06 1.2642963250234993e-05 5.2985041791620479e-05 6.0496773153230943e-05 5.9617673274501345e-05 3.1004621171394652e-05 5.0153423078363839e-05 -2.7530432851453034e-05 -3.88239557235446e-05 -2.9095620925417316e-05 -3.7261256935993553e-05 -2.0802264177180452e-05 -6.4738740948424092e-06 -1.8229491899223208e-05 -1.5354612365886273e-06 -3.6854763739652477e-06 -7.5682434385808232e-06 -5.1903132894460038e-06 -3.9647104974895552e-06 -1.5879566472397996e-05 -2.3315846762016288e-05 -2.4658365326446063e-05 -2.2727333254211933e-05 -4.1750123827584808e-05 -3.9352455672708752e-05 -4.8468756054759459e-05 -7.5209650671269812e-05 -5.9357414247840573e-05 -5.0594148842667734e-05 -3.884797173776514e-05 -3.3591565456853132e-05 -1.1346999068422795e-05 -1.0328733850514631e-05 -3.0579605133107014e-06 -2.4827193702329944e-05 -2.0375046558441612e-05 -3.3700867621669502e-05 -3.4013564392528428e-05 -5.1476413068013991e-05 -4.9146626006145704e-05 -7.5313455730944331e-05 3.5540199805042007e-05 7.5424934610550669e-05 3.5131979260160956e-05 2.6581861657245685e-05 5.3364599029261713e-06 1.0682991107119366e-05 3.2588250546939485e-05 1.4922476471692292e-05 -1.6977177166653903e-05 -4.6525719458485198e-06 1.3618552839672442e-05 4.4297525501837466e-05 4.4847907135561749e-05 7.9166187258824963e-05 0.00013820418853235369 1.458360036732712e-05 0.00016461450182231937 0.012923418088361716 7.0453028407340849e-05 7.5052177357663372e-05 0.031660458853193921 0.00010389005802207687 0.043014305056219809 8.2666104387042316e-05 7.1685815684947689e-05 2.8921270778282666e-05 2.0943831476746334e-05 3.3352585632575151e-05 -9.8843938924135207e-07 4.6035117836756671e-05 1.7556313096336624e-05 8.0421174022461e-05 4.1890668482303956e-05 3.1823822297523743e-05 5.603508667303671e-05 4.7586786214313069e-05 5.5459385872650183e-05 6.8744249924185247e-05 6.9016094908505457e-05 5.8832738921602652e-05 4.8595962729764308e-05 4.7588528390297437e-05 4.2907342229974409e-05 3.9725625177918532e-05 3.552870998199987e-05 4.0210564405781222e-05 3.6369740108950109e-05 3.62214519371108e-05 3.8630990402076324e-05 4.0480192458008262e-05 4.2415130507690016e-05 4.565221612119752e-05 4.5797336419908623e-05 4.0991425584851961e-05 4.3767483809422229e-05 4.5813656700369956e-05 4.0952073627405195e-05 3.8982864606870921e-05 4.9074672697771508e-05 4.7402257400967421e-05 4.7097216289966148e-05 4.0363181637264087e-05 4.3378714714098075e-05 4.9087130381584611e-05 5.6493898149387019e-05 6.3205706933327295e-05 5.278015530655461e-05 5.1666519753139958e-05 6.9419805673870535e-05 9.6324917960640506e-05 0.06438126355033387 7.3218498610503474e-05 9.0636083769791292e-05 8.426205100162381e-05 9.1725571709379023e-05 4.9227014224560435e-05 0.053561736629194598 8.2996084454950957e-05 6.6657607775714111e-05 9.0371955851163525e-05 3.943816923928615e-05 3.3956994810969141e-05 3.8451149780418105e-05 5.1391013490248005e-05 
</DataArray>
</CellData>
</Piece>
</UnstructuredGrid>
</VTKFile>
