<?xml version="1.0"?>
<VTKFile type="UnstructuredGrid" version="0.1" byte_order="LittleEndian">
<UnstructuredGrid>
<Piece NumberOfPoints="3142" NumberOfCells="1054">
<Points>
<DataArray type="Float64" NumberOfComponents="3" format="ascii">
0 0 0 0.049999999999899652 0 0 0.02576622439977887 0.024532886826226379 0 0 0 0 0.02576622439977887 0.024532886826226379 0 0 0.050000000000207989 0 0.049999999999899652 0 0 0.053064897599215843 0.048131547304697528 0 0.02576622439977887 0.024532886826226379 0 0 0.050000000000207989 0 0.02576622439977887 0.024532886826226379 0 0.053064897599215843 0.048131547304697528 0 0 0.10000000000041601 0 0 0.050000000000207989 0 0.044310582753132287 0.101412518374475 0 0 0.15000000000062411 0 0 0.10000000000041601 0 0.044310582753132287 0.101412518374475 0 0.083411279318303222 0.089699755330707398 0 0.044310582753132287 0.101412518374475 0 0.053064897599215843 0.048131547304697528 0 0 0.050000000000207989 0 0.053064897599215843 0.048131547304697528 0 0.044310582753132287 0.101412518374475 0 0.083411279318303222 0.089699755330707398 0 0.065374659239632718 0.1448908038746782 0 0.044310582753132287 0.101412518374475 0 0.083411279318303222 0.089699755330707398 0 0.1053400320299198 0.12877248826361379 0 0.065374659239632718 0.1448908038746782 0 0.083411279318303222 0.089699755330707398 0 0.12372429750337779 0.095814237875728972 0 0.1053400320299198 0.12877248826361379 0 0.14332333627550789 0.14578431753966009 0 0.1053400320299198 0.12877248826361379 0 0.12372429750337779 0.095814237875728972 0 0.14618258501891079 0.062070108745602003 0 0.12372429750337779 0.095814237875728972 0 0.10266856499169109 0.044518360900210059 0 0.083411279318303222 0.089699755330707398 0 0.10266856499169109 0.044518360900210059 0 0.12372429750337779 0.095814237875728972 0 0.099999999999814668 0 0 0.14999999999970359 0 0 0.10266856499169109 0.044518360900210059 0 0.049999999999899652 0 0 0.099999999999814668 0 0 0.053064897599215843 0.048131547304697528 0 0.099999999999814668 0 0 0.10266856499169109 0.044518360900210059 0 0.053064897599215843 0.048131547304697528 0 0.083411279318303222 0.089699755330707398 0 0.053064897599215843 0.048131547304697528 0 0.10266856499169109 0.044518360900210059 0 0 0.25000000000104028 0 0 0.20000000000083221 0 0.044081577119474857 0.2271058242433576 0 0 0.20000000000083221 0 0.038512288486115001 0.1844147282893184 0 0.044081577119474857 0.2271058242433576 0 0.083105206071467416 0.20007701332709979 0 0.044081577119474857 0.2271058242433576 0 0.038512288486115001 0.1844147282893184 0 0 0.15000000000062411 0 0.065374659239632718 0.1448908038746782 0 0.038512288486115001 0.1844147282893184 0 0 0.15000000000062411 0 0.044310582753132287 0.101412518374475 0 0.065374659239632718 0.1448908038746782 0 0.083105206071467416 0.20007701332709979 0 0.038512288486115001 0.1844147282893184 0 0.065374659239632718 0.1448908038746782 0 0 0.20000000000083221 0 0 0.15000000000062411 0 0.038512288486115001 0.1844147282893184 0 0.065374659239632718 0.1448908038746782 0 0.1053400320299198 0.12877248826361379 0 0.106902708054812 0.16453234188234539 0 0.14332333627550789 0.14578431753966009 0 0.106902708054812 0.16453234188234539 0 0.1053400320299198 0.12877248826361379 0 0.083105206071467416 0.20007701332709979 0 0.065374659239632718 0.1448908038746782 0 0.106902708054812 0.16453234188234539 0 0.083105206071467416 0.20007701332709979 0 0.13737030665753211 0.20313708640667491 0 0.095326043202144745 0.24554465089224409 0 0.083105206071467416 0.20007701332709979 0 0.106902708054812 0.16453234188234539 0 0.13737030665753211 0.20313708640667491 0 0.083105206071467416 0.20007701332709979 0 0.095326043202144745 0.24554465089224409 0 0.044081577119474857 0.2271058242433576 0 0.049706944316556423 0.27522722923869108 0 0.044081577119474857 0.2271058242433576 0 0.095326043202144745 0.24554465089224409 0 0.13737030665753211 0.20313708640667491 0 0.14377654328998779 0.2442024734791064 0 0.095326043202144745 0.24554465089224409 0 0.17933913398461551 0.2350063570234002 0 0.14377654328998779 0.2442024734791064 0 0.13737030665753211 0.20313708640667491 0 0.17933913398461551 0.2350063570234002 0 0.13737030665753211 0.20313708640667491 0 0.18124454140915969 0.18790916706335251 0 0.14332333627550789 0.14578431753966009 0 0.18652628422869419 0.14162325200928061 0 0.18124454140915969 0.18790916706335251 0 0.14332333627550789 0.14578431753966009 0 0.13737030665753211 0.20313708640667491 0 0.106902708054812 0.16453234188234539 0 0.14332333627550789 0.14578431753966009 0 0.18124454140915969 0.18790916706335251 0 0.13737030665753211 0.20313708640667491 0 0.14332333627550789 0.14578431753966009 0 0.16141998738593399 0.10404039647458049 0 0.18652628422869419 0.14162325200928061 0 0.2185883431182947 0.18019736283949719 0 0.18652628422869419 0.14162325200928061 0 0.22985637510995899 0.1298347970200906 0 0.2185883431182947 0.18019736283949719 0 0.22985637510995899 0.1298347970200906 0 0.25557216766470708 0.15874861286892261 0 0.2185883431182947 0.18019736283949719 0 0.25557216766470708 0.15874861286892261 0 0.26429849586623999 0.19346700179430079 0 0.2185883431182947 0.18019736283949719 0 0.18124454140915969 0.18790916706335251 0 0.18652628422869419 0.14162325200928061 0 0.17933913398461551 0.2350063570234002 0 0.18124454140915969 0.18790916706335251 0 0.224700362040408 0.22206622194729711 0 0.2185883431182947 0.18019736283949719 0 0.224700362040408 0.22206622194729711 0 0.18124454140915969 0.18790916706335251 0 0.2185883431182947 0.18019736283949719 0 0.26429849586623999 0.19346700179430079 0 0.224700362040408 0.22206622194729711 0 0.25195515620380449 0.25883339815888678 0 0.21049769590865089 0.26857363548218488 0 0.224700362040408 0.22206622194729711 0 0.17933913398461551 0.2350063570234002 0 0.224700362040408 0.22206622194729711 0 0.21049769590865089 0.26857363548218488 0 0.14999999999970359 0 0 0.184418230509967 0.038773194583122873 0 0.14618258501891079 0.062070108745602003 0 0.19922788606653311 0.085920220746880993 0 0.14618258501891079 0.062070108745602003 0 0.184418230509967 0.038773194583122873 0 0.14999999999970359 0 0 0.19999999999955789 0 0 0.184418230509967 0.038773194583122873 0 0.14999999999970359 0 0 0.14618258501891079 0.062070108745602003 0 0.10266856499169109 0.044518360900210059 0 0.14618258501891079 0.062070108745602003 0 0.16141998738593399 0.10404039647458049 0 0.12372429750337779 0.095814237875728972 0 0.14332333627550789 0.14578431753966009 0 0.12372429750337779 0.095814237875728972 0 0.16141998738593399 0.10404039647458049 0 0.19922788606653311 0.085920220746880993 0 0.18652628422869419 0.14162325200928061 0 0.16141998738593399 0.10404039647458049 0 0.19922788606653311 0.085920220746880993 0 0.16141998738593399 0.10404039647458049 0 0.14618258501891079 0.062070108745602003 0 0.19922788606653311 0.085920220746880993 0 0.22985637510995899 0.1298347970200906 0 0.18652628422869419 0.14162325200928061 0 0.19922788606653311 0.085920220746880993 0 0.24218496799700481 0.089025544070598317 0 0.22985637510995899 0.1298347970200906 0 0.27474541102162192 0.11822029332053539 0 0.22985637510995899 0.1298347970200906 0 0.24218496799700481 0.089025544070598317 0 0.19922788606653311 0.085920220746880993 0 0.22668068146512929 0.045875643423131329 0 0.24218496799700481 0.089025544070598317 0 0.27499999999933927 0.060310814194988557 0 0.24218496799700481 0.089025544070598317 0 0.22668068146512929 0.045875643423131329 0 0.19922788606653311 0.085920220746880993 0 0.184418230509967 0.038773194583122873 0 0.22668068146512929 0.045875643423131329 0 0.19999999999955789 0 0 0.22668068146512929 0.045875643423131329 0 0.184418230509967 0.038773194583122873 0 0.19999999999955789 0 0 0.24999999999941211 0 0 0.22668068146512929 0.045875643423131329 0 0.24999999999941211 0 0 0.29999999999926641 0 0 0.27499999999933927 0.060310814194988557 0 0.24999999999941211 0 0 0.27499999999933927 0.060310814194988557 0 0.22668068146512929 0.045875643423131329 0 0.29999999999926641 0 0 0.32541448401678508 0.046215317981507749 0 0.27499999999933927 0.060310814194988557 0 0.29999999999926641 0 0 0.34999999999912063 0 0 0.32541448401678508 0.046215317981507749 0 0.35312867752657662 0.084946736076730367 0 0.32541448401678508 0.046215317981507749 0 0.3615861437013822 0.03582617922508851 0 0.35312867752657662 0.084946736076730367 0 0.3615861437013822 0.03582617922508851 0 0.39591832466117061 0.056982757562006353 0 0.34999999999912063 0 0 0.3615861437013822 0.03582617922508851 0 0.32541448401678508 0.046215317981507749 0 0.34999999999912063 0 0 0.3999999999989749 0 0 0.3615861437013822 0.03582617922508851 0 0.35312867752657662 0.084946736076730367 0 0.39823268594401579 0.1116623613130045 0 0.36246644853392812 0.1399454205365751 0 0.35312867752657662 0.084946736076730367 0 0.36246644853392812 0.1399454205365751 0 0.32215584939770009 0.1218492143506909 0 0.35312867752657662 0.084946736076730367 0 0.3096713403101819 0.085471541595262421 0 0.32541448401678508 0.046215317981507749 0 0.35312867752657662 0.084946736076730367 0 0.32215584939770009 0.1218492143506909 0 0.3096713403101819 0.085471541595262421 0 0.27474541102162192 0.11822029332053539 0 0.3096713403101819 0.085471541595262421 0 0.32215584939770009 0.1218492143506909 0 0.27499999999933927 0.060310814194988557 0 0.32541448401678508 0.046215317981507749 0 0.3096713403101819 0.085471541595262421 0 0.3096713403101819 0.085471541595262421 0 0.27474541102162192 0.11822029332053539 0 0.27499999999933927 0.060310814194988557 0 0.27499999999933927 0.060310814194988557 0 0.27474541102162192 0.11822029332053539 0 0.24218496799700481 0.089025544070598317 0 0.27474541102162192 0.11822029332053539 0 0.25557216766470708 0.15874861286892261 0 0.22985637510995899 0.1298347970200906 0 0.27474541102162192 0.11822029332053539 0 0.29336099386129338 0.15892013001050981 0 0.25557216766470708 0.15874861286892261 0 0.26429849586623999 0.19346700179430079 0 0.25557216766470708 0.15874861286892261 0 0.29336099386129338 0.15892013001050981 0 0.33084213324567391 0.16272720141332131 0 0.31255190597181792 0.19850845631528771 0 0.29336099386129338 0.15892013001050981 0 0.26429849586623999 0.19346700179430079 0 0.29336099386129338 0.15892013001050981 0 0.31255190597181792 0.19850845631528771 0 0.27474541102162192 0.11822029332053539 0 0.32215584939770009 0.1218492143506909 0 0.29336099386129338 0.15892013001050981 0 0.28040350263641872 0.23054717217092141 0 0.25195515620380449 0.25883339815888678 0 0.224700362040408 0.22206622194729711 0 0.26429849586623999 0.19346700179430079 0 0.28040350263641872 0.23054717217092141 0 0.224700362040408 0.22206622194729711 0 0.26429849586623999 0.19346700179430079 0 0.31255190597181792 0.19850845631528771 0 0.28040350263641872 0.23054717217092141 0 0.33758650185219202 0.23837101504325639 0 0.29132859388405002 0.27203693976649962 0 0.28040350263641872 0.23054717217092141 0 0.33758650185219202 0.23837101504325639 0 0.28040350263641872 0.23054717217092141 0 0.31255190597181792 0.19850845631528771 0 0.33758650185219202 0.23837101504325639 0 0.31255190597181792 0.19850845631528771 0 0.3572130504031617 0.1874703368446563 0 0.33758650185219202 0.23837101504325639 0 0.3572130504031617 0.1874703368446563 0 0.38831533174504851 0.2189834941785925 0 0.33758650185219202 0.23837101504325639 0 0.38831533174504851 0.2189834941785925 0 0.3786248352540974 0.27082301512024259 0 0.33084213324567391 0.16272720141332131 0 0.29336099386129338 0.15892013001050981 0 0.32215584939770009 0.1218492143506909 0 0.33084213324567391 0.16272720141332131 0 0.32215584939770009 0.1218492143506909 0 0.36246644853392812 0.1399454205365751 0 0.33084213324567391 0.16272720141332131 0 0.3572130504031617 0.1874703368446563 0 0.31255190597181792 0.19850845631528771 0 0.39801143831225599 0.16651381068160659 0 0.3572130504031617 0.1874703368446563 0 0.36246644853392812 0.1399454205365751 0 0.33084213324567391 0.16272720141332131 0 0.36246644853392812 0.1399454205365751 0 0.3572130504031617 0.1874703368446563 0 0.39801143831225599 0.16651381068160659 0 0.36246644853392812 0.1399454205365751 0 0.39823268594401579 0.1116623613130045 0 0.39801143831225599 0.16651381068160659 0 0.44288491854585582 0.14116182884956319 0 0.42905200079338551 0.19982395548231649 0 0.39801143831225599 0.16651381068160659 0 0.39823268594401579 0.1116623613130045 0 0.44288491854585582 0.14116182884956319 0 0.42377727103934271 0.25099357235810238 0 0.3786248352540974 0.27082301512024259 0 0.38831533174504851 0.2189834941785925 0 0.39801143831225599 0.16651381068160659 0 0.38831533174504851 0.2189834941785925 0 0.3572130504031617 0.1874703368446563 0 0.39801143831225599 0.16651381068160659 0 0.42905200079338551 0.19982395548231649 0 0.38831533174504851 0.2189834941785925 0 0.42377727103934271 0.25099357235810238 0 0.38831533174504851 0.2189834941785925 0 0.42905200079338551 0.19982395548231649 0 0.42377727103934271 0.25099357235810238 0 0.42905200079338551 0.19982395548231649 0 0.46429753744194407 0.22870891180733599 0 0.47357141910802508 0.1873585799078378 0 0.46429753744194407 0.22870891180733599 0 0.42905200079338551 0.19982395548231649 0 0.47357141910802508 0.1873585799078378 0 0.51729576145820033 0.1683240575987815 0 0.50760557329222289 0.20700468884612061 0 0.47357141910802508 0.1873585799078378 0 0.50760557329222289 0.20700468884612061 0 0.46429753744194407 0.22870891180733599 0 0.49695729691142171 0.25014895411178018 0 0.46429753744194407 0.22870891180733599 0 0.50760557329222289 0.20700468884612061 0 0.47357141910802508 0.1873585799078378 0 0.44288491854585582 0.14116182884956319 0 0.48466639505193998 0.1421439844745814 0 0.47357141910802508 0.1873585799078378 0 0.42905200079338551 0.19982395548231649 0 0.44288491854585582 0.14116182884956319 0 0.47357141910802508 0.1873585799078378 0 0.48466639505193998 0.1421439844745814 0 0.51729576145820033 0.1683240575987815 0 0.44288491854585582 0.14116182884956319 0 0.47881186583059909 0.093591717165689425 0 0.48466639505193998 0.1421439844745814 0 0.51076801031701946 0.1202837388510348 0 0.48466639505193998 0.1421439844745814 0 0.47881186583059909 0.093591717165689425 0 0.43698630808430822 0.080423614171545449 0 0.47881186583059909 0.093591717165689425 0 0.44288491854585582 0.14116182884956319 0 0.43698630808430822 0.080423614171545449 0 0.47040171442036788 0.044141676406503738 0 0.47881186583059909 0.093591717165689425 0 0.52375890611712683 0.059318771819432882 0 0.47881186583059909 0.093591717165689425 0 0.47040171442036788 0.044141676406503738 0 0.49999999999869432 0 0 0.52375890611712683 0.059318771819432882 0 0.47040171442036788 0.044141676406503738 0 0.44999999999882923 0 0 0.49999999999869432 0 0 0.47040171442036788 0.044141676406503738 0 0.44999999999882923 0 0 0.47040171442036788 0.044141676406503738 0 0.4320097814748517 0.037406712692169303 0 0.43698630808430822 0.080423614171545449 0 0.4320097814748517 0.037406712692169303 0 0.47040171442036788 0.044141676406503738 0 0.3999999999989749 0 0 0.4320097814748517 0.037406712692169303 0 0.39591832466117061 0.056982757562006353 0 0.43698630808430822 0.080423614171545449 0 0.39591832466117061 0.056982757562006353 0 0.4320097814748517 0.037406712692169303 0 0.3999999999989749 0 0 0.44999999999882923 0 0 0.4320097814748517 0.037406712692169303 0 0.3999999999989749 0 0 0.39591832466117061 0.056982757562006353 0 0.3615861437013822 0.03582617922508851 0 0.35312867752657662 0.084946736076730367 0 0.39591832466117061 0.056982757562006353 0 0.39823268594401579 0.1116623613130045 0 0.43698630808430822 0.080423614171545449 0 0.44288491854585582 0.14116182884956319 0 0.39823268594401579 0.1116623613130045 0 0.43698630808430822 0.080423614171545449 0 0.39823268594401579 0.1116623613130045 0 0.39591832466117061 0.056982757562006353 0 0.43249999999999988 0.43937499999999979 0 0.38707855792647411 0.42299362914874578 0 0.42161023666869668 0.39493916313643851 0 0.38083244760691543 0.38531983672244652 0 0.42161023666869668 0.39493916313643851 0 0.38707855792647411 0.42299362914874578 0 0.38083244760691543 0.38531983672244652 0 0.40076539126862748 0.34589349467022118 0 0.42161023666869668 0.39493916313643851 0 0.43249999999999988 0.43937499999999979 0 0.3908716102680424 0.47010282357248828 0 0.38707855792647411 0.42299362914874578 0 0.38244435121258652 0.51653317813019495 0 0.3908716102680424 0.47010282357248828 0 0.43507373378304309 0.49699695397193322 0 0.43249999999999988 0.43937499999999979 0 0.43507373378304309 0.49699695397193322 0 0.3908716102680424 0.47010282357248828 0 0.43249999999999988 0.43937499999999979 0 0.46111841286828259 0.46690301029591341 0 0.43507373378304309 0.49699695397193322 0 0.43249999999999988 0.43937499999999979 0 0.48858720058566618 0.43964267759203868 0 0.46111841286828259 0.46690301029591341 0 0.49102375406324739 0.49123754822244059 0 0.43507373378304309 0.49699695397193322 0 0.46111841286828259 0.46690301029591341 0 0.49102375406324739 0.49123754822244059 0 0.46111841286828259 0.46690301029591341 0 0.48858720058566618 0.43964267759203868 0 0.52289427570932567 0.3932284363388488 0 0.48858720058566618 0.43964267759203868 0 0.46655310992796922 0.39650496622958609 0 0.43249999999999988 0.43937499999999979 0 0.46655310992796922 0.39650496622958609 0 0.48858720058566618 0.43964267759203868 0 0.43249999999999988 0.43937499999999979 0 0.42161023666869668 0.39493916313643851 0 0.46655310992796922 0.39650496622958609 0 0.4409427642593301 0.35743108089689513 0 0.46655310992796922 0.39650496622958609 0 0.42161023666869668 0.39493916313643851 0 0.52289427570932567 0.3932284363388488 0 0.46655310992796922 0.39650496622958609 0 0.49077833859261139 0.35229981449445641 0 0.5 0.29999999999999999 0 0.49077833859261139 0.35229981449445641 0 0.46226845272279993 0.31901800744800313 0 0.4409427642593301 0.35743108089689513 0 0.46226845272279993 0.31901800744800313 0 0.49077833859261139 0.35229981449445641 0 0.4409427642593301 0.35743108089689513 0 0.41914690343363781 0.30688979866601612 0 0.46226845272279993 0.31901800744800313 0 0.4409427642593301 0.35743108089689513 0 0.49077833859261139 0.35229981449445641 0 0.46655310992796922 0.39650496622958609 0 0.5 0.29999999999999999 0 0.4604742573284204 0.27846934318264788 0 0.49695729691142171 0.25014895411178018 0 0.49695729691142171 0.25014895411178018 0 0.4604742573284204 0.27846934318264788 0 0.46429753744194407 0.22870891180733599 0 0.5 0.29999999999999999 0 0.46226845272279993 0.31901800744800313 0 0.4604742573284204 0.27846934318264788 0 0.41914690343363781 0.30688979866601612 0 0.4604742573284204 0.27846934318264788 0 0.46226845272279993 0.31901800744800313 0 0.42377727103934271 0.25099357235810238 0 0.46429753744194407 0.22870891180733599 0 0.4604742573284204 0.27846934318264788 0 0.42377727103934271 0.25099357235810238 0 0.4604742573284204 0.27846934318264788 0 0.41914690343363781 0.30688979866601612 0 0.42377727103934271 0.25099357235810238 0 0.41914690343363781 0.30688979866601612 0 0.3786248352540974 0.27082301512024259 0 0.36575549820117997 0.31677992835137742 0 0.3786248352540974 0.27082301512024259 0 0.41914690343363781 0.30688979866601612 0 0.4409427642593301 0.35743108089689513 0 0.42161023666869668 0.39493916313643851 0 0.40076539126862748 0.34589349467022118 0 0.4409427642593301 0.35743108089689513 0 0.40076539126862748 0.34589349467022118 0 0.41914690343363781 0.30688979866601612 0 0.36575549820117997 0.31677992835137742 0 0.41914690343363781 0.30688979866601612 0 0.40076539126862748 0.34589349467022118 0 0.40076539126862748 0.34589349467022118 0 0.33277555741076909 0.36432196682010132 0 0.36575549820117997 0.31677992835137742 0 0.38083244760691543 0.38531983672244652 0 0.33277555741076909 0.36432196682010132 0 0.40076539126862748 0.34589349467022118 0 0.36575549820117997 0.31677992835137742 0 0.33277555741076909 0.36432196682010132 0 0.32752639306529541 0.32610012995269699 0 0.33277555741076909 0.36432196682010132 0 0.29644548887253103 0.34914008784168082 0 0.32752639306529541 0.32610012995269699 0 0.33758650185219202 0.23837101504325639 0 0.3786248352540974 0.27082301512024259 0 0.33402499257867951 0.28911035184473982 0 0.36575549820117997 0.31677992835137742 0 0.33402499257867951 0.28911035184473982 0 0.3786248352540974 0.27082301512024259 0 0.36575549820117997 0.31677992835137742 0 0.32752639306529541 0.32610012995269699 0 0.33402499257867951 0.28911035184473982 0 0.29348325746214782 0.31350119524708198 0 0.33402499257867951 0.28911035184473982 0 0.32752639306529541 0.32610012995269699 0 0.33758650185219202 0.23837101504325639 0 0.33402499257867951 0.28911035184473982 0 0.29132859388405002 0.27203693976649962 0 0.29348325746214782 0.31350119524708198 0 0.29132859388405002 0.27203693976649962 0 0.33402499257867951 0.28911035184473982 0 0.29348325746214782 0.31350119524708198 0 0.24432083401701241 0.3006253385567515 0 0.29132859388405002 0.27203693976649962 0 0.25195515620380449 0.25883339815888678 0 0.29132859388405002 0.27203693976649962 0 0.24432083401701241 0.3006253385567515 0 0.25195515620380449 0.25883339815888678 0 0.28040350263641872 0.23054717217092141 0 0.29132859388405002 0.27203693976649962 0 0.27866744612395528 0.38416094670951489 0 0.29644548887253103 0.34914008784168082 0 0.33277555741076909 0.36432196682010132 0 0.29348325746214782 0.31350119524708198 0 0.32752639306529541 0.32610012995269699 0 0.29644548887253103 0.34914008784168082 0 0.29348325746214782 0.31350119524708198 0 0.29644548887253103 0.34914008784168082 0 0.25966125648670141 0.34351016742083729 0 0.29348325746214782 0.31350119524708198 0 0.25966125648670141 0.34351016742083729 0 0.24432083401701241 0.3006253385567515 0 0.27866744612395528 0.38416094670951489 0 0.25966125648670141 0.34351016742083729 0 0.29644548887253103 0.34914008784168082 0 0.27866744612395528 0.38416094670951489 0 0.22033343844674469 0.36963382230740238 0 0.25966125648670141 0.34351016742083729 0 0.27866744612395528 0.38416094670951489 0 0.29124338931648802 0.43334555462578611 0 0.24049127783545701 0.41270748208749802 0 0.29124338931648802 0.43334555462578611 0 0.25982634974572738 0.46097799597715272 0 0.24049127783545701 0.41270748208749802 0 0.27866744612395528 0.38416094670951489 0 0.31778888742534622 0.40581751814196781 0 0.29124338931648802 0.43334555462578611 0 0.27866744612395528 0.38416094670951489 0 0.33277555741076909 0.36432196682010132 0 0.31778888742534622 0.40581751814196781 0 0.33277555741076909 0.36432196682010132 0 0.35221190152536241 0.40457127605439203 0 0.31778888742534622 0.40581751814196781 0 0.34258405725730701 0.4444034294386992 0 0.31778888742534622 0.40581751814196781 0 0.35221190152536241 0.40457127605439203 0 0.34258405725730701 0.4444034294386992 0 0.29124338931648802 0.43334555462578611 0 0.31778888742534622 0.40581751814196781 0 0.34258405725730701 0.4444034294386992 0 0.35221190152536241 0.40457127605439203 0 0.38707855792647411 0.42299362914874578 0 0.38083244760691543 0.38531983672244652 0 0.38707855792647411 0.42299362914874578 0 0.35221190152536241 0.40457127605439203 0 0.38083244760691543 0.38531983672244652 0 0.35221190152536241 0.40457127605439203 0 0.33277555741076909 0.36432196682010132 0 0.38244435121258652 0.51653317813019495 0 0.35024835142131061 0.48654922671676981 0 0.3908716102680424 0.47010282357248828 0 0.34258405725730701 0.4444034294386992 0 0.3908716102680424 0.47010282357248828 0 0.35024835142131061 0.48654922671676981 0 0.34258405725730701 0.4444034294386992 0 0.38707855792647411 0.42299362914874578 0 0.3908716102680424 0.47010282357248828 0 0.34258405725730701 0.4444034294386992 0 0.31068898841644388 0.47541502461811092 0 0.29124338931648802 0.43334555462578611 0 0.35024835142131061 0.48654922671676981 0 0.33190227185843768 0.52715113583864037 0 0.31068898841644388 0.47541502461811092 0 0.34258405725730701 0.4444034294386992 0 0.35024835142131061 0.48654922671676981 0 0.31068898841644388 0.47541502461811092 0 0.28307294598219601 0.50789252727458634 0 0.25982634974572738 0.46097799597715272 0 0.31068898841644388 0.47541502461811092 0 0.29124338931648802 0.43334555462578611 0 0.31068898841644388 0.47541502461811092 0 0.25982634974572738 0.46097799597715272 0 0.28307294598219601 0.50789252727458634 0 0.23975172658309729 0.49475499200540818 0 0.25982634974572738 0.46097799597715272 0 0.22278230690790279 0.44824268025881547 0 0.23975172658309729 0.49475499200540818 0 0.19604738184454831 0.47787523520405789 0 0.22278230690790279 0.44824268025881547 0 0.19604738184454831 0.47787523520405789 0 0.191953871957803 0.42546416763755879 0 0.22278230690790279 0.44824268025881547 0 0.24049127783545701 0.41270748208749802 0 0.25982634974572738 0.46097799597715272 0 0.22278230690790279 0.44824268025881547 0 0.25982634974572738 0.46097799597715272 0 0.23975172658309729 0.49475499200540818 0 0.27866744612395528 0.38416094670951489 0 0.24049127783545701 0.41270748208749802 0 0.22033343844674469 0.36963382230740238 0 0.1650278706801647 0.38791388161335733 0 0.22033343844674469 0.36963382230740238 0 0.191953871957803 0.42546416763755879 0 0.22033343844674469 0.36963382230740238 0 0.24049127783545701 0.41270748208749802 0 0.191953871957803 0.42546416763755879 0 0.22278230690790279 0.44824268025881547 0 0.191953871957803 0.42546416763755879 0 0.24049127783545701 0.41270748208749802 0 0.15801167086041079 0.46008690540259539 0 0.13773355295499351 0.42497777642586831 0 0.191953871957803 0.42546416763755879 0 0.1650278706801647 0.38791388161335733 0 0.191953871957803 0.42546416763755879 0 0.13773355295499351 0.42497777642586831 0 0.1650278706801647 0.38791388161335733 0 0.13773355295499351 0.42497777642586831 0 0.1117088112799664 0.38831403004970022 0 0.15801167086041079 0.46008690540259539 0 0.113541300460994 0.46208784312094731 0 0.13773355295499351 0.42497777642586831 0 0.1216098864341134 0.50637075089503902 0 0.113541300460994 0.46208784312094731 0 0.15801167086041079 0.46008690540259539 0 0.1216098864341134 0.50637075089503902 0 0.15801167086041079 0.46008690540259539 0 0.16618607197337229 0.50652878253548905 0 0.15801167086041079 0.46008690540259539 0 0.19604738184454831 0.47787523520405789 0 0.16618607197337229 0.50652878253548905 0 0.15801167086041079 0.46008690540259539 0 0.191953871957803 0.42546416763755879 0 0.19604738184454831 0.47787523520405789 0 0.25195515620380449 0.25883339815888678 0 0.24432083401701241 0.3006253385567515 0 0.21049769590865089 0.26857363548218488 0 0.19670163708476801 0.31472518408333222 0 0.21049769590865089 0.26857363548218488 0 0.24432083401701241 0.3006253385567515 0 0.19670163708476801 0.31472518408333222 0 0.168349569971391 0.28054490850913671 0 0.21049769590865089 0.26857363548218488 0 0.19670163708476801 0.31472518408333222 0 0.22615676742807109 0.33458786033114157 0 0.18434624290945251 0.35208838264196463 0 0.19670163708476801 0.31472518408333222 0 0.24432083401701241 0.3006253385567515 0 0.22615676742807109 0.33458786033114157 0 0.24432083401701241 0.3006253385567515 0 0.25966125648670141 0.34351016742083729 0 0.22615676742807109 0.33458786033114157 0 0.22033343844674469 0.36963382230740238 0 0.22615676742807109 0.33458786033114157 0 0.25966125648670141 0.34351016742083729 0 0.22033343844674469 0.36963382230740238 0 0.18434624290945251 0.35208838264196463 0 0.22615676742807109 0.33458786033114157 0 0.1650278706801647 0.38791388161335733 0 0.18434624290945251 0.35208838264196463 0 0.22033343844674469 0.36963382230740238 0 0.1650278706801647 0.38791388161335733 0 0.14223753364722069 0.3341983344262433 0 0.18434624290945251 0.35208838264196463 0 0.1650278706801647 0.38791388161335733 0 0.1117088112799664 0.38831403004970022 0 0.14223753364722069 0.3341983344262433 0 0.19670163708476801 0.31472518408333222 0 0.18434624290945251 0.35208838264196463 0 0.14223753364722069 0.3341983344262433 0 0.19670163708476801 0.31472518408333222 0 0.14223753364722069 0.3341983344262433 0 0.168349569971391 0.28054490850913671 0 0.1247745017231483 0.27198077544791172 0 0.168349569971391 0.28054490850913671 0 0.14223753364722069 0.3341983344262433 0 0.1247745017231483 0.27198077544791172 0 0.14377654328998779 0.2442024734791064 0 0.168349569971391 0.28054490850913671 0 0.17933913398461551 0.2350063570234002 0 0.21049769590865089 0.26857363548218488 0 0.168349569971391 0.28054490850913671 0 0.17933913398461551 0.2350063570234002 0 0.168349569971391 0.28054490850913671 0 0.14377654328998779 0.2442024734791064 0 0.049706944316556423 0.27522722923869108 0 0.095326043202144745 0.24554465089224409 0 0.093851963071650835 0.30582068233324772 0 0.1247745017231483 0.27198077544791172 0 0.095326043202144745 0.24554465089224409 0 0.14377654328998779 0.2442024734791064 0 0.1247745017231483 0.27198077544791172 0 0.093851963071650835 0.30582068233324772 0 0.095326043202144745 0.24554465089224409 0 0.1247745017231483 0.27198077544791172 0 0.14223753364722069 0.3341983344262433 0 0.093851963071650835 0.30582068233324772 0 0.049706944316556423 0.27522722923869108 0 0.093851963071650835 0.30582068233324772 0 0.046389130980076937 0.32668781832131749 0 0.087545339447545459 0.35122518864182262 0 0.046389130980076937 0.32668781832131749 0 0.093851963071650835 0.30582068233324772 0 0.087545339447545459 0.35122518864182262 0 0.093851963071650835 0.30582068233324772 0 0.14223753364722069 0.3341983344262433 0 0.087545339447545459 0.35122518864182262 0 0.14223753364722069 0.3341983344262433 0 0.1117088112799664 0.38831403004970022 0 0.087545339447545459 0.35122518864182262 0 0.1117088112799664 0.38831403004970022 0 0.050583896093752537 0.38543522283434112 0 0.087545339447545459 0.35122518864182262 0 0.050583896093752537 0.38543522283434112 0 0.046389130980076937 0.32668781832131749 0 0 0.35000000000145642 0 0.046389130980076937 0.32668781832131749 0 0.050583896093752537 0.38543522283434112 0 0 0.35000000000145642 0 0 0.30000000000124832 0 0.046389130980076937 0.32668781832131749 0 0 0.30000000000124832 0 0.049706944316556423 0.27522722923869108 0 0.046389130980076937 0.32668781832131749 0 0 0.30000000000124832 0 0 0.25000000000104028 0 0.049706944316556423 0.27522722923869108 0 0 0.25000000000104028 0 0.044081577119474857 0.2271058242433576 0 0.049706944316556423 0.27522722923869108 0 0.078358742472063481 0.43365249433908948 0 0.113541300460994 0.46208784312094731 0 0.068743045408989428 0.48853989837882689 0 0.1216098864341134 0.50637075089503902 0 0.068743045408989428 0.48853989837882689 0 0.113541300460994 0.46208784312094731 0 0.113541300460994 0.46208784312094731 0 0.078358742472063481 0.43365249433908948 0 0.13773355295499351 0.42497777642586831 0 0.078358742472063481 0.43365249433908948 0 0.1117088112799664 0.38831403004970022 0 0.13773355295499351 0.42497777642586831 0 0.078358742472063481 0.43365249433908948 0 0.050583896093752537 0.38543522283434112 0 0.1117088112799664 0.38831403004970022 0 0.078358742472063481 0.43365249433908948 0 0.035463093262830522 0.42673416072819947 0 0.050583896093752537 0.38543522283434112 0 0 0.40000000000166441 0 0 0.35000000000145642 0 0.050583896093752537 0.38543522283434112 0 0 0.40000000000166441 0 0.050583896093752537 0.38543522283434112 0 0.035463093262830522 0.42673416072819947 0 0 0.45000000000187229 0 0 0.40000000000166441 0 0.035463093262830522 0.42673416072819947 0 0 0.45000000000187229 0 0.035463093262830522 0.42673416072819947 0 0.033550201249889847 0.46247875832467239 0 0 0.50000000000205869 0 0.033550201249889847 0.46247875832467239 0 0.068743045408989428 0.48853989837882689 0 0.078358742472063481 0.43365249433908948 0 0.068743045408989428 0.48853989837882689 0 0.033550201249889847 0.46247875832467239 0 0.078358742472063481 0.43365249433908948 0 0.033550201249889847 0.46247875832467239 0 0.035463093262830522 0.42673416072819947 0 0 0.50000000000205869 0 0 0.45000000000187229 0 0.033550201249889847 0.46247875832467239 0 0 0.50000000000205869 0 0.068743045408989428 0.48853989837882689 0 0.044576108720083309 0.53509043209532614 0 0 0.55000000000173355 0 0 0.50000000000205869 0 0.044576108720083309 0.53509043209532614 0 0 0.55000000000173355 0 0.044576108720083309 0.53509043209532614 0 0.034381862692950467 0.57372682250960894 0 0.077693244765132896 0.56932317963405099 0 0.034381862692950467 0.57372682250960894 0 0.044576108720083309 0.53509043209532614 0 0.068743045408989428 0.48853989837882689 0 0.085622222639554768 0.53333248912060549 0 0.044576108720083309 0.53509043209532614 0 0.1216098864341134 0.50637075089503902 0 0.085622222639554768 0.53333248912060549 0 0.068743045408989428 0.48853989837882689 0 0.077693244765132896 0.56932317963405099 0 0.044576108720083309 0.53509043209532614 0 0.085622222639554768 0.53333248912060549 0 0.077693244765132896 0.56932317963405099 0 0.085622222639554768 0.53333248912060549 0 0.1154888278694548 0.56733818459978413 0 0.085622222639554768 0.53333248912060549 0 0.1216098864341134 0.50637075089503902 0 0.1154888278694548 0.56733818459978413 0 0.077693244765132896 0.56932317963405099 0 0.1154888278694548 0.56733818459978413 0 0.1024350934457823 0.60772393977513839 0 0.086179601630648681 0.64647209519980475 0 0.050069554451969707 0.61308520079857043 0 0.1024350934457823 0.60772393977513839 0 0.077693244765132896 0.56932317963405099 0 0.1024350934457823 0.60772393977513839 0 0.050069554451969707 0.61308520079857043 0 0.077693244765132896 0.56932317963405099 0 0.050069554451969707 0.61308520079857043 0 0.034381862692950467 0.57372682250960894 0 0 0.60000000000138687 0 0 0.55000000000173355 0 0.034381862692950467 0.57372682250960894 0 0 0.65000000000104008 0 0 0.60000000000138687 0 0.050069554451969707 0.61308520079857043 0 0 0.60000000000138687 0 0.034381862692950467 0.57372682250960894 0 0.050069554451969707 0.61308520079857043 0 0 0.7000000000006934 0 0 0.65000000000104008 0 0.046634677244967337 0.671418230738282 0 0.086179601630648681 0.64647209519980475 0 0.046634677244967337 0.671418230738282 0 0.050069554451969707 0.61308520079857043 0 0 0.65000000000104008 0 0.050069554451969707 0.61308520079857043 0 0.046634677244967337 0.671418230738282 0 0 0.75000000000034661 0 0 0.7000000000006934 0 0.049706944316475897 0.72477277076253799 0 0 0.7000000000006934 0 0.046634677244967337 0.671418230738282 0 0.049706944316475897 0.72477277076253799 0 0 0.75000000000034661 0 0.049706944316475897 0.72477277076253799 0 0.04408157711937423 0.7728941757575627 0 0.049706944316475897 0.72477277076253799 0 0.1020579365089687 0.69352219419301997 0 0.090953281884486245 0.7564451946902494 0 0.1215415378367805 0.72939333680004137 0 0.090953281884486245 0.7564451946902494 0 0.1020579365089687 0.69352219419301997 0 0.049706944316475897 0.72477277076253799 0 0.046634677244967337 0.671418230738282 0 0.1020579365089687 0.69352219419301997 0 0.1215415378367805 0.72939333680004137 0 0.14335651144331049 0.75565258250209677 0 0.090953281884486245 0.7564451946902494 0 0.086179601630648681 0.64647209519980475 0 0.1020579365089687 0.69352219419301997 0 0.046634677244967337 0.671418230738282 0 0.086179601630648681 0.64647209519980475 0 0.1241190223511371 0.64391885572885044 0 0.1020579365089687 0.69352219419301997 0 0.086179601630648681 0.64647209519980475 0 0.1024350934457823 0.60772393977513839 0 0.1241190223511371 0.64391885572885044 0 0.16500388252850301 0.66612077714085194 0 0.1020579365089687 0.69352219419301997 0 0.1241190223511371 0.64391885572885044 0 0.15720202157091859 0.60665697304410315 0 0.16500388252850301 0.66612077714085194 0 0.1241190223511371 0.64391885572885044 0 0.15720202157091859 0.60665697304410315 0 0.19914261668318661 0.62286739485272158 0 0.16500388252850301 0.66612077714085194 0 0.16500388252850301 0.66612077714085194 0 0.15332765547575641 0.71200081858233666 0 0.1020579365089687 0.69352219419301997 0 0.1215415378367805 0.72939333680004137 0 0.15332765547575641 0.71200081858233666 0 0.14335651144331049 0.75565258250209677 0 0.1215415378367805 0.72939333680004137 0 0.1020579365089687 0.69352219419301997 0 0.15332765547575641 0.71200081858233666 0 0.16500388252850301 0.66612077714085194 0 0.19068556247388771 0.71028988922845504 0 0.15332765547575641 0.71200081858233666 0 0.18269480424590959 0.75905448272264375 0 0.14335651144331049 0.75565258250209677 0 0.15332765547575641 0.71200081858233666 0 0.18269480424590959 0.75905448272264375 0 0.15332765547575641 0.71200081858233666 0 0.19068556247388771 0.71028988922845504 0 0.18269480424590959 0.75905448272264375 0 0.19068556247388771 0.71028988922845504 0 0.2248999640082178 0.72584299459689172 0 0.2236846579037573 0.67380363126050236 0 0.2248999640082178 0.72584299459689172 0 0.19068556247388771 0.71028988922845504 0 0.2236846579037573 0.67380363126050236 0 0.26439878998046262 0.7048065392091396 0 0.2248999640082178 0.72584299459689172 0 0.25676291524611189 0.7436741304886243 0 0.22556077506376701 0.77837424984191617 0 0.2248999640082178 0.72584299459689172 0 0.25676291524611189 0.7436741304886243 0 0.2248999640082178 0.72584299459689172 0 0.26439878998046262 0.7048065392091396 0 0.2236846579037573 0.67380363126050236 0 0.16500388252850301 0.66612077714085194 0 0.19914261668318661 0.62286739485272158 0 0.2236846579037573 0.67380363126050236 0 0.19068556247388771 0.71028988922845504 0 0.16500388252850301 0.66612077714085194 0 0.2236846579037573 0.67380363126050236 0 0.19914261668318661 0.62286739485272158 0 0.2459498854893499 0.63248470766216769 0 0.2236846579037573 0.67380363126050236 0 0.2459498854893499 0.63248470766216769 0 0.27820712747429932 0.65530134213254643 0 0.22549374774072969 0.58452645269293457 0 0.2459498854893499 0.63248470766216769 0 0.19914261668318661 0.62286739485272158 0 0.26573297623774761 0.59828298563722948 0 0.2459498854893499 0.63248470766216769 0 0.22549374774072969 0.58452645269293457 0 0.22549374774072969 0.58452645269293457 0 0.19914261668318661 0.62286739485272158 0 0.18381867841758909 0.57774125163628387 0 0.20050006573841939 0.53248514016039872 0 0.22549374774072969 0.58452645269293457 0 0.18381867841758909 0.57774125163628387 0 0.26573297623774761 0.59828298563722948 0 0.22549374774072969 0.58452645269293457 0 0.25115337790845271 0.54719303014923271 0 0.20050006573841939 0.53248514016039872 0 0.25115337790845271 0.54719303014923271 0 0.22549374774072969 0.58452645269293457 0 0.20050006573841939 0.53248514016039872 0 0.23975172658309729 0.49475499200540818 0 0.25115337790845271 0.54719303014923271 0 0.20050006573841939 0.53248514016039872 0 0.16618607197337229 0.50652878253548905 0 0.19604738184454831 0.47787523520405789 0 0.20050006573841939 0.53248514016039872 0 0.19604738184454831 0.47787523520405789 0 0.23975172658309729 0.49475499200540818 0 0.20050006573841939 0.53248514016039872 0 0.18381867841758909 0.57774125163628387 0 0.14934928745814749 0.55042914607228977 0 0.20050006573841939 0.53248514016039872 0 0.14934928745814749 0.55042914607228977 0 0.16618607197337229 0.50652878253548905 0 0.1216098864341134 0.50637075089503902 0 0.16618607197337229 0.50652878253548905 0 0.14934928745814749 0.55042914607228977 0 0.1154888278694548 0.56733818459978413 0 0.1216098864341134 0.50637075089503902 0 0.14934928745814749 0.55042914607228977 0 0.15720202157091859 0.60665697304410315 0 0.1154888278694548 0.56733818459978413 0 0.14934928745814749 0.55042914607228977 0 0.15720202157091859 0.60665697304410315 0 0.1024350934457823 0.60772393977513839 0 0.1154888278694548 0.56733818459978413 0 0.15720202157091859 0.60665697304410315 0 0.1241190223511371 0.64391885572885044 0 0.1024350934457823 0.60772393977513839 0 0.18381867841758909 0.57774125163628387 0 0.19914261668318661 0.62286739485272158 0 0.15720202157091859 0.60665697304410315 0 0.15720202157091859 0.60665697304410315 0 0.14934928745814749 0.55042914607228977 0 0.18381867841758909 0.57774125163628387 0 0.15000000000062411 1 0 0.10000000000041601 1 0 0.10266856499240549 0.95548163909968886 0 0.083411279318375747 0.91030024466934134 0 0.10266856499240549 0.95548163909968886 0 0.053064897599294662 0.95186845269532028 0 0.050000000000207989 1 0 0.053064897599294662 0.95186845269532028 0 0.10000000000041601 1 0 0.10000000000041601 1 0 0.053064897599294662 0.95186845269532028 0 0.10266856499240549 0.95548163909968886 0 0.050000000000207989 1 0 0.025766224399875661 0.97546711317377799 0 0.053064897599294662 0.95186845269532028 0 0 1 0 0.025766224399875661 0.97546711317377799 0 0.050000000000207989 1 0 0 1 0 0 0.94999999999979179 0 0.025766224399875661 0.97546711317377799 0 0 0.94999999999979179 0 0.053064897599294662 0.95186845269532028 0 0.025766224399875661 0.97546711317377799 0 0 0.94999999999979179 0 0.0443105827531413 0.89858748162559932 0 0.053064897599294662 0.95186845269532028 0 0.083411279318375747 0.91030024466934134 0 0.053064897599294662 0.95186845269532028 0 0.0443105827531413 0.89858748162559932 0 0 0.94999999999979179 0 0 0.89999999999958358 0 0.0443105827531413 0.89858748162559932 0 0 0.89999999999958358 0 0 0.84999999999965292 0 0.0443105827531413 0.89858748162559932 0 0.083411279318375747 0.91030024466934134 0 0.0443105827531413 0.89858748162559932 0 0.065374659239661639 0.8551091961254178 0 0.083411279318375747 0.91030024466934134 0 0.065374659239661639 0.8551091961254178 0 0.10562472963403439 0.87143394428979881 0 0.083411279318375747 0.91030024466934134 0 0.1241151115713819 0.9045666525468371 0 0.10266856499240549 0.95548163909968886 0 0.14617343800780541 0.93808063414349496 0 0.10266856499240549 0.95548163909968886 0 0.1241151115713819 0.9045666525468371 0 0.14474682429600511 0.85524784522713515 0 0.1241151115713819 0.9045666525468371 0 0.10562472963403439 0.87143394428979881 0 0.083411279318375747 0.91030024466934134 0 0.10562472963403439 0.87143394428979881 0 0.1241151115713819 0.9045666525468371 0 0.14474682429600511 0.85524784522713515 0 0.10562472963403439 0.87143394428979881 0 0.1074251789111534 0.83564394292147814 0 0.083105206071452636 0.79992298667296435 0 0.1074251789111534 0.83564394292147814 0 0.065374659239661639 0.8551091961254178 0 0.065374659239661639 0.8551091961254178 0 0.1074251789111534 0.83564394292147814 0 0.10562472963403439 0.87143394428979881 0 0 0.84999999999965292 0 0.038512288486097702 0.8155852717111195 0 0.065374659239661639 0.8551091961254178 0 0 0.84999999999965292 0 0.065374659239661639 0.8551091961254178 0 0.0443105827531413 0.89858748162559932 0 0 0.84999999999965292 0 0 0.79999999999999982 0 0.038512288486097702 0.8155852717111195 0 0.083105206071452636 0.79992298667296435 0 0.065374659239661639 0.8551091961254178 0 0.038512288486097702 0.8155852717111195 0 0.083105206071452636 0.79992298667296435 0 0.038512288486097702 0.8155852717111195 0 0.04408157711937423 0.7728941757575627 0 0 0.79999999999999982 0 0.04408157711937423 0.7728941757575627 0 0.038512288486097702 0.8155852717111195 0 0 0.79999999999999982 0 0 0.75000000000034661 0 0.04408157711937423 0.7728941757575627 0 0.049706944316475897 0.72477277076253799 0 0.090953281884486245 0.7564451946902494 0 0.04408157711937423 0.7728941757575627 0 0.083105206071452636 0.79992298667296435 0 0.04408157711937423 0.7728941757575627 0 0.090953281884486245 0.7564451946902494 0 0.083105206071452636 0.79992298667296435 0 0.1382744753146134 0.79650574229207483 0 0.1074251789111534 0.83564394292147814 0 0.083105206071452636 0.79992298667296435 0 0.090953281884486245 0.7564451946902494 0 0.1382744753146134 0.79650574229207483 0 0.1382744753146134 0.79650574229207483 0 0.090953281884486245 0.7564451946902494 0 0.14335651144331049 0.75565258250209677 0 0.18269480424590959 0.75905448272264375 0 0.1382744753146134 0.79650574229207483 0 0.14335651144331049 0.75565258250209677 0 0.18269480424590959 0.75905448272264375 0 0.17777405986036951 0.81832336108265358 0 0.1382744753146134 0.79650574229207483 0 0.18269480424590959 0.75905448272264375 0 0.2248999640082178 0.72584299459689172 0 0.22556077506376701 0.77837424984191617 0 0.21858834311891909 0.81980263716112767 0 0.22556077506376701 0.77837424984191617 0 0.26104540868854792 0.81401944968719064 0 0.21858834311891909 0.81980263716112767 0 0.17777405986036951 0.81832336108265358 0 0.22556077506376701 0.77837424984191617 0 0.18269480424590959 0.75905448272264375 0 0.22556077506376701 0.77837424984191617 0 0.17777405986036951 0.81832336108265358 0 0.21858834311891909 0.81980263716112767 0 0.19741632902693801 0.86755867406447229 0 0.17777405986036951 0.81832336108265358 0 0.21858834311891909 0.81980263716112767 0 0.26104540868854792 0.81401944968719064 0 0.2401283238295133 0.85648409884788523 0 0.21858834311891909 0.81980263716112767 0 0.2401283238295133 0.85648409884788523 0 0.19741632902693801 0.86755867406447229 0 0.14474682429600511 0.85524784522713515 0 0.17777405986036951 0.81832336108265358 0 0.19741632902693801 0.86755867406447229 0 0.14474682429600511 0.85524784522713515 0 0.19741632902693801 0.86755867406447229 0 0.16206583317966519 0.89685560785156404 0 0.14474682429600511 0.85524784522713515 0 0.1382744753146134 0.79650574229207483 0 0.17777405986036951 0.81832336108265358 0 0.14474682429600511 0.85524784522713515 0 0.1074251789111534 0.83564394292147814 0 0.1382744753146134 0.79650574229207483 0 0.14474682429600511 0.85524784522713515 0 0.16206583317966519 0.89685560785156404 0 0.1241151115713819 0.9045666525468371 0 0.14617343800780541 0.93808063414349496 0 0.1241151115713819 0.9045666525468371 0 0.16206583317966519 0.89685560785156404 0 0.19901705110390991 0.9175543425573498 0 0.14617343800780541 0.93808063414349496 0 0.16206583317966519 0.89685560785156404 0 0.19901705110390991 0.9175543425573498 0 0.16206583317966519 0.89685560785156404 0 0.19741632902693801 0.86755867406447229 0 0.19901705110390991 0.9175543425573498 0 0.19741632902693801 0.86755867406447229 0 0.24536017905392571 0.90704567837671446 0 0.19741632902693801 0.86755867406447229 0 0.2401283238295133 0.85648409884788523 0 0.24536017905392571 0.90704567837671446 0 0.19901705110390991 0.9175543425573498 0 0.24536017905392571 0.90704567837671446 0 0.22850979588452081 0.95594428570238643 0 0.19901705110390991 0.9175543425573498 0 0.22850979588452081 0.95594428570238643 0 0.18474005699953849 0.96231585248064622 0 0.27609987656793722 0.94991445621608572 0 0.22850979588452081 0.95594428570238643 0 0.24536017905392571 0.90704567837671446 0 0.25000000000104028 1 0 0.20000000000083221 1 0 0.22850979588452081 0.95594428570238643 0 0.20000000000083221 1 0 0.18474005699953849 0.96231585248064622 0 0.22850979588452081 0.95594428570238643 0 0.20000000000083221 1 0 0.15000000000062411 1 0 0.18474005699953849 0.96231585248064622 0 0.19901705110390991 0.9175543425573498 0 0.18474005699953849 0.96231585248064622 0 0.14617343800780541 0.93808063414349496 0 0.15000000000062411 1 0 0.14617343800780541 0.93808063414349496 0 0.18474005699953849 0.96231585248064622 0 0.15000000000062411 1 0 0.10266856499240549 0.95548163909968886 0 0.14617343800780541 0.93808063414349496 0 0.35000000000145642 1 0 0.32544832635163229 0.95485394099568932 0 0.36184234618600131 0.96443954459096326 0 0.40000000000166441 1 0 0.35000000000145642 1 0 0.36184234618600131 0.96443954459096326 0 0.35752321586431363 0.9185439911803448 0 0.36184234618600131 0.96443954459096326 0 0.32544832635163229 0.95485394099568932 0 0.35752321586431363 0.9185439911803448 0 0.39641108128798319 0.94356127926187128 0 0.36184234618600131 0.96443954459096326 0 0.35000000000145642 1 0 0.30000000000124832 1 0 0.32544832635163229 0.95485394099568932 0 0.30000000000124832 1 0 0.25000000000104028 1 0 0.27609987656793722 0.94991445621608572 0 0.25000000000104028 1 0 0.22850979588452081 0.95594428570238643 0 0.27609987656793722 0.94991445621608572 0 0.30000000000124832 1 0 0.27609987656793722 0.94991445621608572 0 0.32544832635163229 0.95485394099568932 0 0.27609987656793722 0.94991445621608572 0 0.30864387279288652 0.89906554525974958 0 0.32544832635163229 0.95485394099568932 0 0.27270076654418179 0.87751467830216623 0 0.30864387279288652 0.89906554525974958 0 0.24536017905392571 0.90704567837671446 0 0.27609987656793722 0.94991445621608572 0 0.24536017905392571 0.90704567837671446 0 0.30864387279288652 0.89906554525974958 0 0.27270076654418179 0.87751467830216623 0 0.24536017905392571 0.90704567837671446 0 0.2401283238295133 0.85648409884788523 0 0.35752321586431363 0.9185439911803448 0 0.30864387279288652 0.89906554525974958 0 0.35864759629805099 0.87963482415279515 0 0.35752321586431363 0.9185439911803448 0 0.32544832635163229 0.95485394099568932 0 0.30864387279288652 0.89906554525974958 0 0.35752321586431363 0.9185439911803448 0 0.35864759629805099 0.87963482415279515 0 0.39767323751400468 0.89584229130535065 0 0.35864759629805099 0.87963482415279515 0 0.33403534827021109 0.84402799729020661 0 0.39536230704883951 0.84069429572832477 0 0.33403534827021109 0.84402799729020661 0 0.35642984951668422 0.80994399665655703 0 0.39536230704883951 0.84069429572832477 0 0.33403534827021109 0.84402799729020661 0 0.30857225866488791 0.81101973481716805 0 0.35642984951668422 0.80994399665655703 0 0.33403534827021109 0.84402799729020661 0 0.35864759629805099 0.87963482415279515 0 0.30864387279288652 0.89906554525974958 0 0.33403534827021109 0.84402799729020661 0 0.30864387279288652 0.89906554525974958 0 0.29209212897034281 0.84715728365233667 0 0.27270076654418179 0.87751467830216623 0 0.29209212897034281 0.84715728365233667 0 0.30864387279288652 0.89906554525974958 0 0.27270076654418179 0.87751467830216623 0 0.2401283238295133 0.85648409884788523 0 0.29209212897034281 0.84715728365233667 0 0.26104540868854792 0.81401944968719064 0 0.29209212897034281 0.84715728365233667 0 0.2401283238295133 0.85648409884788523 0 0.26104540868854792 0.81401944968719064 0 0.30857225866488791 0.81101973481716805 0 0.29209212897034281 0.84715728365233667 0 0.33403534827021109 0.84402799729020661 0 0.29209212897034281 0.84715728365233667 0 0.30857225866488791 0.81101973481716805 0 0.26104540868854792 0.81401944968719064 0 0.2792923945214143 0.77665808831789485 0 0.30857225866488791 0.81101973481716805 0 0.33123028043633618 0.77629643437932982 0 0.30857225866488791 0.81101973481716805 0 0.2792923945214143 0.77665808831789485 0 0.26104540868854792 0.81401944968719064 0 0.22556077506376701 0.77837424984191617 0 0.2792923945214143 0.77665808831789485 0 0.25676291524611189 0.7436741304886243 0 0.29904318922293632 0.74132814928635593 0 0.2792923945214143 0.77665808831789485 0 0.25676291524611189 0.7436741304886243 0 0.2792923945214143 0.77665808831789485 0 0.22556077506376701 0.77837424984191617 0 0.33123028043633618 0.77629643437932982 0 0.2792923945214143 0.77665808831789485 0 0.29904318922293632 0.74132814928635593 0 0.33123028043633618 0.77629643437932982 0 0.29904318922293632 0.74132814928635593 0 0.35415581127540569 0.73730480045900215 0 0.33123028043633618 0.77629643437932982 0 0.35642984951668422 0.80994399665655703 0 0.30857225866488791 0.81101973481716805 0 0.33123028043633618 0.77629643437932982 0 0.38586766253264881 0.78219501014812498 0 0.35642984951668422 0.80994399665655703 0 0.33123028043633618 0.77629643437932982 0 0.35415581127540569 0.73730480045900215 0 0.38586766253264881 0.78219501014812498 0 0.40326160981139969 0.73346192995102844 0 0.42676259796334498 0.76772545931379299 0 0.38586766253264881 0.78219501014812498 0 0.40326160981139969 0.73346192995102844 0 0.38586766253264881 0.78219501014812498 0 0.35415581127540569 0.73730480045900215 0 0.39536230704883951 0.84069429572832477 0 0.38586766253264881 0.78219501014812498 0 0.42609163930740518 0.80361684430568059 0 0.39536230704883951 0.84069429572832477 0 0.35642984951668422 0.80994399665655703 0 0.38586766253264881 0.78219501014812498 0 0.38586766253264881 0.78219501014812498 0 0.42676259796334498 0.76772545931379299 0 0.42609163930740518 0.80361684430568059 0 0.4656888918609538 0.78493261229743638 0 0.42676259796334498 0.76772545931379299 0 0.45582236402875981 0.73896743678908217 0 0.4656888918609538 0.78493261229743638 0 0.45582236402875981 0.73896743678908217 0 0.50945740445113552 0.75476055527778108 0 0.4656888918609538 0.78493261229743638 0 0.50945740445113552 0.75476055527778108 0 0.50731287292894423 0.78963574450233831 0 0.4656888918609538 0.78493261229743638 0 0.50731287292894423 0.78963574450233831 0 0.50627822638148745 0.8263979829520941 0 0.4656888918609538 0.78493261229743638 0 0.45677673713123867 0.84253684404072415 0 0.42609163930740518 0.80361684430568059 0 0.4656888918609538 0.78493261229743638 0 0.42609163930740518 0.80361684430568059 0 0.42676259796334498 0.76772545931379299 0 0.4656888918609538 0.78493261229743638 0 0.50627822638148745 0.8263979829520941 0 0.45677673713123867 0.84253684404072415 0 0.50202631463681879 0.87892870825713787 0 0.45677673713123867 0.84253684404072415 0 0.50627822638148745 0.8263979829520941 0 0.50202631463681879 0.87892870825713787 0 0.44003836461056539 0.88093474584252718 0 0.45677673713123867 0.84253684404072415 0 0.39536230704883951 0.84069429572832477 0 0.45677673713123867 0.84253684404072415 0 0.44003836461056539 0.88093474584252718 0 0.39536230704883951 0.84069429572832477 0 0.44003836461056539 0.88093474584252718 0 0.39767323751400468 0.89584229130535065 0 0.39536230704883951 0.84069429572832477 0 0.42609163930740518 0.80361684430568059 0 0.45677673713123867 0.84253684404072415 0 0.39536230704883951 0.84069429572832477 0 0.39767323751400468 0.89584229130535065 0 0.35864759629805099 0.87963482415279515 0 0.35752321586431363 0.9185439911803448 0 0.39767323751400468 0.89584229130535065 0 0.39641108128798319 0.94356127926187128 0 0.4367309254023824 0.92065556789053882 0 0.39641108128798319 0.94356127926187128 0 0.39767323751400468 0.89584229130535065 0 0.4367309254023824 0.92065556789053882 0 0.39767323751400468 0.89584229130535065 0 0.44003836461056539 0.88093474584252718 0 0.4367309254023824 0.92065556789053882 0 0.44003836461056539 0.88093474584252718 0 0.47401147028110507 0.91529957330468115 0 0.50202631463681879 0.87892870825713787 0 0.47401147028110507 0.91529957330468115 0 0.44003836461056539 0.88093474584252718 0 0.52122150208832174 0.94089974453840242 0 0.47135117303824892 0.95556877749289892 0 0.47401147028110507 0.91529957330468115 0 0.50202631463681879 0.87892870825713787 0 0.52122150208832174 0.94089974453840242 0 0.47401147028110507 0.91529957330468115 0 0.4367309254023824 0.92065556789053882 0 0.47401147028110507 0.91529957330468115 0 0.47135117303824892 0.95556877749289892 0 0.4367309254023824 0.92065556789053882 0 0.47135117303824892 0.95556877749289892 0 0.4308986359464303 0.96395712492906194 0 0.50000000000205869 1 0 0.47135117303824892 0.95556877749289892 0 0.52122150208832174 0.94089974453840242 0 0.50000000000205869 1 0 0.45000000000187229 1 0 0.47135117303824892 0.95556877749289892 0 0.45000000000187229 1 0 0.4308986359464303 0.96395712492906194 0 0.47135117303824892 0.95556877749289892 0 0.45000000000187229 1 0 0.40000000000166441 1 0 0.4308986359464303 0.96395712492906194 0 0.40000000000166441 1 0 0.39641108128798319 0.94356127926187128 0 0.4308986359464303 0.96395712492906194 0 0.4367309254023824 0.92065556789053882 0 0.4308986359464303 0.96395712492906194 0 0.39641108128798319 0.94356127926187128 0 0.40000000000166441 1 0 0.36184234618600131 0.96443954459096326 0 0.39641108128798319 0.94356127926187128 0 0.33122374654748771 0.57588941099433744 0 0.35765792684946668 0.6000687869219653 0 0.31502927232353312 0.6134992213375432 0 0.35864735590330371 0.63903383440414463 0 0.31502927232353312 0.6134992213375432 0 0.35765792684946668 0.6000687869219653 0 0.35864735590330371 0.63903383440414463 0 0.35765792684946668 0.6000687869219653 0 0.39743091024207589 0.6239520004230239 0 0.33122374654748771 0.57588941099433744 0 0.37272913873093971 0.56192925302619479 0 0.35765792684946668 0.6000687869219653 0 0.38244435121258652 0.51653317813019495 0 0.37272913873093971 0.56192925302619479 0 0.33190227185843768 0.52715113583864037 0 0.33122374654748771 0.57588941099433744 0 0.33190227185843768 0.52715113583864037 0 0.37272913873093971 0.56192925302619479 0 0.38244435121258652 0.51653317813019495 0 0.33190227185843768 0.52715113583864037 0 0.35024835142131061 0.48654922671676981 0 0.33122374654748771 0.57588941099433744 0 0.29110487519241501 0.56588143995431495 0 0.33190227185843768 0.52715113583864037 0 0.28307294598219601 0.50789252727458634 0 0.33190227185843768 0.52715113583864037 0 0.29110487519241501 0.56588143995431495 0 0.31068898841644388 0.47541502461811092 0 0.33190227185843768 0.52715113583864037 0 0.28307294598219601 0.50789252727458634 0 0.28307294598219601 0.50789252727458634 0 0.25115337790845271 0.54719303014923271 0 0.23975172658309729 0.49475499200540818 0 0.28307294598219601 0.50789252727458634 0 0.29110487519241501 0.56588143995431495 0 0.25115337790845271 0.54719303014923271 0 0.26573297623774761 0.59828298563722948 0 0.25115337790845271 0.54719303014923271 0 0.29110487519241501 0.56588143995431495 0 0.33122374654748771 0.57588941099433744 0 0.31502927232353312 0.6134992213375432 0 0.29110487519241501 0.56588143995431495 0 0.26573297623774761 0.59828298563722948 0 0.29110487519241501 0.56588143995431495 0 0.31502927232353312 0.6134992213375432 0 0.26573297623774761 0.59828298563722948 0 0.31502927232353312 0.6134992213375432 0 0.27820712747429932 0.65530134213254643 0 0.26573297623774761 0.59828298563722948 0 0.27820712747429932 0.65530134213254643 0 0.2459498854893499 0.63248470766216769 0 0.2236846579037573 0.67380363126050236 0 0.27820712747429932 0.65530134213254643 0 0.26439878998046262 0.7048065392091396 0 0.31378396441836959 0.70157213313026345 0 0.27820712747429932 0.65530134213254643 0 0.32263089806001177 0.66003674931826484 0 0.31378396441836959 0.70157213313026345 0 0.26439878998046262 0.7048065392091396 0 0.27820712747429932 0.65530134213254643 0 0.27820712747429932 0.65530134213254643 0 0.31502927232353312 0.6134992213375432 0 0.32263089806001177 0.66003674931826484 0 0.25676291524611189 0.7436741304886243 0 0.26439878998046262 0.7048065392091396 0 0.29904318922293632 0.74132814928635593 0 0.31378396441836959 0.70157213313026345 0 0.29904318922293632 0.74132814928635593 0 0.26439878998046262 0.7048065392091396 0 0.31378396441836959 0.70157213313026345 0 0.35415581127540569 0.73730480045900215 0 0.29904318922293632 0.74132814928635593 0 0.31378396441836959 0.70157213313026345 0 0.36622285152418499 0.69092437780804039 0 0.35415581127540569 0.73730480045900215 0 0.40326160981139969 0.73346192995102844 0 0.35415581127540569 0.73730480045900215 0 0.36622285152418499 0.69092437780804039 0 0.35864735590330371 0.63903383440414463 0 0.32263089806001177 0.66003674931826484 0 0.31502927232353312 0.6134992213375432 0 0.31378396441836959 0.70157213313026345 0 0.32263089806001177 0.66003674931826484 0 0.36622285152418499 0.69092437780804039 0 0.35864735590330371 0.63903383440414463 0 0.36622285152418499 0.69092437780804039 0 0.32263089806001177 0.66003674931826484 0 0.35864735590330371 0.63903383440414463 0 0.3977710372045391 0.65868194622830212 0 0.36622285152418499 0.69092437780804039 0 0.35864735590330371 0.63903383440414463 0 0.39743091024207589 0.6239520004230239 0 0.3977710372045391 0.65868194622830212 0 0.36622285152418499 0.69092437780804039 0 0.3977710372045391 0.65868194622830212 0 0.43323420005758778 0.6913544522562407 0 0.43846182030517877 0.64845797726506715 0 0.43323420005758778 0.6913544522562407 0 0.3977710372045391 0.65868194622830212 0 0.43846182030517877 0.64845797726506715 0 0.39743091024207589 0.6239520004230239 0 0.43545892161006339 0.61093128915313821 0 0.43846182030517877 0.64845797726506715 0 0.3977710372045391 0.65868194622830212 0 0.39743091024207589 0.6239520004230239 0 0.40326160981139969 0.73346192995102844 0 0.36622285152418499 0.69092437780804039 0 0.43323420005758778 0.6913544522562407 0 0.40326160981139969 0.73346192995102844 0 0.43323420005758778 0.6913544522562407 0 0.45582236402875981 0.73896743678908217 0 0.40326160981139969 0.73346192995102844 0 0.45582236402875981 0.73896743678908217 0 0.42676259796334498 0.76772545931379299 0 0.5 0.69999999999999996 0 0.45582236402875981 0.73896743678908217 0 0.43323420005758778 0.6913544522562407 0 0.5 0.69999999999999996 0 0.50945740445113552 0.75476055527778108 0 0.45582236402875981 0.73896743678908217 0 0.5 0.69999999999999996 0 0.43323420005758778 0.6913544522562407 0 0.47913475093885149 0.66010775372412711 0 0.43846182030517877 0.64845797726506715 0 0.47095389620662098 0.61892551373708504 0 0.47913475093885149 0.66010775372412711 0 0.43846182030517877 0.64845797726506715 0 0.43545892161006339 0.61093128915313821 0 0.47095389620662098 0.61892551373708504 0 0.43846182030517877 0.64845797726506715 0 0.47913475093885149 0.66010775372412711 0 0.43323420005758778 0.6913544522562407 0 0.50715858906372158 0.63295939104129484 0 0.47913475093885149 0.66010775372412711 0 0.47095389620662098 0.61892551373708504 0 0.50715858906372158 0.63295939104129484 0 0.47095389620662098 0.61892551373708504 0 0.5166924242153631 0.59825134841919447 0 0.46666084890304671 0.57634471035397938 0 0.5166924242153631 0.59825134841919447 0 0.47095389620662098 0.61892551373708504 0 0.46666084890304671 0.57634471035397938 0 0.47095389620662098 0.61892551373708504 0 0.43545892161006339 0.61093128915313821 0 0.4089290844030305 0.58728915500154233 0 0.43545892161006339 0.61093128915313821 0 0.39743091024207589 0.6239520004230239 0 0.43545892161006339 0.61093128915313821 0 0.4089290844030305 0.58728915500154233 0 0.46666084890304671 0.57634471035397938 0 0.4089290844030305 0.58728915500154233 0 0.42644501560315817 0.54603747078095544 0 0.46666084890304671 0.57634471035397938 0 0.4089290844030305 0.58728915500154233 0 0.37272913873093971 0.56192925302619479 0 0.42644501560315817 0.54603747078095544 0 0.4089290844030305 0.58728915500154233 0 0.35765792684946668 0.6000687869219653 0 0.37272913873093971 0.56192925302619479 0 0.4089290844030305 0.58728915500154233 0 0.39743091024207589 0.6239520004230239 0 0.35765792684946668 0.6000687869219653 0 0.38244435121258652 0.51653317813019495 0 0.42644501560315817 0.54603747078095544 0 0.37272913873093971 0.56192925302619479 0 0.38244435121258652 0.51653317813019495 0 0.43507373378304309 0.49699695397193322 0 0.42644501560315817 0.54603747078095544 0 0.46666084890304671 0.57634471035397938 0 0.47793794143994173 0.52940715638744962 0 0.53245488764484505 0.55078124999999989 0 0.49102375406324739 0.49123754822244059 0 0.47793794143994173 0.52940715638744962 0 0.43507373378304309 0.49699695397193322 0 0.43507373378304309 0.49699695397193322 0 0.47793794143994173 0.52940715638744962 0 0.42644501560315817 0.54603747078095544 0 0.46666084890304671 0.57634471035397938 0 0.42644501560315817 0.54603747078095544 0 0.47793794143994173 0.52940715638744962 0 0.49102375406324739 0.49123754822244059 0 0.53330375813596242 0.50827942741749099 0 0.47793794143994173 0.52940715638744962 0 0.53245488764484505 0.55078124999999989 0 0.47793794143994173 0.52940715638744962 0 0.53330375813596242 0.50827942741749099 0 0.53245488764484505 0.55078124999999989 0 0.53330375813596242 0.50827942741749099 0 0.57435499076887508 0.54267261987897775 0 0.57412547362576272 0.58273804879550706 0 0.53245488764484505 0.55078124999999989 0 0.57435499076887508 0.54267261987897775 0 0.57611405284611883 0.50165903596042916 0 0.57435499076887508 0.54267261987897775 0 0.53330375813596242 0.50827942741749099 0 0.57611405284611883 0.50165903596042916 0 0.62042975506801734 0.54295974692364424 0 0.57435499076887508 0.54267261987897775 0 0.57412547362576272 0.58273804879550706 0 0.57435499076887508 0.54267261987897775 0 0.62042975506801734 0.54295974692364424 0 0.57611405284611883 0.50165903596042916 0 0.61547661924074692 0.48539576058873962 0 0.62042975506801734 0.54295974692364424 0 0.6405463747586706 0.63290524857395714 0 0.5991018319127801 0.62925360607495295 0 0.63065402604362242 0.59661356661633302 0 0.57412547362576272 0.58273804879550706 0 0.63065402604362242 0.59661356661633302 0 0.5991018319127801 0.62925360607495295 0 0.57412547362576272 0.58273804879550706 0 0.62042975506801734 0.54295974692364424 0 0.63065402604362242 0.59661356661633302 0 0.57412547362576272 0.58273804879550706 0 0.5991018319127801 0.62925360607495295 0 0.5498280205245758 0.6290146943450976 0 0.46666084890304671 0.57634471035397938 0 0.53245488764484505 0.55078124999999989 0 0.5166924242153631 0.59825134841919447 0 0.57412547362576272 0.58273804879550706 0 0.5498280205245758 0.6290146943450976 0 0.5166924242153631 0.59825134841919447 0 0.57412547362576272 0.58273804879550706 0 0.5166924242153631 0.59825134841919447 0 0.53245488764484505 0.55078124999999989 0 0.50715858906372158 0.63295939104129484 0 0.5166924242153631 0.59825134841919447 0 0.5498280205245758 0.6290146943450976 0 0.50715858906372158 0.63295939104129484 0 0.52584555706968406 0.66664215091846768 0 0.47913475093885149 0.66010775372412711 0 0.50715858906372158 0.63295939104129484 0 0.5498280205245758 0.6290146943450976 0 0.52584555706968406 0.66664215091846768 0 0.5 0.69999999999999996 0 0.47913475093885149 0.66010775372412711 0 0.52584555706968406 0.66664215091846768 0 0.54999999999999993 0.69999999999999996 0 0.52584555706968406 0.66664215091846768 0 0.57484956128872922 0.66573805030881994 0 0.57484956128872922 0.66573805030881994 0 0.52584555706968406 0.66664215091846768 0 0.5498280205245758 0.6290146943450976 0 0.50945740445113552 0.75476055527778108 0 0.5 0.69999999999999996 0 0.55363780716230748 0.74348740161571747 0 0.5 0.69999999999999996 0 0.52584555706968406 0.66664215091846768 0 0.54999999999999993 0.69999999999999996 0 0.5 0.69999999999999996 0 0.54999999999999993 0.69999999999999996 0 0.5 0.69999999999999996 0 0.54999999999999993 0.69999999999999996 0 0.55363780716230748 0.74348740161571747 0 0.59999999999999976 0.69999999999999996 0 0.59636844454254345 0.75937156204589151 0 0.55363780716230748 0.74348740161571747 0 0.54999999999999993 0.69999999999999996 0 0.59999999999999976 0.69999999999999996 0 0.54999999999999993 0.69999999999999996 0 0.57484956128872922 0.66573805030881994 0 0.59999999999999976 0.69999999999999996 0 0.54999999999999993 0.69999999999999996 0 0.59999999999999976 0.69999999999999996 0 0.55363780716230748 0.74348740161571747 0 0.59999999999999976 0.69999999999999996 0 0.6499999999999998 0.69999999999999996 0 0.59999999999999976 0.69999999999999996 0 0.62460753523532009 0.66851202781000296 0 0.6499999999999998 0.69999999999999996 0 0.59999999999999976 0.69999999999999996 0 0.63221990677827677 0.73442891067859706 0 0.59636844454254345 0.75937156204589151 0 0.57484956128872922 0.66573805030881994 0 0.5498280205245758 0.6290146943450976 0 0.5991018319127801 0.62925360607495295 0 0.59999999999999976 0.69999999999999996 0 0.57484956128872922 0.66573805030881994 0 0.62460753523532009 0.66851202781000296 0 0.57484956128872922 0.66573805030881994 0 0.5991018319127801 0.62925360607495295 0 0.62460753523532009 0.66851202781000296 0 0.6405463747586706 0.63290524857395714 0 0.62460753523532009 0.66851202781000296 0 0.5991018319127801 0.62925360607495295 0 0.6405463747586706 0.63290524857395714 0 0.675261390228442 0.65996937624687813 0 0.62460753523532009 0.66851202781000296 0 0.6499999999999998 0.69999999999999996 0 0.62460753523532009 0.66851202781000296 0 0.675261390228442 0.65996937624687813 0 0.6499999999999998 0.69999999999999996 0 0.675261390228442 0.65996937624687813 0 0.69999999999999984 0.69999999999999996 0 0.6405463747586706 0.63290524857395714 0 0.67529834988829951 0.61613270668143583 0 0.675261390228442 0.65996937624687813 0 0.64753070846764316 0.77332939069435502 0 0.63221990677827677 0.73442891067859706 0 0.66427993341343905 0.73232764502436276 0 0.6499999999999998 0.69999999999999996 0 0.66427993341343905 0.73232764502436276 0 0.63221990677827677 0.73442891067859706 0 0.59999999999999976 0.69999999999999996 0 0.6499999999999998 0.69999999999999996 0 0.63221990677827677 0.73442891067859706 0 0.6499999999999998 0.69999999999999996 0 0.69999999999999984 0.69999999999999996 0 0.6499999999999998 0.69999999999999996 0 0.69999999999999984 0.69999999999999996 0 0.66427993341343905 0.73232764502436276 0 0.69999999999999984 0.69999999999999996 0 0.6916490518212759 0.75387992374886192 0 0.66427993341343905 0.73232764502436276 0 0.69999999999999984 0.69999999999999996 0 0.72501250972655151 0.74067302935308721 0 0.6916490518212759 0.75387992374886192 0 0.69999999999999984 0.69999999999999996 0 0.74999999999999989 0.69999999999999996 0 0.72501250972655151 0.74067302935308721 0 0.69999999999999984 0.69999999999999996 0 0.72500000000000064 0.67022701834392062 0 0.74999999999999989 0.69999999999999996 0 0.69999999999999984 0.69999999999999996 0 0.74999999999999989 0.69999999999999996 0 0.74999999999999989 0.69999999999999996 0 0.75841349681148107 0.75422312624214749 0 0.72501250972655151 0.74067302935308721 0 0.71406021706547751 0.63292083137662503 0 0.72500000000000064 0.67022701834392062 0 0.675261390228442 0.65996937624687813 0 0.71406021706547751 0.63292083137662503 0 0.675261390228442 0.65996937624687813 0 0.67529834988829951 0.61613270668143583 0 0.69999999999999984 0.69999999999999996 0 0.675261390228442 0.65996937624687813 0 0.72500000000000064 0.67022701834392062 0 0.71406021706547751 0.63292083137662503 0 0.74994237037456724 0.62775548192980357 0 0.72500000000000064 0.67022701834392062 0 0.7750489929959945 0.66593931409600093 0 0.72500000000000064 0.67022701834392062 0 0.74994237037456724 0.62775548192980357 0 0.71406021706547751 0.63292083137662503 0 0.71809016091162536 0.58185040402320831 0 0.74994237037456724 0.62775548192980357 0 0.77293540622714185 0.59448302402785813 0 0.74994237037456724 0.62775548192980357 0 0.71809016091162536 0.58185040402320831 0 0.71406021706547751 0.63292083137662503 0 0.67529834988829951 0.61613270668143583 0 0.71809016091162536 0.58185040402320831 0 0.67323294229744413 0.57556450033612505 0 0.67569444444444449 0.53500863336860327 0 0.71809016091162536 0.58185040402320831 0 0.67323294229744413 0.57556450033612505 0 0.71809016091162536 0.58185040402320831 0 0.67529834988829951 0.61613270668143583 0 0.7152569930854884 0.5237994455134295 0 0.77151014687832564 0.54436834383023036 0 0.71809016091162536 0.58185040402320831 0 0.7152569930854884 0.5237994455134295 0 0.73947346780852752 0.49062440112282169 0 0.77151014687832564 0.54436834383023036 0 0.7152569930854884 0.5237994455134295 0 0.67569444444444449 0.53500863336860327 0 0.69385896817107129 0.48377516041410151 0 0.7152569930854884 0.5237994455134295 0 0.71809016091162536 0.58185040402320831 0 0.67569444444444449 0.53500863336860327 0 0.67323294229744413 0.57556450033612505 0 0.62042975506801734 0.54295974692364424 0 0.67569444444444449 0.53500863336860327 0 0.6541250972820879 0.49999999999999989 0 0.69385896817107129 0.48377516041410151 0 0.67569444444444449 0.53500863336860327 0 0.6541250972820879 0.49999999999999989 0 0.67569444444444449 0.53500863336860327 0 0.62042975506801734 0.54295974692364424 0 0.6541250972820879 0.49999999999999989 0 0.62042975506801734 0.54295974692364424 0 0.61547661924074692 0.48539576058873962 0 0.67323294229744413 0.57556450033612505 0 0.63065402604362242 0.59661356661633302 0 0.62042975506801734 0.54295974692364424 0 0.6405463747586706 0.63290524857395714 0 0.63065402604362242 0.59661356661633302 0 0.67529834988829951 0.61613270668143583 0 0.67323294229744413 0.57556450033612505 0 0.67529834988829951 0.61613270668143583 0 0.63065402604362242 0.59661356661633302 0 0.60000000000138687 1 0 0.57382506491224949 0.9629411906298494 0 0.62065498684670595 0.95224934003983619 0 0.65000000000104008 1 0 0.60000000000138687 1 0 0.62065498684670595 0.95224934003983619 0 0.57724883562309992 0.92155686857100794 0 0.62065498684670595 0.95224934003983619 0 0.57382506491224949 0.9629411906298494 0 0.60000000000138687 1 0 0.55000000000173355 1 0 0.57382506491224949 0.9629411906298494 0 0.55000000000173355 1 0 0.50000000000205869 1 0 0.52122150208832174 0.94089974453840242 0 0.57724883562309992 0.92155686857100794 0 0.57382506491224949 0.9629411906298494 0 0.52122150208832174 0.94089974453840242 0 0.55000000000173355 1 0 0.52122150208832174 0.94089974453840242 0 0.57382506491224949 0.9629411906298494 0 0.57724883562309992 0.92155686857100794 0 0.52122150208832174 0.94089974453840242 0 0.54783390826260769 0.89287767010860219 0 0.50202631463681879 0.87892870825713787 0 0.54783390826260769 0.89287767010860219 0 0.52122150208832174 0.94089974453840242 0 0.55899371797446828 0.85003102233514438 0 0.5832743223239254 0.88483152652961872 0 0.54783390826260769 0.89287767010860219 0 0.57724883562309992 0.92155686857100794 0 0.54783390826260769 0.89287767010860219 0 0.5832743223239254 0.88483152652961872 0 0.57724883562309992 0.92155686857100794 0 0.5832743223239254 0.88483152652961872 0 0.61885627562261258 0.90282959257498208 0 0.57724883562309992 0.92155686857100794 0 0.61885627562261258 0.90282959257498208 0 0.62065498684670595 0.95224934003983619 0 0.61343887413683884 0.856862479058357 0 0.61885627562261258 0.90282959257498208 0 0.5832743223239254 0.88483152652961872 0 0.61343887413683884 0.856862479058357 0 0.60294066490120068 0.80851322453934582 0 0.65005442820240822 0.82644988530054031 0 0.61343887413683884 0.856862479058357 0 0.55899371797446828 0.85003102233514438 0 0.60294066490120068 0.80851322453934582 0 0.54782696902220018 0.79245182748204157 0 0.60294066490120068 0.80851322453934582 0 0.55899371797446828 0.85003102233514438 0 0.61343887413683884 0.856862479058357 0 0.5832743223239254 0.88483152652961872 0 0.55899371797446828 0.85003102233514438 0 0.50202631463681879 0.87892870825713787 0 0.55899371797446828 0.85003102233514438 0 0.54783390826260769 0.89287767010860219 0 0.50202631463681879 0.87892870825713787 0 0.50627822638148745 0.8263979829520941 0 0.55899371797446828 0.85003102233514438 0 0.54782696902220018 0.79245182748204157 0 0.55899371797446828 0.85003102233514438 0 0.50627822638148745 0.8263979829520941 0 0.54782696902220018 0.79245182748204157 0 0.50627822638148745 0.8263979829520941 0 0.50731287292894423 0.78963574450233831 0 0.54782696902220018 0.79245182748204157 0 0.50731287292894423 0.78963574450233831 0 0.50945740445113552 0.75476055527778108 0 0.54782696902220018 0.79245182748204157 0 0.50945740445113552 0.75476055527778108 0 0.55363780716230748 0.74348740161571747 0 0.54782696902220018 0.79245182748204157 0 0.55363780716230748 0.74348740161571747 0 0.59636844454254345 0.75937156204589151 0 0.54782696902220018 0.79245182748204157 0 0.59636844454254345 0.75937156204589151 0 0.60294066490120068 0.80851322453934582 0 0.64753070846764316 0.77332939069435502 0 0.60294066490120068 0.80851322453934582 0 0.59636844454254345 0.75937156204589151 0 0.64753070846764316 0.77332939069435502 0 0.59636844454254345 0.75937156204589151 0 0.63221990677827677 0.73442891067859706 0 0.64753070846764316 0.77332939069435502 0 0.65005442820240822 0.82644988530054031 0 0.60294066490120068 0.80851322453934582 0 0.64753070846764316 0.77332939069435502 0 0.68024162096458085 0.79868546898116533 0 0.65005442820240822 0.82644988530054031 0 0.64753070846764316 0.77332939069435502 0 0.6916490518212759 0.75387992374886192 0 0.68024162096458085 0.79868546898116533 0 0.64753070846764316 0.77332939069435502 0 0.66427993341343905 0.73232764502436276 0 0.6916490518212759 0.75387992374886192 0 0.6916490518212759 0.75387992374886192 0 0.72501250972655151 0.74067302935308721 0 0.72500000000000064 0.7952620967744265 0 0.72501250972655151 0.74067302935308721 0 0.75841349681148107 0.75422312624214749 0 0.72500000000000064 0.7952620967744265 0 0.72500000000000064 0.7952620967744265 0 0.68024162096458085 0.79868546898116533 0 0.6916490518212759 0.75387992374886192 0 0.72500000000000064 0.7952620967744265 0 0.68697391633157634 0.84450604838764298 0 0.68024162096458085 0.79868546898116533 0 0.72500000000000064 0.7952620967744265 0 0.72863726579783861 0.85390518901155588 0 0.68697391633157634 0.84450604838764298 0 0.72500000000000064 0.7952620967744265 0 0.76901770135486491 0.84293557325473656 0 0.72863726579783861 0.85390518901155588 0 0.7250000000005199 0.89375000000045834 0 0.68697391633157634 0.84450604838764298 0 0.72863726579783861 0.85390518901155588 0 0.7250000000005199 0.89375000000045834 0 0.66412543161245952 0.88015090885499059 0 0.68697391633157634 0.84450604838764298 0 0.68697391633157634 0.84450604838764298 0 0.66412543161245952 0.88015090885499059 0 0.65005442820240822 0.82644988530054031 0 0.68697391633157634 0.84450604838764298 0 0.65005442820240822 0.82644988530054031 0 0.68024162096458085 0.79868546898116533 0 0.61343887413683884 0.856862479058357 0 0.65005442820240822 0.82644988530054031 0 0.66412543161245952 0.88015090885499059 0 0.61343887413683884 0.856862479058357 0 0.66412543161245952 0.88015090885499059 0 0.61885627562261258 0.90282959257498208 0 0.65507451745379841 0.92229208810758578 0 0.61885627562261258 0.90282959257498208 0 0.66412543161245952 0.88015090885499059 0 0.65507451745379841 0.92229208810758578 0 0.62065498684670595 0.95224934003983619 0 0.61885627562261258 0.90282959257498208 0 0.65507451745379841 0.92229208810758578 0 0.68987011941058407 0.92105047536677087 0 0.68015064798562208 0.95924320340003011 0 0.65507451745379841 0.92229208810758578 0 0.66412543161245952 0.88015090885499059 0 0.68987011941058407 0.92105047536677087 0 0.7250000000005199 0.89375000000045834 0 0.68987011941058407 0.92105047536677087 0 0.66412543161245952 0.88015090885499059 0 0.7250000000005199 0.89375000000045834 0 0.72863726579783861 0.85390518901155588 0 0.76891166905518427 0.88835469571185499 0 0.7250000000005199 0.89375000000045834 0 0.75729602384198635 0.92353652857884294 0 0.7250000000005199 0.94981617647078953 0 0.7250000000005199 0.89375000000045834 0 0.7250000000005199 0.94981617647078953 0 0.68987011941058407 0.92105047536677087 0 0.7250000000005199 0.94981617647078953 0 0.68015064798562208 0.95924320340003011 0 0.68987011941058407 0.92105047536677087 0 0.75000000000034661 1 0 0.7000000000006934 1 0 0.7250000000005199 0.94981617647078953 0 0.75000000000034661 1 0 0.7250000000005199 0.94981617647078953 0 0.770759834363826 0.95919399014344442 0 0.7000000000006934 1 0 0.68015064798562208 0.95924320340003011 0 0.7250000000005199 0.94981617647078953 0 0.7000000000006934 1 0 0.65000000000104008 1 0 0.68015064798562208 0.95924320340003011 0 0.65507451745379841 0.92229208810758578 0 0.68015064798562208 0.95924320340003011 0 0.62065498684670595 0.95224934003983619 0 0.65000000000104008 1 0 0.62065498684670595 0.95224934003983619 0 0.68015064798562208 0.95924320340003011 0 0.84999999999965292 1 0 0.85170973911348691 0.93569607295217616 0 0.89898474358632463 0.95391965591118966 0 0.84999999999965292 1 0 0.81486180804382891 0.96321394949790495 0 0.85170973911348691 0.93569607295217616 0 0.79680861578988083 0.92656778056766709 0 0.85170973911348691 0.93569607295217616 0 0.81486180804382891 0.96321394949790495 0 0.84999999999965292 1 0 0.79999999999999982 1 0 0.81486180804382891 0.96321394949790495 0 0.79999999999999982 1 0 0.770759834363826 0.95919399014344442 0 0.81486180804382891 0.96321394949790495 0 0.79999999999999982 1 0 0.75000000000034661 1 0 0.770759834363826 0.95919399014344442 0 0.7250000000005199 0.94981617647078953 0 0.75729602384198635 0.92353652857884294 0 0.770759834363826 0.95919399014344442 0 0.79680861578988083 0.92656778056766709 0 0.81486180804382891 0.96321394949790495 0 0.770759834363826 0.95919399014344442 0 0.79680861578988083 0.92656778056766709 0 0.75729602384198635 0.92353652857884294 0 0.76891166905518427 0.88835469571185499 0 0.79680861578988083 0.92656778056766709 0 0.770759834363826 0.95919399014344442 0 0.75729602384198635 0.92353652857884294 0 0.7250000000005199 0.89375000000045834 0 0.76891166905518427 0.88835469571185499 0 0.75729602384198635 0.92353652857884294 0 0.79680861578988083 0.92656778056766709 0 0.76891166905518427 0.88835469571185499 0 0.81159157511211755 0.88795995483179491 0 0.85170973911348691 0.93569607295217616 0 0.81159157511211755 0.88795995483179491 0 0.85600844944837662 0.88483418979512773 0 0.79680861578988083 0.92656778056766709 0 0.81159157511211755 0.88795995483179491 0 0.85170973911348691 0.93569607295217616 0 0.90416666666660628 0.9041666666666166 0 0.85170973911348691 0.93569607295217616 0 0.85600844944837662 0.88483418979512773 0 0.82709327591091286 0.84937141670920724 0 0.88088768115933802 0.84674609810493673 0 0.85600844944837662 0.88483418979512773 0 0.82709327591091286 0.84937141670920724 0 0.84725310900444062 0.80779732082917555 0 0.88088768115933802 0.84674609810493673 0 0.82709327591091286 0.84937141670920724 0 0.80041942726660109 0.81543261647703358 0 0.84725310900444062 0.80779732082917555 0 0.82709327591091286 0.84937141670920724 0 0.85600844944837662 0.88483418979512773 0 0.81159157511211755 0.88795995483179491 0 0.76901770135486491 0.84293557325473656 0 0.81159157511211755 0.88795995483179491 0 0.76891166905518427 0.88835469571185499 0 0.82709327591091286 0.84937141670920724 0 0.81159157511211755 0.88795995483179491 0 0.76901770135486491 0.84293557325473656 0 0.76901770135486491 0.84293557325473656 0 0.76891166905518427 0.88835469571185499 0 0.72863726579783861 0.85390518901155588 0 0.76901770135486491 0.84293557325473656 0 0.77094201086366854 0.79647480515688507 0 0.80041942726660109 0.81543261647703358 0 0.82709327591091286 0.84937141670920724 0 0.76901770135486491 0.84293557325473656 0 0.80041942726660109 0.81543261647703358 0 0.80185942888539485 0.77452061303608133 0 0.80041942726660109 0.81543261647703358 0 0.77094201086366854 0.79647480515688507 0 0.72500000000000064 0.7952620967744265 0 0.75841349681148107 0.75422312624214749 0 0.77094201086366854 0.79647480515688507 0 0.72500000000000064 0.7952620967744265 0 0.77094201086366854 0.79647480515688507 0 0.76901770135486491 0.84293557325473656 0 0.80185942888539485 0.77452061303608133 0 0.77094201086366854 0.79647480515688507 0 0.75841349681148107 0.75422312624214749 0 0.80185942888539485 0.77452061303608133 0 0.75841349681148107 0.75422312624214749 0 0.78578450296893509 0.73292684821144505 0 0.80185942888539485 0.77452061303608133 0 0.85491058998424563 0.76004753345552634 0 0.84725310900444062 0.80779732082917555 0 0.80185942888539485 0.77452061303608133 0 0.81864958914779962 0.73589050177899629 0 0.85491058998424563 0.76004753345552634 0 0.80185942888539485 0.77452061303608133 0 0.84725310900444062 0.80779732082917555 0 0.80041942726660109 0.81543261647703358 0 0.90299850604011456 0.79563452813489832 0 0.84725310900444062 0.80779732082917555 0 0.85491058998424563 0.76004753345552634 0 0.90299850604011456 0.79563452813489832 0 0.85491058998424563 0.76004753345552634 0 0.89999166460796554 0.74528934923809909 0 0.90299850604011456 0.79563452813489832 0 0.94399509803918602 0.75600490196082126 0 0.95386563387742829 0.80414874155775029 0 0.90299850604011456 0.79563452813489832 0 0.89999166460796554 0.74528934923809909 0 0.94399509803918602 0.75600490196082126 0 0.94399509803918602 0.75600490196082126 0 0.97435614836745565 0.77499999999987745 0 0.95386563387742829 0.80414874155775029 0 0.94399509803918602 0.75600490196082126 0 0.97166519676947294 0.73337114490064459 0 0.97435614836745565 0.77499999999987745 0 1 0.74999999999993494 0 0.97435614836745565 0.77499999999987745 0 0.97166519676947294 0.73337114490064459 0 1 0.74999999999993494 0 1 0.7999999999998193 0 0.97435614836745565 0.77499999999987745 0 1 0.7999999999998193 0 0.95386563387742829 0.80414874155775029 0 0.97435614836745565 0.77499999999987745 0 1 0.84999999999982645 0 0.95391631417670719 0.89584263333814784 0 0.93677536231884972 0.85000000000000286 0 1 0.84999999999982645 0 0.93677536231884972 0.85000000000000286 0 0.95386563387742829 0.80414874155775029 0 1 0.7999999999998193 0 1 0.84999999999982645 0 0.95386563387742829 0.80414874155775029 0 0.90416666666660628 0.9041666666666166 0 0.88088768115933802 0.84674609810493673 0 0.93677536231884972 0.85000000000000286 0 0.90299850604011456 0.79563452813489832 0 0.95386563387742829 0.80414874155775029 0 0.93677536231884972 0.85000000000000286 0 0.90299850604011456 0.79563452813489832 0 0.93677536231884972 0.85000000000000286 0 0.88088768115933802 0.84674609810493673 0 0.90299850604011456 0.79563452813489832 0 0.88088768115933802 0.84674609810493673 0 0.84725310900444062 0.80779732082917555 0 0.90416666666660628 0.9041666666666166 0 0.85600844944837662 0.88483418979512773 0 0.88088768115933802 0.84674609810493673 0 0.90416666666660628 0.9041666666666166 0 0.89898474358632463 0.95391965591118966 0 0.85170973911348691 0.93569607295217616 0 0.90416666666660628 0.9041666666666166 0 0.95391631417670719 0.89584263333814784 0 0.94399509803919068 0.9439950980391687 0 0.90416666666660628 0.9041666666666166 0 0.94399509803919068 0.9439950980391687 0 0.89898474358632463 0.95391965591118966 0 0.90416666666660628 0.9041666666666166 0 0.93677536231884972 0.85000000000000286 0 0.95391631417670719 0.89584263333814784 0 1 0.84999999999982645 0 1 0.8999999999998336 0 0.95391631417670719 0.89584263333814784 0 1 0.8999999999998336 0 1 0.94999999999997109 0 0.97435614836744289 0.92499999999990257 0 1 0.8999999999998336 0 0.97435614836744289 0.92499999999990257 0 0.95391631417670719 0.89584263333814784 0 0.94399509803919068 0.9439950980391687 0 0.95391631417670719 0.89584263333814784 0 0.97435614836744289 0.92499999999990257 0 0.94399509803919068 0.9439950980391687 0 0.97435614836744289 0.92499999999990257 0 0.97166519676946206 0.96662885509935492 0 1 0.94999999999997109 0 0.97166519676946206 0.96662885509935492 0 0.97435614836744289 0.92499999999990257 0 1 1 0 0.97166519676946206 0.96662885509935492 0 1 0.94999999999997109 0 1 1 0 0.94999999999979179 1 0 0.97166519676946206 0.96662885509935492 0 0.94999999999979179 1 0 0.94399509803919068 0.9439950980391687 0 0.97166519676946206 0.96662885509935492 0 0.94999999999979179 1 0 0.89999999999958358 1 0 0.89898474358632463 0.95391965591118966 0 0.94999999999979179 1 0 0.89898474358632463 0.95391965591118966 0 0.94399509803919068 0.9439950980391687 0 0.89999999999958358 1 0 0.84999999999965292 1 0 0.89898474358632463 0.95391965591118966 0 0.86956835336234861 0.571283299838105 0 0.81723410853263523 0.59419663659258926 0 0.82862096804812391 0.55037090955459045 0 0.83758014339878906 0.63222013025741819 0 0.81723410853263523 0.59419663659258926 0 0.87159648282691515 0.61285406320581504 0 0.83758014339878906 0.63222013025741819 0 0.79884539758237771 0.62875045078114233 0 0.81723410853263523 0.59419663659258926 0 0.86956835336234861 0.571283299838105 0 0.87159648282691515 0.61285406320581504 0 0.81723410853263523 0.59419663659258926 0 0.86956835336234861 0.571283299838105 0 0.82862096804812391 0.55037090955459045 0 0.86907294890112186 0.52008116128001669 0 0.82862096804812391 0.55037090955459045 0 0.81441713509985358 0.51161854125224959 0 0.86907294890112186 0.52008116128001669 0 0.84723782639812573 0.48638347960178252 0 0.86907294890112186 0.52008116128001669 0 0.81441713509985358 0.51161854125224959 0 0.82862096804812391 0.55037090955459045 0 0.77151014687832564 0.54436834383023036 0 0.81441713509985358 0.51161854125224959 0 0.77846603114747959 0.49850927265137401 0 0.81441713509985358 0.51161854125224959 0 0.77151014687832564 0.54436834383023036 0 0.77846603114747959 0.49850927265137401 0 0.77151014687832564 0.54436834383023036 0 0.73947346780852752 0.49062440112282169 0 0.77293540622714185 0.59448302402785813 0 0.71809016091162536 0.58185040402320831 0 0.77151014687832564 0.54436834383023036 0 0.81723410853263523 0.59419663659258926 0 0.77293540622714185 0.59448302402785813 0 0.77151014687832564 0.54436834383023036 0 0.82862096804812391 0.55037090955459045 0 0.81723410853263523 0.59419663659258926 0 0.77151014687832564 0.54436834383023036 0 0.77293540622714185 0.59448302402785813 0 0.81723410853263523 0.59419663659258926 0 0.79884539758237771 0.62875045078114233 0 0.77293540622714185 0.59448302402785813 0 0.79884539758237771 0.62875045078114233 0 0.74994237037456724 0.62775548192980357 0 0.7750489929959945 0.66593931409600093 0 0.74994237037456724 0.62775548192980357 0 0.79884539758237771 0.62875045078114233 0 0.74999999999999989 0.69999999999999996 0 0.72500000000000064 0.67022701834392062 0 0.7750489929959945 0.66593931409600093 0 0.79999999999999982 0.69999999999999996 0 0.7750489929959945 0.66593931409600093 0 0.82457059160610424 0.66831947184359608 0 0.7750489929959945 0.66593931409600093 0 0.79884539758237771 0.62875045078114233 0 0.82457059160610424 0.66831947184359608 0 0.74999999999999989 0.69999999999999996 0 0.78578450296893509 0.73292684821144505 0 0.75841349681148107 0.75422312624214749 0 0.74999999999999989 0.69999999999999996 0 0.79999999999999982 0.69999999999999996 0 0.78578450296893509 0.73292684821144505 0 0.74999999999999989 0.69999999999999996 0 0.7750489929959945 0.66593931409600093 0 0.79999999999999982 0.69999999999999996 0 0.74999999999999989 0.69999999999999996 0 0.79999999999999982 0.69999999999999996 0 0.80185942888539485 0.77452061303608133 0 0.78578450296893509 0.73292684821144505 0 0.81864958914779962 0.73589050177899629 0 0.79999999999999982 0.69999999999999996 0 0.81864958914779962 0.73589050177899629 0 0.78578450296893509 0.73292684821144505 0 0.84999999999999987 0.69999999999999996 0 0.85491058998424563 0.76004753345552634 0 0.81864958914779962 0.73589050177899629 0 0.79999999999999982 0.69999999999999996 0 0.84999999999999987 0.69999999999999996 0 0.79999999999999982 0.69999999999999996 0 0.82457059160610424 0.66831947184359608 0 0.84999999999999987 0.69999999999999996 0 0.79999999999999982 0.69999999999999996 0 0.84999999999999987 0.69999999999999996 0 0.81864958914779962 0.73589050177899629 0 0.84999999999999987 0.69999999999999996 0 0.89999999999999991 0.69999999999999996 0 0.84999999999999987 0.69999999999999996 0 0.89999166460796554 0.74528934923809909 0 0.85491058998424563 0.76004753345552634 0 0.83758014339878906 0.63222013025741819 0 0.82457059160610424 0.66831947184359608 0 0.79884539758237771 0.62875045078114233 0 0.84999999999999987 0.69999999999999996 0 0.82457059160610424 0.66831947184359608 0 0.87712158428786946 0.65709029563313581 0 0.83758014339878906 0.63222013025741819 0 0.87159648282691515 0.61285406320581504 0 0.87712158428786946 0.65709029563313581 0 0.83758014339878906 0.63222013025741819 0 0.87712158428786946 0.65709029563313581 0 0.82457059160610424 0.66831947184359608 0 0.91750694127105259 0.63017627779935648 0 0.92057473616084773 0.66770436535372446 0 0.87712158428786946 0.65709029563313581 0 0.91750694127105259 0.63017627779935648 0 0.87712158428786946 0.65709029563313581 0 0.87159648282691515 0.61285406320581504 0 0.84999999999999987 0.69999999999999996 0 0.87712158428786946 0.65709029563313581 0 0.89999999999999991 0.69999999999999996 0 0.89999999999999991 0.69999999999999996 0 0.87712158428786946 0.65709029563313581 0 0.92057473616084773 0.66770436535372446 0 0.91750694127105259 0.63017627779935648 0 0.9578014258160763 0.65787212321113708 0 0.92057473616084773 0.66770436535372446 0 0.84999999999999987 0.69999999999999996 0 0.89999999999999991 0.69999999999999996 0 0.89999166460796554 0.74528934923809909 0 0.89999999999999991 0.69999999999999996 0 0.94999999999999996 0.69999999999999996 0 0.89999999999999991 0.69999999999999996 0 0.92057473616084773 0.66770436535372446 0 0.94999999999999996 0.69999999999999996 0 0.89999999999999991 0.69999999999999996 0 0.94999999999999996 0.69999999999999996 0 0.89999166460796554 0.74528934923809909 0 0.94999999999999996 0.69999999999999996 0 0.94399509803918602 0.75600490196082126 0 0.89999166460796554 0.74528934923809909 0 0.94999999999999996 0.69999999999999996 0 0.97166519676947294 0.73337114490064459 0 0.94399509803918602 0.75600490196082126 0 0.94999999999999996 0.69999999999999996 0 1 0.69999999999999996 0 1 0.69999999999999996 0 0.97166519676947294 0.73337114490064459 0 0.94999999999999996 0.69999999999999996 0 1 0.69999999999999996 0 1 0.74999999999993494 0 0.97166519676947294 0.73337114490064459 0 0.91750694127105259 0.63017627779935648 0 0.95867599106212187 0.60011091146651041 0 0.9578014258160763 0.65787212321113708 0 0.94999999999999996 0.69999999999999996 0 0.92057473616084773 0.66770436535372446 0 0.9578014258160763 0.65787212321113708 0 1 0.69999999999999996 0 0.94999999999999996 0.69999999999999996 0 0.9578014258160763 0.65787212321113708 0 1 0.69999999999999996 0 0.9578014258160763 0.65787212321113708 0 1 0.64999999999986979 0 1 0.64999999999986979 0 0.9578014258160763 0.65787212321113708 0 0.95867599106212187 0.60011091146651041 0 1 0.54999999999963112 0 0.95867599106212187 0.60011091146651041 0 0.93732437411268477 0.55911392101136159 0 1 0.59999999999973963 0 1 0.64999999999986979 0 0.95867599106212187 0.60011091146651041 0 1 0.54999999999963112 0 1 0.59999999999973963 0 0.95867599106212187 0.60011091146651041 0 0.91750694127105259 0.63017627779935648 0 0.91143117093204207 0.58709913730335972 0 0.95867599106212187 0.60011091146651041 0 0.93732437411268477 0.55911392101136159 0 0.95867599106212187 0.60011091146651041 0 0.91143117093204207 0.58709913730335972 0 0.86956835336234861 0.571283299838105 0 0.90900154012161016 0.53607784105648792 0 0.91143117093204207 0.58709913730335972 0 0.86956835336234861 0.571283299838105 0 0.91143117093204207 0.58709913730335972 0 0.87159648282691515 0.61285406320581504 0 0.91750694127105259 0.63017627779935648 0 0.87159648282691515 0.61285406320581504 0 0.91143117093204207 0.58709913730335972 0 0.91696753777131557 0.497780560203536 0 0.90900154012161016 0.53607784105648792 0 0.86907294890112186 0.52008116128001669 0 0.86956835336234861 0.571283299838105 0 0.86907294890112186 0.52008116128001669 0 0.90900154012161016 0.53607784105648792 0 0.93732437411268477 0.55911392101136159 0 0.90900154012161016 0.53607784105648792 0 0.95631871884947484 0.51827533208233789 0 0.93732437411268477 0.55911392101136159 0 0.91143117093204207 0.58709913730335972 0 0.90900154012161016 0.53607784105648792 0 0.91696753777131557 0.497780560203536 0 0.95631871884947484 0.51827533208233789 0 0.90900154012161016 0.53607784105648792 0 1 0.54999999999963112 0 0.93732437411268477 0.55911392101136159 0 0.95631871884947484 0.51827533208233789 0 1 0.49999999999950101 0 1 0.54999999999963112 0 0.95631871884947484 0.51827533208233789 0 1 0.49999999999950101 0 0.95631871884947484 0.51827533208233789 0 0.96228564064454991 0.48206450662049471 0 1 0.44999999999963131 0 1 0.49999999999950101 0 0.96228564064454991 0.48206450662049471 0 1 0.44999999999963131 0 0.96228564064454991 0.48206450662049471 0 0.93814194660195893 0.44426664081746747 0 0.91696753777131557 0.497780560203536 0 0.93814194660195893 0.44426664081746747 0 0.96228564064454991 0.48206450662049471 0 0.91696753777131557 0.497780560203536 0 0.96228564064454991 0.48206450662049471 0 0.95631871884947484 0.51827533208233789 0 1 0.34999999999993492 0 1 0.39999999999978308 0 0.95871855522754235 0.40006508612975411 0 1 0.39999999999978308 0 1 0.44999999999963131 0 0.95871855522754235 0.40006508612975411 0 1 0.44999999999963131 0 0.93814194660195893 0.44426664081746747 0 0.95871855522754235 0.40006508612975411 0 0.91750694127107502 0.36982372220068471 0 0.95871855522754235 0.40006508612975411 0 0.90594285160987287 0.4141265964174129 0 0.93814194660195893 0.44426664081746747 0 0.90594285160987287 0.4141265964174129 0 0.95871855522754235 0.40006508612975411 0 0.90594285160987287 0.4141265964174129 0 0.88594198078881503 0.46167788676578442 0 0.86411095495256451 0.42388805655111889 0 0.86411095495256451 0.42388805655111889 0 0.86844634540301924 0.38530937474099819 0 0.90594285160987287 0.4141265964174129 0 0.91750694127107502 0.36982372220068471 0 0.90594285160987287 0.4141265964174129 0 0.86844634540301924 0.38530937474099819 0 0.91696753777131557 0.497780560203536 0 0.88594198078881503 0.46167788676578442 0 0.93814194660195893 0.44426664081746747 0 0.93814194660195893 0.44426664081746747 0 0.88594198078881503 0.46167788676578442 0 0.90594285160987287 0.4141265964174129 0 0.91696753777131557 0.497780560203536 0 0.86907294890112186 0.52008116128001669 0 0.88594198078881503 0.46167788676578442 0 0.84723782639812573 0.48638347960178252 0 0.88594198078881503 0.46167788676578442 0 0.86907294890112186 0.52008116128001669 0 0.84723782639812573 0.48638347960178252 0 0.81441713509985358 0.51161854125224959 0 0.81400510706333218 0.47357325943904899 0 0.84723782639812573 0.48638347960178252 0 0.81400510706333218 0.47357325943904899 0 0.84925632466077294 0.45359738909549091 0 0.81973119833356312 0.43505687159469048 0 0.84925632466077294 0.45359738909549091 0 0.81400510706333218 0.47357325943904899 0 0.84723782639812573 0.48638347960178252 0 0.84925632466077294 0.45359738909549091 0 0.88594198078881503 0.46167788676578442 0 0.86411095495256451 0.42388805655111889 0 0.84925632466077294 0.45359738909549091 0 0.81973119833356312 0.43505687159469048 0 0.86411095495256451 0.42388805655111889 0 0.88594198078881503 0.46167788676578442 0 0.84925632466077294 0.45359738909549091 0 0.86411095495256451 0.42388805655111889 0 0.81308179852519835 0.39754945808726527 0 0.86844634540301924 0.38530937474099819 0 0.83573492347052902 0.36590755630746369 0 0.86844634540301924 0.38530937474099819 0 0.81308179852519835 0.39754945808726527 0 0.86411095495256451 0.42388805655111889 0 0.81973119833356312 0.43505687159469048 0 0.81308179852519835 0.39754945808726527 0 0.77354604466818633 0.40378688774472771 0 0.81973119833356312 0.43505687159469048 0 0.77972660463949339 0.45529290596363098 0 0.77354604466818633 0.40378688774472771 0 0.81308179852519835 0.39754945808726527 0 0.81973119833356312 0.43505687159469048 0 0.77354604466818633 0.40378688774472771 0 0.78145581580700685 0.34881365920033602 0 0.81308179852519835 0.39754945808726527 0 0.77354604466818633 0.40378688774472771 0 0.77972660463949339 0.45529290596363098 0 0.73483647259922602 0.44789725365921768 0 0.73483647259922602 0.44789725365921768 0 0.77972660463949339 0.45529290596363098 0 0.73947346780852752 0.49062440112282169 0 0.77846603114747959 0.49850927265137401 0 0.73947346780852752 0.49062440112282169 0 0.77972660463949339 0.45529290596363098 0 0.77846603114747959 0.49850927265137401 0 0.77972660463949339 0.45529290596363098 0 0.81400510706333218 0.47357325943904899 0 0.77846603114747959 0.49850927265137401 0 0.81400510706333218 0.47357325943904899 0 0.81441713509985358 0.51161854125224959 0 0.81973119833356312 0.43505687159469048 0 0.81400510706333218 0.47357325943904899 0 0.77972660463949339 0.45529290596363098 0 0.79999999999999982 0.29999999999999999 0 0.77075983436335049 0.25919399014334171 0 0.81486180804364938 0.26321394949780091 0 0.74999999999999989 0.29999999999999999 0 0.79999999999999982 0.29999999999999999 0 0.74999999999999989 0.29999999999999999 0 0.77075983436335049 0.25919399014334171 0 0.79999999999999982 0.29999999999999999 0 0.74999999999999989 0.29999999999999999 0 0.79999999999999982 0.29999999999999999 0 0.78145581580700685 0.34881365920033602 0 0.74999999999999989 0.29999999999999999 0 0.78145581580700685 0.34881365920033602 0 0.73090396928863699 0.33699297293167962 0 0.77354604466818633 0.40378688774472771 0 0.74764719760526988 0.3719647154012321 0 0.78145581580700685 0.34881365920033602 0 0.78145581580700685 0.34881365920033602 0 0.74764719760526988 0.3719647154012321 0 0.73090396928863699 0.33699297293167962 0 0.83573492347052902 0.36590755630746369 0 0.81308179852519835 0.39754945808726527 0 0.78145581580700685 0.34881365920033602 0 0.79999999999999982 0.29999999999999999 0 0.82500000000000062 0.33010209762754811 0 0.78145581580700685 0.34881365920033602 0 0.83573492347052902 0.36590755630746369 0 0.78145581580700685 0.34881365920033602 0 0.82500000000000062 0.33010209762754811 0 0.83573492347052902 0.36590755630746369 0 0.82500000000000062 0.33010209762754811 0 0.87430060258887643 0.34056085888204451 0 0.83573492347052902 0.36590755630746369 0 0.87430060258887643 0.34056085888204451 0 0.86844634540301924 0.38530937474099819 0 0.84999999999999987 0.29999999999999999 0 0.87430060258887643 0.34056085888204451 0 0.82500000000000062 0.33010209762754811 0 0.84999999999999987 0.29999999999999999 0 0.89999999999999991 0.29999999999999999 0 0.87430060258887643 0.34056085888204451 0 0.84999999999999987 0.29999999999999999 0 0.81486180804364938 0.26321394949780091 0 0.8517097391133297 0.2356960729520409 0 0.84999999999999987 0.29999999999999999 0 0.8517097391133297 0.2356960729520409 0 0.89898474358614167 0.25391965591104898 0 0.84999999999999987 0.29999999999999999 0 0.89999999999999991 0.29999999999999999 0 0.79999999999999982 0.29999999999999999 0 0.84999999999999987 0.29999999999999999 0 0.82500000000000062 0.33010209762754811 0 0.79999999999999982 0.29999999999999999 0 0.81486180804364938 0.26321394949780091 0 0.84999999999999987 0.29999999999999999 0 0.79999999999999982 0.29999999999999999 0 0.84999999999999987 0.29999999999999999 0 0.84999999999999987 0.29999999999999999 0 0.89898474358614167 0.25391965591104898 0 0.89999999999999991 0.29999999999999999 0 0.89999999999999991 0.29999999999999999 0 0.94999999999999996 0.29999999999999999 0 0.89999999999999991 0.29999999999999999 0 0.94999999999999996 0.29999999999999999 0 0.92012390126144183 0.33123581297173937 0 0.89999999999999991 0.29999999999999999 0 0.89898474358614167 0.25391965591104898 0 0.94999999999999996 0.29999999999999999 0 0.94999999999999996 0.29999999999999999 0 0.89898474358614167 0.25391965591104898 0 0.94399509803921056 0.24399509803922639 0 0.91750694127107502 0.36982372220068471 0 0.86844634540301924 0.38530937474099819 0 0.87430060258887643 0.34056085888204451 0 0.91750694127107502 0.36982372220068471 0 0.87430060258887643 0.34056085888204451 0 0.92012390126144183 0.33123581297173937 0 0.89999999999999991 0.29999999999999999 0 0.92012390126144183 0.33123581297173937 0 0.87430060258887643 0.34056085888204451 0 0.91750694127107502 0.36982372220068471 0 0.92012390126144183 0.33123581297173937 0 0.95780851984364423 0.34215720972155339 0 0.91750694127107502 0.36982372220068471 0 0.95780851984364423 0.34215720972155339 0 0.95871855522754235 0.40006508612975411 0 0.94999999999999996 0.29999999999999999 0 0.95780851984364423 0.34215720972155339 0 0.92012390126144183 0.33123581297173937 0 1 0.29999999999999999 0 0.95780851984364423 0.34215720972155339 0 0.94999999999999996 0.29999999999999999 0 1 0.29999999999999999 0 1 0.34999999999993492 0 0.95780851984364423 0.34215720972155339 0 1 0.34999999999993492 0 0.95871855522754235 0.40006508612975411 0 0.95780851984364423 0.34215720972155339 0 0.94999999999999996 0.29999999999999999 0 0.94399509803921056 0.24399509803922639 0 0.97166519676951801 0.26662885509932011 0 0.94999999999999996 0.29999999999999999 0 1 0.29999999999999999 0 1 0.29999999999999999 0 0.94999999999999996 0.29999999999999999 0 0.97166519676951801 0.26662885509932011 0 1 0.29999999999999999 0 0.97166519676951801 0.26662885509932011 0 1 0.24999999999987299 0 1 0.24999999999987299 0 0.97166519676951801 0.26662885509932011 0 0.97435614836740092 0.22499999999981049 0 1 0.19999999999974799 0 1 0.24999999999987299 0 0.97435614836740092 0.22499999999981049 0 0.94399509803921056 0.24399509803922639 0 0.95391631417672862 0.19584263333809451 0 0.97435614836740092 0.22499999999981049 0 0.94399509803921056 0.24399509803922639 0 0.97435614836740092 0.22499999999981049 0 0.97166519676951801 0.26662885509932011 0 1 0.19999999999974799 0 0.97435614836740092 0.22499999999981049 0 0.95391631417672862 0.19584263333809451 0 1 0.14999999999961891 0 0.95391631417672862 0.19584263333809451 0 0.93677536231883773 0.14999999999999089 0 1 0.14999999999961891 0 0.93677536231883773 0.14999999999999089 0 0.95386563387744361 0.1041487415577465 0 1 0.14999999999961891 0 1 0.19999999999974799 0 0.95391631417672862 0.19584263333809451 0 0.90416666666668166 0.20416666666667119 0 0.93677536231883773 0.14999999999999089 0 0.95391631417672862 0.19584263333809451 0 0.90416666666668166 0.20416666666667119 0 0.88088768115941807 0.14674609810479519 0 0.93677536231883773 0.14999999999999089 0 0.90299850604006393 0.09563452813493091 0 0.93677536231883773 0.14999999999999089 0 0.88088768115941807 0.14674609810479519 0 0.90416666666668166 0.20416666666667119 0 0.85600844944842547 0.1848341897950983 0 0.88088768115941807 0.14674609810479519 0 0.90416666666668166 0.20416666666667119 0 0.89898474358614167 0.25391965591104898 0 0.8517097391133297 0.2356960729520409 0 0.90416666666668166 0.20416666666667119 0 0.94399509803921056 0.24399509803922639 0 0.89898474358614167 0.25391965591104898 0 0.90416666666668166 0.20416666666667119 0 0.95391631417672862 0.19584263333809451 0 0.94399509803921056 0.24399509803922639 0 0.94999999999986839 0 0 0.97166519676946894 0.033371144900598393 0 0.94399509803922566 0.056004901960802607 0 1 0 0 0.97166519676946894 0.033371144900598393 0 0.94999999999986839 0 0 1 0 0 1 0.049999999999896842 0 0.97166519676946894 0.033371144900598393 0 1 0.049999999999896842 0 0.97435614836748241 0.074999999999825387 0 0.97166519676946894 0.033371144900598393 0 0.94399509803922566 0.056004901960802607 0 0.97166519676946894 0.033371144900598393 0 0.97435614836748241 0.074999999999825387 0 0.94399509803922566 0.056004901960802607 0 0.97435614836748241 0.074999999999825387 0 0.95386563387744361 0.1041487415577465 0 1 0.099999999999753911 0 0.95386563387744361 0.1041487415577465 0 0.97435614836748241 0.074999999999825387 0 1 0.049999999999896842 0 1 0.099999999999753911 0 0.97435614836748241 0.074999999999825387 0 1 0.099999999999753911 0 1 0.14999999999961891 0 0.95386563387744361 0.1041487415577465 0 0.90299850604006393 0.09563452813493091 0 0.95386563387744361 0.1041487415577465 0 0.93677536231883773 0.14999999999999089 0 0.90299850604006393 0.09563452813493091 0 0.88088768115941807 0.14674609810479519 0 0.84725310900442086 0.10779732082922661 0 0.90299850604006393 0.09563452813493091 0 0.85491058998398861 0.060047533455626502 0 0.899991664607802 0.045289349238254978 0 0.90299850604006393 0.09563452813493091 0 0.94399509803922566 0.056004901960802607 0 0.95386563387744361 0.1041487415577465 0 0.90299850604006393 0.09563452813493091 0 0.899991664607802 0.045289349238254978 0 0.94399509803922566 0.056004901960802607 0 0.94999999999986839 0 0 0.94399509803922566 0.056004901960802607 0 0.899991664607802 0.045289349238254978 0 0.84999999999960507 0 0 0.89999999999973679 0 0 0.899991664607802 0.045289349238254978 0 0.89999999999973679 0 0 0.94999999999986839 0 0 0.899991664607802 0.045289349238254978 0 0.79999999999947335 0 0 0.84999999999960507 0 0 0.81864958914740749 0.035890501779055867 0 0.84999999999960507 0 0 0.899991664607802 0.045289349238254978 0 0.85491058998398861 0.060047533455626502 0 0.80185942888501827 0.074520613036224564 0 0.81864958914740749 0.035890501779055867 0 0.85491058998398861 0.060047533455626502 0 0.84999999999960507 0 0 0.85491058998398861 0.060047533455626502 0 0.81864958914740749 0.035890501779055867 0 0.80185942888501827 0.074520613036224564 0 0.85491058998398861 0.060047533455626502 0 0.84725310900442086 0.10779732082922661 0 0.90299850604006393 0.09563452813493091 0 0.84725310900442086 0.10779732082922661 0 0.85491058998398861 0.060047533455626502 0 0.80185942888501827 0.074520613036224564 0 0.84725310900442086 0.10779732082922661 0 0.80076557130237269 0.1154587552654202 0 0.82709327591102189 0.14937141670914489 0 0.80076557130237269 0.1154587552654202 0 0.84725310900442086 0.10779732082922661 0 0.80185942888501827 0.074520613036224564 0 0.80076557130237269 0.1154587552654202 0 0.76878382444651716 0.097147941686331368 0 0.72525833953073282 0.1032114801687094 0 0.76878382444651716 0.097147941686331368 0 0.77144070960558853 0.14311854477243749 0 0.77144070960558853 0.14311854477243749 0 0.76878382444651716 0.097147941686331368 0 0.80076557130237269 0.1154587552654202 0 0.80185942888501827 0.074520613036224564 0 0.76878382444651716 0.097147941686331368 0 0.7527966693318906 0.053051678021508272 0 0.80185942888501827 0.074520613036224564 0 0.78393852574753176 0.032039079577822822 0 0.81864958914740749 0.035890501779055867 0 0.80185942888501827 0.074520613036224564 0 0.7527966693318906 0.053051678021508272 0 0.78393852574753176 0.032039079577822822 0 0.74999999999934175 0 0 0.78393852574753176 0.032039079577822822 0 0.7527966693318906 0.053051678021508272 0 0.74999999999934175 0 0 0.79999999999947335 0 0 0.78393852574753176 0.032039079577822822 0 0.79999999999947335 0 0 0.81864958914740749 0.035890501779055867 0 0.78393852574753176 0.032039079577822822 0 0.79680861578956375 0.22656778056752541 0 0.81283102246527783 0.1881007222486438 0 0.8517097391133297 0.2356960729520409 0 0.8517097391133297 0.2356960729520409 0 0.81283102246527783 0.1881007222486438 0 0.85600844944842547 0.1848341897950983 0 0.79680861578956375 0.22656778056752541 0 0.8517097391133297 0.2356960729520409 0 0.81486180804364938 0.26321394949780091 0 0.90416666666668166 0.20416666666667119 0 0.8517097391133297 0.2356960729520409 0 0.85600844944842547 0.1848341897950983 0 0.82709327591102189 0.14937141670914489 0 0.88088768115941807 0.14674609810479519 0 0.85600844944842547 0.1848341897950983 0 0.82709327591102189 0.14937141670914489 0 0.84725310900442086 0.10779732082922661 0 0.88088768115941807 0.14674609810479519 0 0.82709327591102189 0.14937141670914489 0 0.85600844944842547 0.1848341897950983 0 0.81283102246527783 0.1881007222486438 0 0.77144070960558853 0.14311854477243749 0 0.81283102246527783 0.1881007222486438 0 0.76587607630038135 0.18880039518954719 0 0.82709327591102189 0.14937141670914489 0 0.81283102246527783 0.1881007222486438 0 0.77144070960558853 0.14311854477243749 0 0.82709327591102189 0.14937141670914489 0 0.77144070960558853 0.14311854477243749 0 0.80076557130237269 0.1154587552654202 0 0.77144070960558853 0.14311854477243749 0 0.76587607630038135 0.18880039518954719 0 0.72634814642510737 0.16106886917518889 0 0.79680861578956375 0.22656778056752541 0 0.75668890529066124 0.2244279804069782 0 0.76587607630038135 0.18880039518954719 0 0.79680861578956375 0.22656778056752541 0 0.76587607630038135 0.18880039518954719 0 0.81283102246527783 0.1881007222486438 0 0.79680861578956375 0.22656778056752541 0 0.81486180804364938 0.26321394949780091 0 0.77075983436335049 0.25919399014334171 0 0.79680861578956375 0.22656778056752541 0 0.77075983436335049 0.25919399014334171 0 0.75668890529066124 0.2244279804069782 0 0.72500000000000064 0.2498161764706 0 0.75668890529066124 0.2244279804069782 0 0.77075983436335049 0.25919399014334171 0 0.72500000000001008 0.19776155966387679 0 0.75668890529066124 0.2244279804069782 0 0.72500000000000064 0.2498161764706 0 0.72500000000001008 0.19776155966387679 0 0.72500000000000064 0.2498161764706 0 0.69397719155551807 0.2245125647000914 0 0.72500000000000064 0.2498161764706 0 0.67933712972090698 0.25920070958121938 0 0.69397719155551807 0.2245125647000914 0 0.72500000000001008 0.19776155966387679 0 0.69397719155551807 0.2245125647000914 0 0.6865991819015953 0.189116534044597 0 0.72500000000001008 0.19776155966387679 0 0.76587607630038135 0.18880039518954719 0 0.75668890529066124 0.2244279804069782 0 0.72500000000001008 0.19776155966387679 0 0.72634814642510737 0.16106886917518889 0 0.76587607630038135 0.18880039518954719 0 0.72525833953073282 0.1032114801687094 0 0.77144070960558853 0.14311854477243749 0 0.72634814642510737 0.16106886917518889 0 0.72525833953073282 0.1032114801687094 0 0.72634814642510737 0.16106886917518889 0 0.68391457121233579 0.14440470121196541 0 0.72500000000001008 0.19776155966387679 0 0.6865991819015953 0.189116534044597 0 0.72634814642510737 0.16106886917518889 0 0.68391457121233579 0.14440470121196541 0 0.72634814642510737 0.16106886917518889 0 0.6865991819015953 0.189116534044597 0 0.68391457121233579 0.14440470121196541 0 0.6865991819015953 0.189116534044597 0 0.64011864159029941 0.18789607982138171 0 0.6236733212988993 0.14864538214901801 0 0.65290632656860115 0.11434202593454081 0 0.68391457121233579 0.14440470121196541 0 0.6236733212988993 0.14864538214901801 0 0.68391457121233579 0.14440470121196541 0 0.64011864159029941 0.18789607982138171 0 0.65394964615507722 0.22666784374016369 0 0.59814117807200873 0.23398510860739519 0 0.64011864159029941 0.18789607982138171 0 0.65394964615507722 0.22666784374016369 0 0.62657463266645097 0.26524202571255862 0 0.59814117807200873 0.23398510860739519 0 0.65394964615507722 0.22666784374016369 0 0.69397719155551807 0.2245125647000914 0 0.67933712972090698 0.25920070958121938 0 0.65394964615507722 0.22666784374016369 0 0.64011864159029941 0.18789607982138171 0 0.6865991819015953 0.189116534044597 0 0.65394964615507722 0.22666784374016369 0 0.6865991819015953 0.189116534044597 0 0.69397719155551807 0.2245125647000914 0 0.69999999999921003 0 0 0.72683645290270404 0.027797073151180601 0 0.7010294155333181 0.056779085686491267 0 0.69999999999921003 0 0 0.7010294155333181 0.056779085686491267 0 0.66369801598854572 0.036327466368102787 0 0.74999999999934175 0 0 0.7527966693318906 0.053051678021508272 0 0.72683645290270404 0.027797073151180601 0 0.69999999999921003 0 0 0.74999999999934175 0 0 0.72683645290270404 0.027797073151180601 0 0.7527966693318906 0.053051678021508272 0 0.7010294155333181 0.056779085686491267 0 0.72683645290270404 0.027797073151180601 0 0.72525833953073282 0.1032114801687094 0 0.68330259535470161 0.10038702501083881 0 0.7010294155333181 0.056779085686491267 0 0.72525833953073282 0.1032114801687094 0 0.7010294155333181 0.056779085686491267 0 0.7527966693318906 0.053051678021508272 0 0.72525833953073282 0.1032114801687094 0 0.7527966693318906 0.053051678021508272 0 0.76878382444651716 0.097147941686331368 0 0.72525833953073282 0.1032114801687094 0 0.68391457121233579 0.14440470121196541 0 0.68330259535470161 0.10038702501083881 0 0.65408113592120842 0.073941773121567966 0 0.68330259535470161 0.10038702501083881 0 0.65290632656860115 0.11434202593454081 0 0.68391457121233579 0.14440470121196541 0 0.65290632656860115 0.11434202593454081 0 0.68330259535470161 0.10038702501083881 0 0.6236733212988993 0.14864538214901801 0 0.61956000905586006 0.1043312481793135 0 0.65290632656860115 0.11434202593454081 0 0.65408113592120842 0.073941773121567966 0 0.65290632656860115 0.11434202593454081 0 0.61956000905586006 0.1043312481793135 0 0.65408113592120842 0.073941773121567966 0 0.61956000905586006 0.1043312481793135 0 0.61940220174112337 0.047251958781050582 0 0.65408113592120842 0.073941773121567966 0 0.7010294155333181 0.056779085686491267 0 0.68330259535470161 0.10038702501083881 0 0.65408113592120842 0.073941773121567966 0 0.66369801598854572 0.036327466368102787 0 0.7010294155333181 0.056779085686491267 0 0.65408113592120842 0.073941773121567966 0 0.61940220174112337 0.047251958781050582 0 0.66369801598854572 0.036327466368102787 0 0.64999999999907843 0 0 0.66369801598854572 0.036327466368102787 0 0.61940220174112337 0.047251958781050582 0 0.64999999999907843 0 0 0.69999999999921003 0 0 0.66369801598854572 0.036327466368102787 0 0.5499999999988151 0 0 0.59999999999894682 0 0 0.57396793757665954 0.037011367187645222 0 0.59999999999894682 0 0 0.64999999999907843 0 0 0.61940220174112337 0.047251958781050582 0 0.59999999999894682 0 0 0.61940220174112337 0.047251958781050582 0 0.57396793757665954 0.037011367187645222 0 0.57667858002728545 0.078486105337742612 0 0.57396793757665954 0.037011367187645222 0 0.61940220174112337 0.047251958781050582 0 0.57667858002728545 0.078486105337742612 0 0.61940220174112337 0.047251958781050582 0 0.61956000905586006 0.1043312481793135 0 0.6236733212988993 0.14864538214901801 0 0.58516465772821369 0.11653801664834119 0 0.61956000905586006 0.1043312481793135 0 0.57667858002728545 0.078486105337742612 0 0.61956000905586006 0.1043312481793135 0 0.58516465772821369 0.11653801664834119 0 0.56202748619534593 0.15054058349222879 0 0.54979595918804436 0.1060565713905809 0 0.58516465772821369 0.11653801664834119 0 0.57667858002728545 0.078486105337742612 0 0.58516465772821369 0.11653801664834119 0 0.54979595918804436 0.1060565713905809 0 0.51076801031701946 0.1202837388510348 0 0.52375890611712683 0.059318771819432882 0 0.54979595918804436 0.1060565713905809 0 0.51076801031701946 0.1202837388510348 0 0.47881186583059909 0.093591717165689425 0 0.52375890611712683 0.059318771819432882 0 0.57667858002728545 0.078486105337742612 0 0.54979595918804436 0.1060565713905809 0 0.52375890611712683 0.059318771819432882 0 0.5499999999988151 0 0 0.57396793757665954 0.037011367187645222 0 0.52375890611712683 0.059318771819432882 0 0.57667858002728545 0.078486105337742612 0 0.52375890611712683 0.059318771819432882 0 0.57396793757665954 0.037011367187645222 0 0.49999999999869432 0 0 0.5499999999988151 0 0 0.52375890611712683 0.059318771819432882 0 0.55306006949600994 0.20198184231352201 0 0.59443395090188023 0.18455690917515069 0 0.59814117807200873 0.23398510860739519 0 0.55306006949600994 0.20198184231352201 0 0.59814117807200873 0.23398510860739519 0 0.54248833945060504 0.2520322959927106 0 0.59814117807200873 0.23398510860739519 0 0.59443395090188023 0.18455690917515069 0 0.64011864159029941 0.18789607982138171 0 0.6236733212988993 0.14864538214901801 0 0.64011864159029941 0.18789607982138171 0 0.59443395090188023 0.18455690917515069 0 0.6236733212988993 0.14864538214901801 0 0.56202748619534593 0.15054058349222879 0 0.58516465772821369 0.11653801664834119 0 0.6236733212988993 0.14864538214901801 0 0.59443395090188023 0.18455690917515069 0 0.56202748619534593 0.15054058349222879 0 0.55306006949600994 0.20198184231352201 0 0.56202748619534593 0.15054058349222879 0 0.59443395090188023 0.18455690917515069 0 0.55306006949600994 0.20198184231352201 0 0.51729576145820033 0.1683240575987815 0 0.56202748619534593 0.15054058349222879 0 0.51076801031701946 0.1202837388510348 0 0.54979595918804436 0.1060565713905809 0 0.56202748619534593 0.15054058349222879 0 0.51076801031701946 0.1202837388510348 0 0.51729576145820033 0.1683240575987815 0 0.48466639505193998 0.1421439844745814 0 0.51076801031701946 0.1202837388510348 0 0.56202748619534593 0.15054058349222879 0 0.51729576145820033 0.1683240575987815 0 0.55306006949600994 0.20198184231352201 0 0.50760557329222289 0.20700468884612061 0 0.51729576145820033 0.1683240575987815 0 0.50760557329222289 0.20700468884612061 0 0.55306006949600994 0.20198184231352201 0 0.54248833945060504 0.2520322959927106 0 0.49695729691142171 0.25014895411178018 0 0.50760557329222289 0.20700468884612061 0 0.54248833945060504 0.2520322959927106 0 0.5 0.29999999999999999 0 0.49695729691142171 0.25014895411178018 0 0.54248833945060504 0.2520322959927106 0 0.5 0.29999999999999999 0 0.54999999999999993 0.29999999999999999 0 0.52752007115234678 0.33170632466418198 0 0.5 0.29999999999999999 0 0.54248833945060504 0.2520322959927106 0 0.54999999999999993 0.29999999999999999 0 0.5 0.29999999999999999 0 0.54999999999999993 0.29999999999999999 0 0.54999999999999993 0.29999999999999999 0 0.54248833945060504 0.2520322959927106 0 0.5794309697024993 0.27124795968204829 0 0.59814117807200873 0.23398510860739519 0 0.5794309697024993 0.27124795968204829 0 0.54248833945060504 0.2520322959927106 0 0.54999999999999993 0.29999999999999999 0 0.59999999999999976 0.29999999999999999 0 0.54999999999999993 0.29999999999999999 0 0.5794309697024993 0.27124795968204829 0 0.59999999999999976 0.29999999999999999 0 0.59999999999999976 0.29999999999999999 0 0.6499999999999998 0.29999999999999999 0 0.59999999999999976 0.29999999999999999 0 0.5794309697024993 0.27124795968204829 0 0.62657463266645097 0.26524202571255862 0 0.59814117807200873 0.23398510860739519 0 0.62657463266645097 0.26524202571255862 0 0.5794309697024993 0.27124795968204829 0 0.6084546825910605 0.37989672713932537 0 0.56836770495988642 0.3523062350852913 0 0.61959173890754571 0.33832250091341232 0 0.59999999999999976 0.29999999999999999 0 0.6499999999999998 0.29999999999999999 0 0.61959173890754571 0.33832250091341232 0 0.59999999999999976 0.29999999999999999 0 0.61959173890754571 0.33832250091341232 0 0.56836770495988642 0.3523062350852913 0 0.54999999999999993 0.29999999999999999 0 0.59999999999999976 0.29999999999999999 0 0.56836770495988642 0.3523062350852913 0 0.56836770495988642 0.3523062350852913 0 0.52289427570932567 0.3932284363388488 0 0.52752007115234678 0.33170632466418198 0 0.54999999999999993 0.29999999999999999 0 0.56836770495988642 0.3523062350852913 0 0.52752007115234678 0.33170632466418198 0 0.5 0.29999999999999999 0 0.52752007115234678 0.33170632466418198 0 0.49077833859261139 0.35229981449445641 0 0.52752007115234678 0.33170632466418198 0 0.52289427570932567 0.3932284363388488 0 0.49077833859261139 0.35229981449445641 0 0.52289427570932567 0.3932284363388488 0 0.56836770495988642 0.3523062350852913 0 0.57744073070774993 0.41535148636609359 0 0.52289427570932567 0.3932284363388488 0 0.57744073070774993 0.41535148636609359 0 0.53823865529665704 0.45873898050322898 0 0.52289427570932567 0.3932284363388488 0 0.53823865529665704 0.45873898050322898 0 0.48858720058566618 0.43964267759203868 0 0.49102375406324739 0.49123754822244059 0 0.53823865529665704 0.45873898050322898 0 0.53330375813596242 0.50827942741749099 0 0.49102375406324739 0.49123754822244059 0 0.48858720058566618 0.43964267759203868 0 0.53823865529665704 0.45873898050322898 0 0.57611405284611883 0.50165903596042916 0 0.53330375813596242 0.50827942741749099 0 0.53823865529665704 0.45873898050322898 0 0.57611405284611883 0.50165903596042916 0 0.57975577671020095 0.46172033326338591 0 0.61547661924074692 0.48539576058873962 0 0.57611405284611883 0.50165903596042916 0 0.53823865529665704 0.45873898050322898 0 0.57975577671020095 0.46172033326338591 0 0.61209567303293111 0.44669033081290321 0 0.57975577671020095 0.46172033326338591 0 0.57744073070774993 0.41535148636609359 0 0.53823865529665704 0.45873898050322898 0 0.57744073070774993 0.41535148636609359 0 0.57975577671020095 0.46172033326338591 0 0.61209567303293111 0.44669033081290321 0 0.61547661924074692 0.48539576058873962 0 0.57975577671020095 0.46172033326338591 0 0.6084546825910605 0.37989672713932537 0 0.57744073070774993 0.41535148636609359 0 0.56836770495988642 0.3523062350852913 0 0.61209567303293111 0.44669033081290321 0 0.57744073070774993 0.41535148636609359 0 0.63912439215427275 0.41063340167983359 0 0.6084546825910605 0.37989672713932537 0 0.63912439215427275 0.41063340167983359 0 0.57744073070774993 0.41535148636609359 0 0.6084546825910605 0.37989672713932537 0 0.65481233915350323 0.35652751921065562 0 0.63912439215427275 0.41063340167983359 0 0.6879972333610942 0.43038561374960838 0 0.65178832218679827 0.45929119821019959 0 0.63912439215427275 0.41063340167983359 0 0.6879972333610942 0.43038561374960838 0 0.63912439215427275 0.41063340167983359 0 0.68128176404677243 0.38629093627004979 0 0.65481233915350323 0.35652751921065562 0 0.68128176404677243 0.38629093627004979 0 0.63912439215427275 0.41063340167983359 0 0.6541250972820879 0.49999999999999989 0 0.61547661924074692 0.48539576058873962 0 0.65178832218679827 0.45929119821019959 0 0.61209567303293111 0.44669033081290321 0 0.65178832218679827 0.45929119821019959 0 0.61547661924074692 0.48539576058873962 0 0.61209567303293111 0.44669033081290321 0 0.63912439215427275 0.41063340167983359 0 0.65178832218679827 0.45929119821019959 0 0.6879972333610942 0.43038561374960838 0 0.69385896817107129 0.48377516041410151 0 0.65178832218679827 0.45929119821019959 0 0.6541250972820879 0.49999999999999989 0 0.65178832218679827 0.45929119821019959 0 0.69385896817107129 0.48377516041410151 0 0.7152569930854884 0.5237994455134295 0 0.69385896817107129 0.48377516041410151 0 0.73947346780852752 0.49062440112282169 0 0.6879972333610942 0.43038561374960838 0 0.73483647259922602 0.44789725365921768 0 0.69385896817107129 0.48377516041410151 0 0.73483647259922602 0.44789725365921768 0 0.73947346780852752 0.49062440112282169 0 0.69385896817107129 0.48377516041410151 0 0.71508799138962864 0.36622814920737751 0 0.72622533758026719 0.40265885511101601 0 0.68128176404677243 0.38629093627004979 0 0.6879972333610942 0.43038561374960838 0 0.72622533758026719 0.40265885511101601 0 0.73483647259922602 0.44789725365921768 0 0.6879972333610942 0.43038561374960838 0 0.68128176404677243 0.38629093627004979 0 0.72622533758026719 0.40265885511101601 0 0.77354604466818633 0.40378688774472771 0 0.73483647259922602 0.44789725365921768 0 0.72622533758026719 0.40265885511101601 0 0.71508799138962864 0.36622814920737751 0 0.74764719760526988 0.3719647154012321 0 0.72622533758026719 0.40265885511101601 0 0.77354604466818633 0.40378688774472771 0 0.72622533758026719 0.40265885511101601 0 0.74764719760526988 0.3719647154012321 0 0.71508799138962864 0.36622814920737751 0 0.73090396928863699 0.33699297293167962 0 0.74764719760526988 0.3719647154012321 0 0.71508799138962864 0.36622814920737751 0 0.68887083591306764 0.33632058575757479 0 0.73090396928863699 0.33699297293167962 0 0.71508799138962864 0.36622814920737751 0 0.68128176404677243 0.38629093627004979 0 0.68887083591306764 0.33632058575757479 0 0.69999999999999984 0.29999999999999999 0 0.73090396928863699 0.33699297293167962 0 0.68887083591306764 0.33632058575757479 0 0.69999999999999984 0.29999999999999999 0 0.72500000000000064 0.2498161764706 0 0.74999999999999989 0.29999999999999999 0 0.69999999999999984 0.29999999999999999 0 0.74999999999999989 0.29999999999999999 0 0.69999999999999984 0.29999999999999999 0 0.74999999999999989 0.29999999999999999 0 0.73090396928863699 0.33699297293167962 0 0.74999999999999989 0.29999999999999999 0 0.72500000000000064 0.2498161764706 0 0.77075983436335049 0.25919399014334171 0 0.69999999999999984 0.29999999999999999 0 0.67933712972090698 0.25920070958121938 0 0.72500000000000064 0.2498161764706 0 0.6499999999999998 0.29999999999999999 0 0.67933712972090698 0.25920070958121938 0 0.69999999999999984 0.29999999999999999 0 0.6499999999999998 0.29999999999999999 0 0.69999999999999984 0.29999999999999999 0 0.68887083591306764 0.33632058575757479 0 0.6499999999999998 0.29999999999999999 0 0.69999999999999984 0.29999999999999999 0 0.6499999999999998 0.29999999999999999 0 0.62657463266645097 0.26524202571255862 0 0.67933712972090698 0.25920070958121938 0 0.65394964615507722 0.22666784374016369 0 0.67933712972090698 0.25920070958121938 0 0.62657463266645097 0.26524202571255862 0 0.59999999999999976 0.29999999999999999 0 0.62657463266645097 0.26524202571255862 0 0.6499999999999998 0.29999999999999999 0 0.6499999999999998 0.29999999999999999 0 0.65481233915350323 0.35652751921065562 0 0.61959173890754571 0.33832250091341232 0 0.6084546825910605 0.37989672713932537 0 0.61959173890754571 0.33832250091341232 0 0.65481233915350323 0.35652751921065562 0 0.65481233915350323 0.35652751921065562 0 0.68887083591306764 0.33632058575757479 0 0.68128176404677243 0.38629093627004979 0 0.6499999999999998 0.29999999999999999 0 0.68887083591306764 0.33632058575757479 0 0.65481233915350323 0.35652751921065562 0 
</DataArray>
</Points>
<Cells>
<DataArray type="UInt32" Name="connectivity" format="ascii">
0 1 2 3 4 5 6 7 8 9 10 11 12 13 14 15 16 17 18 19 20 21 22 23 24 25 26 27 28 29 30 31 32 33 34 35 36 37 38 39 40 41 42 43 44 45 46 47 48 49 50 51 52 53 54 55 56 57 58 59 60 61 62 63 64 65 66 67 68 69 70 71 72 73 74 75 76 77 78 79 80 81 82 83 84 85 86 87 88 89 90 91 92 93 94 95 96 97 98 99 100 101 102 103 104 105 106 107 108 109 110 111 112 113 114 115 116 117 118 119 120 121 122 123 124 125 126 127 128 129 130 131 132 133 134 135 136 137 138 139 140 141 142 143 144 145 146 147 148 149 150 151 152 153 154 155 156 157 158 159 160 161 162 163 164 165 166 167 168 169 170 171 172 173 174 175 176 177 178 179 180 181 182 183 184 185 186 187 188 189 190 191 192 193 194 195 196 197 198 199 200 201 202 203 204 205 206 207 208 209 210 211 212 213 214 215 216 217 218 219 220 221 222 223 224 225 226 227 228 229 230 231 232 233 234 235 236 237 238 239 240 241 242 243 244 245 246 247 248 249 250 251 252 253 254 255 256 257 258 259 260 261 262 263 264 265 266 267 268 269 270 271 272 273 274 275 276 277 278 279 280 281 282 283 284 285 286 287 288 289 290 291 292 293 294 295 296 297 298 299 300 301 302 303 304 305 306 307 308 309 310 311 312 313 314 315 316 317 318 319 320 321 322 323 324 325 326 327 328 329 330 331 332 333 334 335 336 337 338 339 340 341 342 343 344 345 346 347 348 349 350 351 352 353 354 355 356 357 358 359 360 361 362 363 364 365 366 367 368 369 370 371 372 373 374 375 376 377 378 379 380 381 382 383 384 385 386 387 388 389 390 391 392 393 394 395 396 397 398 399 400 401 402 403 404 405 406 407 408 409 410 411 412 413 414 415 416 417 418 419 420 421 422 423 424 425 426 427 428 429 430 431 432 433 434 435 436 437 438 439 440 441 442 443 444 445 446 447 448 449 450 451 452 453 454 455 456 457 458 459 460 461 462 463 464 465 466 467 468 469 470 471 472 473 474 475 476 477 478 479 480 481 482 483 484 485 486 487 488 489 490 491 492 493 494 495 496 497 498 499 500 501 502 503 504 505 506 507 508 509 510 511 512 513 514 515 516 517 518 519 520 521 522 523 524 525 526 527 528 529 530 531 532 533 534 535 536 537 538 539 540 541 542 543 544 545 546 547 548 549 550 551 552 553 554 555 556 557 558 559 560 561 562 563 564 565 566 567 568 569 570 571 572 573 574 575 576 577 578 579 580 581 582 583 584 585 586 587 588 589 590 591 592 593 594 595 596 597 598 599 600 601 602 603 604 605 606 607 608 609 610 611 612 613 614 615 616 617 618 619 620 621 622 623 624 625 626 627 628 629 630 631 632 633 634 635 636 637 638 639 640 641 642 643 644 645 646 647 648 649 650 651 652 653 654 655 656 657 658 659 660 661 662 663 664 665 666 667 668 669 670 671 672 673 674 675 676 677 678 679 680 681 682 683 684 685 686 687 688 689 690 691 692 693 694 695 696 697 698 699 700 701 702 703 704 705 706 707 708 709 710 711 712 713 714 715 716 717 718 719 720 721 722 723 724 725 726 727 728 729 730 731 732 733 734 735 736 737 738 739 740 741 742 743 744 745 746 747 748 749 750 751 752 753 754 755 756 757 758 759 760 761 762 763 764 765 766 767 768 769 770 771 772 773 774 775 776 777 778 779 780 781 782 783 784 785 786 787 788 789 790 791 792 793 794 795 796 797 798 799 800 801 802 803 804 805 806 807 808 809 810 811 812 813 814 815 816 817 818 819 820 821 822 823 824 825 826 827 828 829 830 831 832 833 834 835 836 837 838 839 840 841 842 843 844 845 846 847 848 849 850 851 852 853 854 855 856 857 858 859 860 861 862 863 864 865 866 867 868 869 870 871 872 873 874 875 876 877 878 879 880 881 882 883 884 885 886 887 888 889 890 891 892 893 894 895 896 897 898 899 900 901 902 903 904 905 906 907 908 909 910 911 912 913 914 915 916 917 918 919 920 921 922 923 924 925 926 927 928 929 930 931 932 933 934 935 936 937 938 939 940 941 942 943 944 945 946 947 948 949 950 951 952 953 954 955 956 957 958 959 960 961 962 963 964 965 966 967 968 969 970 971 972 973 974 975 976 977 978 979 980 981 982 983 984 985 986 987 988 989 990 991 992 993 994 995 996 997 998 999 1000 1001 1002 1003 1004 1005 1006 1007 1008 1009 1010 1011 1012 1013 1014 1015 1016 1017 1018 1019 1020 1021 1022 1023 1024 1025 1026 1027 1028 1029 1030 1031 1032 1033 1034 1035 1036 1037 1038 1039 1040 1041 1042 1043 1044 1045 1046 1047 1048 1049 1050 1051 1052 1053 1054 1055 1056 1057 1058 1059 1060 1061 1062 1063 1064 1065 1066 1067 1068 1069 1070 1071 1072 1073 1074 1075 1076 1077 1078 1079 1080 1081 1082 1083 1084 1085 1086 1087 1088 1089 1090 1091 1092 1093 1094 1095 1096 1097 1098 1099 1100 1101 1102 1103 1104 1105 1106 1107 1108 1109 1110 1111 1112 1113 1114 1115 1116 1117 1118 1119 1120 1121 1122 1123 1124 1125 1126 1127 1128 1129 1130 1131 1132 1133 1134 1135 1136 1137 1138 1139 1140 1141 1142 1143 1144 1145 1146 1147 1148 1149 1150 1151 1152 1153 1154 1155 1156 1157 1158 1159 1160 1161 1162 1163 1164 1165 1166 1167 1168 1169 1170 1171 1172 1173 1174 1175 1176 1177 1178 1179 1180 1181 1182 1183 1184 1185 1186 1187 1188 1189 1190 1191 1192 1193 1194 1195 1196 1197 1198 1199 1200 1201 1202 1203 1204 1205 1206 1207 1208 1209 1210 1211 1212 1213 1214 1215 1216 1217 1218 1219 1220 1221 1222 1223 1224 1225 1226 1227 1228 1229 1230 1231 1232 1233 1234 1235 1236 1237 1238 1239 1240 1241 1242 1243 1244 1245 1246 1247 1248 1249 1250 1251 1252 1253 1254 1255 1256 1257 1258 1259 1260 1261 1262 1263 1264 1265 1266 1267 1268 1269 1270 1271 1272 1273 1274 1275 1276 1277 1278 1279 1280 1281 1282 1283 1284 1285 1286 1287 1288 1289 1290 1291 1292 1293 1294 1295 1296 1297 1298 1299 1300 1301 1302 1303 1304 1305 1306 1307 1308 1309 1310 1311 1312 1313 1314 1315 1316 1317 1318 1319 1320 1321 1322 1323 1324 1325 1326 1327 1328 1329 1330 1331 1332 1333 1334 1335 1336 1337 1338 1339 1340 1341 1342 1343 1344 1345 1346 1347 1348 1349 1350 1351 1352 1353 1354 1355 1356 1357 1358 1359 1360 1361 1362 1363 1364 1365 1366 1367 1368 1369 1370 1371 1372 1373 1374 1375 1376 1377 1378 1379 1380 1381 1382 1383 1384 1385 1386 1387 1388 1389 1390 1391 1392 1393 1394 1395 1396 1397 1398 1399 1400 1401 1402 1403 1404 1405 1406 1407 1408 1409 1410 1411 1412 1413 1414 1415 1416 1417 1418 1419 1420 1421 1422 1423 1424 1425 1426 1427 1428 1429 1430 1431 1432 1433 1434 1435 1436 1437 1438 1439 1440 1441 1442 1443 1444 1445 1446 1447 1448 1449 1450 1451 1452 1453 1454 1455 1456 1457 1458 1459 1460 1461 1462 1463 1464 1465 1466 1467 1468 1469 1470 1471 1472 1473 1474 1475 1476 1477 1478 1479 1480 1481 1482 1483 1484 1485 1486 1487 1488 1489 1490 1491 1492 1493 1494 1495 1496 1497 1498 1499 1500 1501 1502 1503 1504 1505 1506 1507 1508 1509 1510 1511 1512 1513 1514 1515 1516 1517 1518 1519 1520 1521 1522 1523 1524 1525 1526 1527 1528 1529 1530 1531 1532 1533 1534 1535 1536 1537 1538 1539 1540 1541 1542 1543 1544 1545 1546 1547 1548 1549 1550 1551 1552 1553 1554 1555 1556 1557 1558 1559 1560 1561 1562 1563 1564 1565 1566 1567 1568 1569 1570 1571 1572 1573 1574 1575 1576 1577 1578 1579 1580 1581 1582 1583 1584 1585 1586 1587 1588 1589 1590 1591 1592 1593 1594 1595 1596 1597 1598 1599 1600 1601 1602 1603 1604 1605 1606 1607 1608 1609 1610 1611 1612 1613 1614 1615 1616 1617 1618 1619 1620 1621 1622 1623 1624 1625 1626 1627 1628 1629 1630 1631 1632 1633 1634 1635 1636 1637 1638 1639 1640 1641 1642 1643 1644 1645 1646 1647 1648 1649 1650 1651 1652 1653 1654 1655 1656 1657 1658 1659 1660 1661 1662 1663 1664 1665 1666 1667 1668 1669 1670 1671 1672 1673 1674 1675 1676 1677 1678 1679 1680 1681 1682 1683 1684 1685 1686 1687 1688 1689 1690 1691 1692 1693 1694 1695 1696 1697 1698 1699 1700 1701 1702 1703 1704 1705 1706 1707 1708 1709 1710 1711 1712 1713 1714 1715 1716 1717 1718 1719 1720 1721 1722 1723 1724 1725 1726 1727 1728 1729 1730 1731 1732 1733 1734 1735 1736 1737 1738 1739 1740 1741 1742 1743 1744 1745 1746 1747 1748 1749 1750 1751 1752 1753 1754 1755 1756 1757 1758 1759 1760 1761 1762 1763 1764 1765 1766 1767 1768 1769 1770 1771 1772 1773 1774 1775 1776 1777 1778 1779 1780 1781 1782 1783 1784 1785 1786 1787 1788 1789 1790 1791 1792 1793 1794 1795 1796 1797 1798 1799 1800 1801 1802 1803 1804 1805 1806 1807 1808 1809 1810 1811 1812 1813 1814 1815 1816 1817 1818 1819 1820 1821 1822 1823 1824 1825 1826 1827 1828 1829 1830 1831 1832 1833 1834 1835 1836 1837 1838 1839 1840 1841 1842 1843 1844 1845 1846 1847 1848 1849 1850 1851 1852 1853 1854 1855 1856 1857 1858 1859 1860 1861 1862 1863 1864 1865 1866 1867 1868 1869 1870 1871 1872 1873 1874 1875 1876 1877 1878 1879 1880 1881 1882 1883 1884 1885 1886 1887 1888 1889 1890 1891 1892 1893 1894 1895 1896 1897 1898 1899 1900 1901 1902 1903 1904 1905 1906 1907 1908 1909 1910 1911 1912 1913 1914 1915 1916 1917 1918 1919 1920 1921 1922 1923 1924 1925 1926 1927 1928 1929 1930 1931 1932 1933 1934 1935 1936 1937 1938 1939 1940 1941 1942 1943 1944 1945 1946 1947 1948 1949 1950 1951 1952 1953 1954 1955 1956 1957 1958 1959 1960 1961 1962 1963 1964 1965 1966 1967 1968 1969 1970 1971 1972 1973 1974 1975 1976 1977 1978 1979 1980 1981 1982 1983 1984 1985 1986 1987 1988 1989 1990 1991 1992 1993 1994 1995 1996 1997 1998 1999 2000 2001 2002 2003 2004 2005 2006 2007 2008 2009 2010 2011 2012 2013 2014 2015 2016 2017 2018 2019 2020 2021 2022 2023 2024 2025 2026 2027 2028 2029 2030 2031 2032 2033 2034 2035 2036 2037 2038 2039 2040 2041 2042 2043 2044 2045 2046 2047 2048 2049 2050 2051 2052 2053 2054 2055 2056 2057 2058 2059 2060 2061 2062 2063 2064 2065 2066 2067 2068 2069 2070 2071 2072 2073 2074 2075 2076 2077 2078 2079 2080 2081 2082 2083 2084 2085 2086 2087 2088 2089 2090 2091 2092 2093 2094 2095 2096 2097 2098 2099 2100 2101 2102 2103 2104 2105 2106 2107 2108 2109 2110 2111 2112 2113 2114 2115 2116 2117 2118 2119 2120 2121 2122 2123 2124 2125 2126 2127 2128 2129 2130 2131 2132 2133 2134 2135 2136 2137 2138 2139 2140 2141 2142 2143 2144 2145 2146 2147 2148 2149 2150 2151 2152 2153 2154 2155 2156 2157 2158 2159 2160 2161 2162 2163 2164 2165 2166 2167 2168 2169 2170 2171 2172 2173 2174 2175 2176 2177 2178 2179 2180 2181 2182 2183 2184 2185 2186 2187 2188 2189 2190 2191 2192 2193 2194 2195 2196 2197 2198 2199 2200 2201 2202 2203 2204 2205 2206 2207 2208 2209 2210 2211 2212 2213 2214 2215 2216 2217 2218 2219 2220 2221 2222 2223 2224 2225 2226 2227 2228 2229 2230 2231 2232 2233 2234 2235 2236 2237 2238 2239 2240 2241 2242 2243 2244 2245 2246 2247 2248 2249 2250 2251 2252 2253 2254 2255 2256 2257 2258 2259 2260 2261 2262 2263 2264 2265 2266 2267 2268 2269 2270 2271 2272 2273 2274 2275 2276 2277 2278 2279 2280 2281 2282 2283 2284 2285 2286 2287 2288 2289 2290 2291 2292 2293 2294 2295 2296 2297 2298 2299 2300 2301 2302 2303 2304 2305 2306 2307 2308 2309 2310 2311 2312 2313 2314 2315 2316 2317 2318 2319 2320 2321 2322 2323 2324 2325 2326 2327 2328 2329 2330 2331 2332 2333 2334 2335 2336 2337 2338 2339 2340 2341 2342 2343 2344 2345 2346 2347 2348 2349 2350 2351 2352 2353 2354 2355 2356 2357 2358 2359 2360 2361 2362 2363 2364 2365 2366 2367 2368 2369 2370 2371 2372 2373 2374 2375 2376 2377 2378 2379 2380 2381 2382 2383 2384 2385 2386 2387 2388 2389 2390 2391 2392 2393 2394 2395 2396 2397 2398 2399 2400 2401 2402 2403 2404 2405 2406 2407 2408 2409 2410 2411 2412 2413 2414 2415 2416 2417 2418 2419 2420 2421 2422 2423 2424 2425 2426 2427 2428 2429 2430 2431 2432 2433 2434 2435 2436 2437 2438 2439 2440 2441 2442 2443 2444 2445 2446 2447 2448 2449 2450 2451 2452 2453 2454 2455 2456 2457 2458 2459 2460 2461 2462 2463 2464 2465 2466 2467 2468 2469 2470 2471 2472 2473 2474 2475 2476 2477 2478 2479 2480 2481 2482 2483 2484 2485 2486 2487 2488 2489 2490 2491 2492 2493 2494 2495 2496 2497 2498 2499 2500 2501 2502 2503 2504 2505 2506 2507 2508 2509 2510 2511 2512 2513 2514 2515 2516 2517 2518 2519 2520 2521 2522 2523 2524 2525 2526 2527 2528 2529 2530 2531 2532 2533 2534 2535 2536 2537 2538 2539 2540 2541 2542 2543 2544 2545 2546 2547 2548 2549 2550 2551 2552 2553 2554 2555 2556 2557 2558 2559 2560 2561 2562 2563 2564 2565 2566 2567 2568 2569 2570 2571 2572 2573 2574 2575 2576 2577 2578 2579 2580 2581 2582 2583 2584 2585 2586 2587 2588 2589 2590 2591 2592 2593 2594 2595 2596 2597 2598 2599 2600 2601 2602 2603 2604 2605 2606 2607 2608 2609 2610 2611 2612 2613 2614 2615 2616 2617 2618 2619 2620 2621 2622 2623 2624 2625 2626 2627 2628 2629 2630 2631 2632 2633 2634 2635 2636 2637 2638 2639 2640 2641 2642 2643 2644 2645 2646 2647 2648 2649 2650 2651 2652 2653 2654 2655 2656 2657 2658 2659 2660 2661 2662 2663 2664 2665 2666 2667 2668 2669 2670 2671 2672 2673 2674 2675 2676 2677 2678 2679 2680 2681 2682 2683 2684 2685 2686 2687 2688 2689 2690 2691 2692 2693 2694 2695 2696 2697 2698 2699 2700 2701 2702 2703 2704 2705 2706 2707 2708 2709 2710 2711 2712 2713 2714 2715 2716 2717 2718 2719 2720 2721 2722 2723 2724 2725 2726 2727 2728 2729 2730 2731 2732 2733 2734 2735 2736 2737 2738 2739 2740 2741 2742 2743 2744 2745 2746 2747 2748 2749 2750 2751 2752 2753 2754 2755 2756 2757 2758 2759 2760 2761 2762 2763 2764 2765 2766 2767 2768 2769 2770 2771 2772 2773 2774 2775 2776 2777 2778 2779 2780 2781 2782 2783 2784 2785 2786 2787 2788 2789 2790 2791 2792 2793 2794 2795 2796 2797 2798 2799 2800 2801 2802 2803 2804 2805 2806 2807 2808 2809 2810 2811 2812 2813 2814 2815 2816 2817 2818 2819 2820 2821 2822 2823 2824 2825 2826 2827 2828 2829 2830 2831 2832 2833 2834 2835 2836 2837 2838 2839 2840 2841 2842 2843 2844 2845 2846 2847 2848 2849 2850 2851 2852 2853 2854 2855 2856 2857 2858 2859 2860 2861 2862 2863 2864 2865 2866 2867 2868 2869 2870 2871 2872 2873 2874 2875 2876 2877 2878 2879 2880 2881 2882 2883 2884 2885 2886 2887 2888 2889 2890 2891 2892 2893 2894 2895 2896 2897 2898 2899 2900 2901 2902 2903 2904 2905 2906 2907 2908 2909 2910 2911 2912 2913 2914 2915 2916 2917 2918 2919 2920 2921 2922 2923 2924 2925 2926 2927 2928 2929 2930 2931 2932 2933 2934 2935 2936 2937 2938 2939 2940 2941 2942 2943 2944 2945 2946 2947 2948 2949 2950 2951 2952 2953 2954 2955 2956 2957 2958 2959 2960 2961 2962 2963 2964 2965 2966 2967 2968 2969 2970 2971 2972 2973 2974 2975 2976 2977 2978 2979 2980 2981 2982 2983 2984 2985 2986 2987 2988 2989 2990 2991 2992 2993 2994 2995 2996 2997 2998 2999 3000 3001 3002 3003 3004 3005 3006 3007 3008 3009 3010 3011 3012 3013 3014 3015 3016 3017 3018 3019 3020 3021 3022 3023 3024 3025 3026 3027 3028 3029 3030 3031 3032 3033 3034 3035 3036 3037 3038 3039 3040 3041 3042 3043 3044 3045 3046 3047 3048 3049 3050 3051 3052 3053 3054 3055 3056 3057 3058 3059 3060 3061 3062 3063 3064 3065 3066 3067 3068 3069 3070 3071 3072 3073 3074 3075 3076 3077 3078 3079 3080 3081 3082 3083 3084 3085 3086 3087 3088 3089 3090 3091 3092 3093 3094 3095 3096 3097 3098 3099 3100 3101 3102 3103 3104 3105 3106 3107 3108 3109 3110 3111 3112 3113 3114 3115 3116 3117 3118 3119 3120 3121 3122 3123 3124 3125 3126 3127 3128 3129 3130 3131 3132 3133 3134 3135 3136 3137 3138 3139 3140 3141 
</DataArray>
<DataArray type="UInt32" Name="offsets" format="ascii">
3 6 9 12 15 18 21 24 27 30 33 36 39 42 45 48 51 54 57 60 63 66 69 72 75 78 81 84 87 90 93 96 99 102 105 108 111 114 117 120 123 126 129 132 135 138 141 144 147 150 153 156 159 162 165 168 171 174 177 180 183 186 189 192 195 198 201 204 207 210 213 216 219 222 225 228 231 234 237 240 243 246 249 252 255 258 261 264 267 270 273 276 279 282 285 288 291 294 297 300 303 306 309 312 315 318 321 324 327 330 333 336 339 342 345 348 351 354 357 360 363 366 369 372 375 378 381 384 387 390 393 396 399 402 405 408 411 414 417 420 423 426 429 432 435 438 441 444 447 450 453 456 459 462 465 468 471 474 477 480 483 486 489 492 495 498 501 504 507 510 513 516 519 522 525 528 531 534 537 540 543 546 549 552 555 558 561 564 567 570 573 576 579 582 585 588 591 594 597 600 603 606 609 612 615 618 621 624 627 630 633 636 639 642 645 648 651 654 657 660 663 666 669 672 675 678 681 684 687 690 693 696 699 702 705 708 711 714 717 720 723 726 729 732 735 738 741 744 747 750 753 756 759 762 765 768 771 774 777 780 783 786 789 792 795 798 801 804 807 810 813 816 819 822 825 828 831 834 837 840 843 846 849 852 855 858 861 864 867 870 873 876 879 882 885 888 891 894 897 900 903 906 909 912 915 918 921 924 927 930 933 936 939 942 945 948 951 954 957 960 963 966 969 972 975 978 981 984 987 990 993 996 999 1002 1005 1008 1011 1014 1017 1020 1023 1026 1029 1032 1035 1038 1041 1044 1047 1050 1053 1056 1059 1062 1065 1068 1071 1074 1077 1080 1083 1086 1089 1092 1095 1098 1101 1104 1107 1110 1113 1116 1119 1122 1125 1128 1131 1134 1137 1140 1143 1146 1149 1152 1155 1158 1161 1164 1167 1170 1173 1176 1179 1182 1185 1188 1191 1194 1197 1200 1203 1206 1209 1212 1215 1218 1221 1224 1227 1230 1233 1236 1239 1242 1245 1248 1251 1254 1257 1260 1263 1266 1269 1272 1275 1278 1281 1284 1287 1290 1293 1296 1299 1302 1305 1308 1311 1314 1317 1320 1323 1326 1329 1332 1335 1338 1341 1344 1347 1350 1353 1356 1359 1362 1365 1368 1371 1374 1377 1380 1383 1386 1389 1392 1395 1398 1401 1404 1407 1410 1413 1416 1419 1422 1425 1428 1431 1434 1437 1440 1443 1446 1449 1452 1455 1458 1461 1464 1467 1470 1473 1476 1479 1482 1485 1488 1491 1494 1497 1500 1503 1506 1509 1512 1515 1518 1521 1524 1527 1530 1533 1536 1539 1542 1545 1548 1551 1554 1557 1560 1563 1566 1569 1572 1575 1578 1581 1584 1587 1590 1593 1596 1599 1602 1605 1608 1611 1614 1616 1619 1622 1624 1627 1630 1632 1635 1638 1641 1644 1647 1650 1653 1656 1659 1662 1665 1668 1671 1673 1676 1679 1682 1685 1688 1690 1693 1696 1699 1702 1705 1708 1711 1714 1717 1720 1723 1726 1729 1732 1735 1738 1741 1744 1747 1750 1753 1756 1759 1762 1765 1768 1771 1774 1777 1780 1783 1786 1789 1792 1795 1798 1801 1804 1807 1810 1813 1816 1819 1822 1825 1828 1831 1834 1837 1840 1843 1846 1849 1852 1855 1858 1861 1864 1867 1870 1873 1876 1879 1882 1885 1888 1891 1894 1897 1900 1903 1906 1909 1912 1915 1918 1921 1924 1927 1930 1933 1936 1939 1942 1945 1948 1951 1954 1957 1960 1963 1966 1969 1972 1975 1978 1981 1984 1987 1990 1993 1996 1999 2002 2005 2008 2011 2014 2017 2020 2023 2026 2029 2032 2035 2038 2041 2044 2047 2050 2053 2056 2059 2062 2065 2068 2071 2074 2077 2080 2083 2086 2089 2092 2095 2098 2101 2104 2107 2110 2113 2116 2119 2122 2125 2128 2131 2134 2137 2140 2143 2146 2149 2152 2155 2158 2161 2164 2167 2170 2173 2176 2179 2182 2185 2188 2191 2194 2196 2199 2202 2205 2207 2210 2213 2215 2218 2221 2224 2227 2230 2233 2236 2239 2242 2245 2248 2250 2253 2256 2259 2262 2264 2267 2270 2273 2276 2279 2282 2285 2288 2291 2294 2297 2300 2303 2306 2309 2312 2315 2318 2321 2324 2327 2330 2333 2336 2339 2342 2345 2348 2351 2354 2357 2360 2363 2366 2369 2372 2375 2378 2381 2384 2387 2390 2393 2396 2399 2402 2405 2408 2411 2414 2417 2420 2423 2426 2429 2432 2435 2438 2440 2443 2446 2449 2452 2455 2458 2461 2464 2467 2470 2473 2476 2479 2482 2484 2487 2490 2492 2495 2497 2500 2503 2506 2509 2512 2515 2518 2521 2524 2527 2530 2533 2536 2538 2541 2544 2547 2550 2553 2556 2559 2562 2565 2568 2571 2574 2577 2580 2583 2586 2589 2592 2595 2598 2601 2604 2607 2610 2613 2616 2619 2622 2625 2628 2631 2634 2637 2640 2643 2646 2649 2652 2655 2658 2661 2664 2667 2670 2673 2676 2679 2682 2685 2688 2691 2694 2697 2700 2703 2706 2709 2712 2715 2718 2721 2724 2727 2730 2733 2736 2739 2742 2745 2748 2751 2754 2757 2760 2763 2766 2769 2772 2775 2778 2781 2784 2787 2790 2793 2796 2799 2802 2805 2808 2811 2814 2817 2820 2823 2826 2829 2832 2835 2838 2841 2844 2847 2850 2853 2856 2859 2862 2865 2868 2871 2874 2877 2880 2883 2886 2889 2892 2895 2898 2901 2904 2907 2910 2913 2916 2919 2922 2925 2928 2931 2934 2937 2940 2943 2946 2948 2951 2954 2956 2959 2961 2964 2967 2970 2973 2976 2979 2982 2985 2988 2991 2994 2997 3000 3003 3006 3009 3012 3015 3018 3021 3024 3027 3030 3033 3036 3039 3042 3045 3048 3051 3054 3057 3060 3063 3066 3069 3072 3075 3078 3081 3084 3087 3090 3093 3096 3099 3102 3104 3107 3110 3113 3116 3119 3121 3124 3127 3130 3133 3136 3139 3142 
</DataArray>
<DataArray type="UInt32" Name="types" format="ascii">
5 5 5 5 5 5 5 5 5 5 5 5 5 5 5 5 5 5 5 5 5 5 5 5 5 5 5 5 5 5 5 5 5 5 5 5 5 5 5 5 5 5 5 5 5 5 5 5 5 5 5 5 5 5 5 5 5 5 5 5 5 5 5 5 5 5 5 5 5 5 5 5 5 5 5 5 5 5 5 5 5 5 5 5 5 5 5 5 5 5 5 5 5 5 5 5 5 5 5 5 5 5 5 5 5 5 5 5 5 5 5 5 5 5 5 5 5 5 5 5 5 5 5 5 5 5 5 5 5 5 5 5 5 5 5 5 5 5 5 5 5 5 5 5 5 5 5 5 5 5 5 5 5 5 5 5 5 5 5 5 5 5 5 5 5 5 5 5 5 5 5 5 5 5 5 5 5 5 5 5 5 5 5 5 5 5 5 5 5 5 5 5 5 5 5 5 5 5 5 5 5 5 5 5 5 5 5 5 5 5 5 5 5 5 5 5 5 5 5 5 5 5 5 5 5 5 5 5 5 5 5 5 5 5 5 5 5 5 5 5 5 5 5 5 5 5 5 5 5 5 5 5 5 5 5 5 5 5 5 5 5 5 5 5 5 5 5 5 5 5 5 5 5 5 5 5 5 5 5 5 5 5 5 5 5 5 5 5 5 5 5 5 5 5 5 5 5 5 5 5 5 5 5 5 5 5 5 5 5 5 5 5 5 5 5 5 5 5 5 5 5 5 5 5 5 5 5 5 5 5 5 5 5 5 5 5 5 5 5 5 5 5 5 5 5 5 5 5 5 5 5 5 5 5 5 5 5 5 5 5 5 5 5 5 5 5 5 5 5 5 5 5 5 5 5 5 5 5 5 5 5 5 5 5 5 5 5 5 5 5 5 5 5 5 5 5 5 5 5 5 5 5 5 5 5 5 5 5 5 5 5 5 5 5 5 5 5 5 5 5 5 5 5 5 5 5 5 5 5 5 5 5 5 5 5 5 5 5 5 5 5 5 5 5 5 5 5 5 5 5 5 5 5 5 5 5 5 5 5 5 5 5 5 5 5 5 5 5 5 5 5 5 5 5 5 5 5 5 5 5 5 5 5 5 5 5 5 5 5 5 5 5 5 5 5 5 5 5 5 5 5 5 5 5 5 5 5 5 5 5 5 5 5 5 5 5 5 5 5 5 5 5 5 5 5 5 5 5 5 5 5 5 5 5 5 5 5 5 3 5 5 3 5 5 3 5 5 5 5 5 5 5 5 5 5 5 5 5 3 5 5 5 5 5 3 5 5 5 5 5 5 5 5 5 5 5 5 5 5 5 5 5 5 5 5 5 5 5 5 5 5 5 5 5 5 5 5 5 5 5 5 5 5 5 5 5 5 5 5 5 5 5 5 5 5 5 5 5 5 5 5 5 5 5 5 5 5 5 5 5 5 5 5 5 5 5 5 5 5 5 5 5 5 5 5 5 5 5 5 5 5 5 5 5 5 5 5 5 5 5 5 5 5 5 5 5 5 5 5 5 5 5 5 5 5 5 5 5 5 5 5 5 5 5 5 5 5 5 5 5 5 5 5 5 5 5 5 5 5 5 5 5 5 5 5 5 5 5 5 5 5 5 5 5 5 5 5 5 5 5 5 5 5 5 5 5 5 5 5 5 5 5 5 3 5 5 5 3 5 5 3 5 5 5 5 5 5 5 5 5 5 5 3 5 5 5 5 3 5 5 5 5 5 5 5 5 5 5 5 5 5 5 5 5 5 5 5 5 5 5 5 5 5 5 5 5 5 5 5 5 5 5 5 5 5 5 5 5 5 5 5 5 5 5 5 5 5 5 5 5 5 5 5 5 5 5 3 5 5 5 5 5 5 5 5 5 5 5 5 5 5 3 5 5 3 5 3 5 5 5 5 5 5 5 5 5 5 5 5 5 3 5 5 5 5 5 5 5 5 5 5 5 5 5 5 5 5 5 5 5 5 5 5 5 5 5 5 5 5 5 5 5 5 5 5 5 5 5 5 5 5 5 5 5 5 5 5 5 5 5 5 5 5 5 5 5 5 5 5 5 5 5 5 5 5 5 5 5 5 5 5 5 5 5 5 5 5 5 5 5 5 5 5 5 5 5 5 5 5 5 5 5 5 5 5 5 5 5 5 5 5 5 5 5 5 5 5 5 5 5 5 5 5 5 5 5 5 5 5 5 5 5 5 5 5 5 5 5 5 5 5 5 5 5 5 5 5 3 5 5 3 5 3 5 5 5 5 5 5 5 5 5 5 5 5 5 5 5 5 5 5 5 5 5 5 5 5 5 5 5 5 5 5 5 5 5 5 5 5 5 5 5 5 5 5 5 5 5 5 5 3 5 5 5 5 5 3 5 5 5 5 5 5 5 
</DataArray>
</Cells>
<PointData Scalars="" Vectors="displacement," Tensors="">
<DataArray type="Float64" Name="displacement" NumberOfComponents="3" format="ascii">
-9.5252312635069555e-09 -4.0768505763600866e-09 0 -8.0159055103476228e-06 -4.6868895933614211e-06 0 -3.3106080049347029e-06 -1.6095951703065311e-06 0 -9.5252312635069555e-09 -4.0768505763600866e-09 0 -3.3106080049347038e-06 -1.6095951703065316e-06 0 -4.7821401611078555e-09 3.1064878844029336e-10 0 -8.0159055103476228e-06 -4.6868895933614211e-06 0 -6.3953925145602686e-06 -2.6821357370426981e-06 0 -3.3106080049347029e-06 -1.6095951703065311e-06 0 -4.7821401611078555e-09 3.1064878844029336e-10 0 -3.3106080049347029e-06 -1.6095951703065309e-06 0 -6.3953925145602686e-06 -2.6821357370426981e-06 0 -5.316388740772017e-09 -8.0210349502406187e-10 0 -4.7821401611078555e-09 3.1064878844029336e-10 0 -4.4470705311084313e-06 -1.1481725847545521e-06 0 -4.0267208510711995e-09 3.149886592434847e-10 0 -5.316388740772017e-09 -8.0210349502406187e-10 0 -4.4470705311084313e-06 -1.1481725847545521e-06 0 -9.0733676955416569e-06 -2.8425647194372771e-06 0 -4.4470705311084313e-06 -1.1481725847545521e-06 0 -6.3953925145602686e-06 -2.6821357370426981e-06 0 -4.7821401611078555e-09 3.1064878844029336e-10 0 -6.3953925145602686e-06 -2.6821357370426981e-06 0 -4.4470705311084313e-06 -1.1481725847545521e-06 0 -9.0733676955416569e-06 -2.8425647194372771e-06 0 -6.0474313188952793e-06 -1.086232664171564e-06 0 -4.4470705311084313e-06 -1.1481725847545521e-06 0 -9.0733676955416569e-06 -2.8425647194372771e-06 0 -1.0491961546631099e-05 -2.6584164210400308e-06 0 -6.0474313188952793e-06 -1.086232664171564e-06 0 -9.0733676955416569e-06 -2.8425647194372771e-06 0 -1.3721022752320552e-05 -4.3655207784917329e-06 0 -1.0491961546631099e-05 -2.6584164210400308e-06 0 -1.3815188890607727e-05 -3.6525892058822569e-06 0 -1.0491961546631099e-05 -2.6584164210400308e-06 0 -1.372102275232055e-05 -4.3655207784917329e-06 0 -1.7968796803635155e-05 -6.5957552636935807e-06 0 -1.372102275232055e-05 -4.3655207784917329e-06 0 -1.3130364613945622e-05 -5.3700643622298294e-06 0 -9.0733676955416569e-06 -2.8425647194372771e-06 0 -1.3130364613945622e-05 -5.3700643622298294e-06 0 -1.372102275232055e-05 -4.3655207784917329e-06 0 -1.4869950579727719e-05 -7.1694033009642268e-06 0 -2.1654851834371503e-05 -9.4596294835367346e-06 0 -1.3130364613945622e-05 -5.3700643622298294e-06 0 -8.0159055103476228e-06 -4.6868895933614211e-06 0 -1.4869950579727719e-05 -7.1694033009642268e-06 0 -6.3953925145602686e-06 -2.6821357370426981e-06 0 -1.4869950579727719e-05 -7.1694033009642268e-06 0 -1.3130364613945622e-05 -5.3700643622298294e-06 0 -6.3953925145602686e-06 -2.6821357370426981e-06 0 -9.0733676955416569e-06 -2.8425647194372771e-06 0 -6.3953925145602686e-06 -2.6821357370426981e-06 0 -1.3130364613945622e-05 -5.3700643622298294e-06 0 -3.3157122244055928e-09 1.9659117435414221e-10 0 -3.8673559820396649e-09 -6.4988706974923047e-11 0 -3.1841290049699162e-06 -1.6624188468792609e-08 0 -3.8673559820396649e-09 -6.4988706974923047e-11 0 -3.1291130237284807e-06 -2.491398510745199e-07 0 -3.1841290049699162e-06 -1.6624188468792609e-08 0 -6.6535817091601076e-06 -7.9084531549382589e-07 0 -3.1841290049699162e-06 -1.6624188468792609e-08 0 -3.1291130237284807e-06 -2.491398510745199e-07 0 -4.0267208510711995e-09 3.149886592434847e-10 0 -6.0474313188952793e-06 -1.086232664171564e-06 0 -3.1291130237284807e-06 -2.491398510745199e-07 0 -4.0267208510711995e-09 3.149886592434847e-10 0 -4.4470705311084313e-06 -1.1481725847545521e-06 0 -6.0474313188952793e-06 -1.086232664171564e-06 0 -6.6535817091601076e-06 -7.9084531549382589e-07 0 -3.1291130237284807e-06 -2.491398510745199e-07 0 -6.0474313188952793e-06 -1.086232664171564e-06 0 -3.8673559820396649e-09 -6.4988706974923047e-11 0 -4.0267208510711995e-09 3.149886592434847e-10 0 -3.1291130237284807e-06 -2.491398510745199e-07 0 -6.0474313188952793e-06 -1.086232664171564e-06 0 -1.0491961546631099e-05 -2.6584164210400308e-06 0 -9.5803464565672956e-06 -1.9356411275262882e-06 0 -1.3815188890607727e-05 -3.6525892058822569e-06 0 -9.5803464565672956e-06 -1.9356411275262882e-06 0 -1.0491961546631099e-05 -2.6584164210400308e-06 0 -6.6535817091601076e-06 -7.9084531549382589e-07 0 -6.0474313188952793e-06 -1.086232664171564e-06 0 -9.5803464565672956e-06 -1.9356411275262882e-06 0 -6.6535817091601076e-06 -7.9084531549382589e-07 0 -1.1073273672794962e-05 -2.1568644537568787e-06 0 -6.6598114191505967e-06 -5.2084133492699685e-07 0 -6.6535817091601076e-06 -7.9084531549382589e-07 0 -9.5803464565672956e-06 -1.9356411275262882e-06 0 -1.1073273672794962e-05 -2.1568644537568787e-06 0 -6.6535817091601076e-06 -7.9084531549382589e-07 0 -6.6598114191505967e-06 -5.2084133492699685e-07 0 -3.1841290049699162e-06 -1.6624188468792609e-08 0 -3.1405973293549534e-06 1.6046567790352483e-07 0 -3.1841290049699162e-06 -1.6624188468792609e-08 0 -6.6598114191505967e-06 -5.2084133492699685e-07 0 -1.1073273672794962e-05 -2.1568644537568787e-06 0 -1.0340493230856536e-05 -1.7374257157718504e-06 0 -6.6598114191505967e-06 -5.2084133492699685e-07 0 -1.3354690821502068e-05 -3.044402817150372e-06 0 -1.0340493230856534e-05 -1.7374257157718504e-06 0 -1.1073273672794962e-05 -2.1568644537568787e-06 0 -1.3354690821502068e-05 -3.044402817150372e-06 0 -1.1073273672794962e-05 -2.1568644537568787e-06 0 -1.5583984059333985e-05 -4.1415637815199818e-06 0 -1.3815188890607727e-05 -3.6525892058822569e-06 0 -1.8466081454596878e-05 -5.660908686921437e-06 0 -1.5583984059333985e-05 -4.1415637815199818e-06 0 -1.3815188890607727e-05 -3.6525892058822569e-06 0 -1.107327367279496e-05 -2.1568644537568783e-06 0 -9.5803464565672956e-06 -1.9356411275262882e-06 0 -1.3815188890607727e-05 -3.6525892058822569e-06 0 -1.5583984059333985e-05 -4.1415637815199818e-06 0 -1.1073273672794962e-05 -2.1568644537568787e-06 0 -1.3815188890607727e-05 -3.6525892058822569e-06 0 -1.7727830044610185e-05 -5.7312420902567885e-06 0 -1.8466081454596874e-05 -5.6609086869214378e-06 0 -1.9413936377170442e-05 -6.1043352933410876e-06 0 -1.8466081454596874e-05 -5.6609086869214378e-06 0 -2.3813057961737142e-05 -8.2886885015220176e-06 0 -1.9413936377170442e-05 -6.1043352933410876e-06 0 -2.3813057961737142e-05 -8.2886885015220176e-06 0 -2.4382115569115233e-05 -8.8923697844185201e-06 0 -1.9413936377170442e-05 -6.1043352933410876e-06 0 -2.4382115569115233e-05 -8.8923697844185201e-06 0 -2.2682821991778514e-05 -8.3399563029700186e-06 0 -1.9413936377170442e-05 -6.1043352933410876e-06 0 -1.5583984059333985e-05 -4.1415637815199818e-06 0 -1.8466081454596874e-05 -5.6609086869214378e-06 0 -1.3354690821502068e-05 -3.044402817150372e-06 0 -1.5583984059333985e-05 -4.1415637815199818e-06 0 -1.7588777422315991e-05 -5.2856490737210701e-06 0 -1.9413936377170442e-05 -6.1043352933410876e-06 0 -1.7588777422315991e-05 -5.2856490737210701e-06 0 -1.5583984059333985e-05 -4.1415637815199818e-06 0 -1.9413936377170442e-05 -6.1043352933410876e-06 0 -2.2682821991778514e-05 -8.3399563029700186e-06 0 -1.7588777422315991e-05 -5.2856490737210701e-06 0 -1.7793198926173101e-05 -5.835921887852574e-06 0 -1.429875361190361e-05 -3.6051641734875574e-06 0 -1.7588777422315991e-05 -5.2856490737210701e-06 0 -1.3354690821502068e-05 -3.044402817150372e-06 0 -1.7588777422315991e-05 -5.2856490737210701e-06 0 -1.429875361190361e-05 -3.6051641734875574e-06 0 -2.1654851834371503e-05 -9.4596294835367346e-06 0 -2.4235255556933235e-05 -9.4086555680973596e-06 0 -1.7968796803635155e-05 -6.5957552636935807e-06 0 -2.3204539599418215e-05 -8.1929184159790968e-06 0 -1.7968796803635155e-05 -6.5957552636935799e-06 0 -2.4235255556933238e-05 -9.4086555680973613e-06 0 -2.1654851834371503e-05 -9.4596294835367346e-06 0 -2.8720492828365817e-05 -1.1987798519378557e-05 0 -2.4235255556933238e-05 -9.4086555680973613e-06 0 -2.1654851834371503e-05 -9.4596294835367346e-06 0 -1.7968796803635155e-05 -6.5957552636935815e-06 0 -1.3130364613945622e-05 -5.3700643622298294e-06 0 -1.7968796803635155e-05 -6.5957552636935807e-06 0 -1.7727830044610185e-05 -5.7312420902567885e-06 0 -1.372102275232055e-05 -4.3655207784917329e-06 0 -1.3815188890607727e-05 -3.6525892058822569e-06 0 -1.372102275232055e-05 -4.3655207784917329e-06 0 -1.7727830044610185e-05 -5.7312420902567885e-06 0 -2.3204539599418215e-05 -8.1929184159790968e-06 0 -1.8466081454596874e-05 -5.6609086869214378e-06 0 -1.7727830044610185e-05 -5.7312420902567885e-06 0 -2.3204539599418215e-05 -8.1929184159790968e-06 0 -1.7727830044610185e-05 -5.7312420902567885e-06 0 -1.7968796803635155e-05 -6.5957552636935807e-06 0 -2.3204539599418215e-05 -8.1929184159790968e-06 0 -2.3813057961737142e-05 -8.2886885015220176e-06 0 -1.8466081454596874e-05 -5.6609086869214378e-06 0 -2.3204539599418215e-05 -8.1929184159790968e-06 0 -2.8194002354294546e-05 -1.0544805857338309e-05 0 -2.3813057961737142e-05 -8.2886885015220176e-06 0 -2.9607865085342367e-05 -1.157535290460879e-05 0 -2.3813057961737142e-05 -8.2886885015220176e-06 0 -2.8194002354294546e-05 -1.0544805857338309e-05 0 -2.3204539599418215e-05 -8.1929184159790968e-06 0 -2.9385894824612124e-05 -1.1396699288856e-05 0 -2.8194002354294546e-05 -1.0544805857338309e-05 0 -3.4698031329103522e-05 -1.3960435789191077e-05 0 -2.8194002354294546e-05 -1.0544805857338309e-05 0 -2.9385894824612124e-05 -1.1396699288856e-05 0 -2.3204539599418215e-05 -8.1929184159790968e-06 0 -2.4235255556933238e-05 -9.4086555680973613e-06 0 -2.9385894824612124e-05 -1.1396699288856e-05 0 -2.8720492828365814e-05 -1.1987798519378555e-05 0 -2.9385894824612124e-05 -1.1396699288856e-05 0 -2.4235255556933238e-05 -9.4086555680973613e-06 0 -2.8720492828365814e-05 -1.1987798519378555e-05 0 -3.6065875247078936e-05 -1.5042808036898061e-05 0 -2.9385894824612124e-05 -1.1396699288856e-05 0 -3.6065875247078936e-05 -1.5042808036898061e-05 0 -4.3556006333916716e-05 -1.885161722768674e-05 0 -3.4698031329103522e-05 -1.3960435789191077e-05 0 -3.6065875247078936e-05 -1.5042808036898061e-05 0 -3.4698031329103522e-05 -1.3960435789191077e-05 0 -2.9385894824612124e-05 -1.1396699288856e-05 0 -4.3556006333916716e-05 -1.885161722768674e-05 0 -4.2903969896437333e-05 -1.8796894961452628e-05 0 -3.4698031329103522e-05 -1.3960435789191077e-05 0 -4.3556006333916716e-05 -1.885161722768674e-05 0 -5.1542285873795551e-05 -2.3689144365211473e-05 0 -4.2903969896437333e-05 -1.8796894961452628e-05 0 -4.2123176333311169e-05 -1.985440442162501e-05 0 -4.2903969896437333e-05 -1.8796894961452628e-05 0 -4.9196338575443318e-05 -2.3134301592079411e-05 0 -4.2123176333311169e-05 -1.985440442162501e-05 0 -4.9196338575443318e-05 -2.3134301592079411e-05 0 -5.1210956882888836e-05 -2.6465161402943614e-05 0 -5.1542285873795551e-05 -2.3689144365211473e-05 0 -4.9196338575443318e-05 -2.3134301592079411e-05 0 -4.2903969896437333e-05 -1.8796894961452628e-05 0 -5.1542285873795551e-05 -2.3689144365211473e-05 0 -5.9863423573469945e-05 -2.9832085551117726e-05 0 -4.9196338575443318e-05 -2.3134301592079411e-05 0 -4.2123176333311169e-05 -1.985440442162501e-05 0 -4.4058521974763912e-05 -2.4229086761984602e-05 0 -3.6752498197171312e-05 -1.8600005272505033e-05 0 -4.2123176333311169e-05 -1.985440442162501e-05 0 -3.6752498197171312e-05 -1.8600005272505033e-05 0 -3.4461828442222464e-05 -1.5250694457112677e-05 0 -4.2123176333311169e-05 -1.985440442162501e-05 0 -3.6728108420485126e-05 -1.5649818570175956e-05 0 -4.2903969896437333e-05 -1.8796894961452628e-05 0 -4.2123176333311169e-05 -1.985440442162501e-05 0 -3.4461828442222464e-05 -1.5250694457112677e-05 0 -3.6728108420485126e-05 -1.5649818570175956e-05 0 -2.9607865085342367e-05 -1.157535290460879e-05 0 -3.6728108420485126e-05 -1.5649818570175956e-05 0 -3.4461828442222464e-05 -1.5250694457112677e-05 0 -3.4698031329103522e-05 -1.3960435789191077e-05 0 -4.2903969896437333e-05 -1.8796894961452628e-05 0 -3.6728108420485126e-05 -1.5649818570175956e-05 0 -3.6728108420485126e-05 -1.5649818570175956e-05 0 -2.9607865085342367e-05 -1.157535290460879e-05 0 -3.4698031329103522e-05 -1.3960435789191077e-05 0 -3.4698031329103522e-05 -1.3960435789191077e-05 0 -2.9607865085342367e-05 -1.157535290460879e-05 0 -2.8194002354294546e-05 -1.0544805857338309e-05 0 -2.9607865085342367e-05 -1.157535290460879e-05 0 -2.4382115569115233e-05 -8.8923697844185201e-06 0 -2.3813057961737142e-05 -8.2886885015220176e-06 0 -2.9607865085342367e-05 -1.157535290460879e-05 0 -2.8046080003275694e-05 -1.1511384707612606e-05 0 -2.4382115569115233e-05 -8.8923697844185201e-06 0 -2.2682821991778514e-05 -8.3399563029700186e-06 0 -2.4382115569115233e-05 -8.8923697844185184e-06 0 -2.8046080003275694e-05 -1.1511384707612606e-05 0 -3.1284071484795623e-05 -1.4537843792956835e-05 0 -2.6476201957015227e-05 -1.1687011595722178e-05 0 -2.8046080003275694e-05 -1.1511384707612606e-05 0 -2.2682821991778514e-05 -8.3399563029700186e-06 0 -2.8046080003275694e-05 -1.1511384707612606e-05 0 -2.6476201957015227e-05 -1.1687011595722178e-05 0 -2.9607865085342367e-05 -1.157535290460879e-05 0 -3.4461828442222464e-05 -1.5250694457112677e-05 0 -2.8046080003275694e-05 -1.1511384707612606e-05 0 -2.1555528143129974e-05 -8.2872310615063071e-06 0 -1.7793198926173101e-05 -5.835921887852574e-06 0 -1.7588777422315991e-05 -5.2856490737210701e-06 0 -2.2682821991778514e-05 -8.3399563029700186e-06 0 -2.1555528143129974e-05 -8.2872310615063071e-06 0 -1.7588777422315991e-05 -5.2856490737210701e-06 0 -2.2682821991778514e-05 -8.3399563029700186e-06 0 -2.6476201957015227e-05 -1.1687011595722178e-05 0 -2.1555528143129974e-05 -8.2872310615063071e-06 0 -2.5297946320630485e-05 -1.2389239404785223e-05 0 -1.9906393614132684e-05 -7.7868054263666311e-06 0 -2.1555528143129974e-05 -8.2872310615063071e-06 0 -2.5297946320630485e-05 -1.2389239404785223e-05 0 -2.1555528143129974e-05 -8.2872310615063071e-06 0 -2.6476201957015227e-05 -1.1687011595722178e-05 0 -2.5297946320630485e-05 -1.2389239404785223e-05 0 -2.6476201957015227e-05 -1.1687011595722178e-05 0 -3.1179412545422873e-05 -1.6136197227524276e-05 0 -2.5297946320630485e-05 -1.2389239404785223e-05 0 -3.1179412545422873e-05 -1.6136197227524276e-05 0 -3.0558649211841371e-05 -1.8203158216814889e-05 0 -2.5297946320630485e-05 -1.2389239404785223e-05 0 -3.0558649211841371e-05 -1.8203158216814889e-05 0 -2.5892971458988667e-05 -1.5014714359058451e-05 0 -3.1284071484795623e-05 -1.4537843792956835e-05 0 -2.8046080003275694e-05 -1.1511384707612606e-05 0 -3.4461828442222464e-05 -1.5250694457112677e-05 0 -3.1284071484795623e-05 -1.4537843792956835e-05 0 -3.4461828442222464e-05 -1.5250694457112677e-05 0 -3.6752498197171312e-05 -1.8600005272505033e-05 0 -3.1284071484795623e-05 -1.4537843792956835e-05 0 -3.1179412545422873e-05 -1.6136197227524276e-05 0 -2.6476201957015227e-05 -1.1687011595722178e-05 0 -3.7031115057214263e-05 -2.171752816969972e-05 0 -3.1179412545422873e-05 -1.6136197227524276e-05 0 -3.6752498197171312e-05 -1.8600005272505033e-05 0 -3.1284071484795623e-05 -1.4537843792956835e-05 0 -3.6752498197171312e-05 -1.8600005272505033e-05 0 -3.1179412545422873e-05 -1.6136197227524276e-05 0 -3.7031115057214263e-05 -2.171752816969972e-05 0 -3.6752498197171312e-05 -1.8600005272505033e-05 0 -4.4058521974763912e-05 -2.4229086761984602e-05 0 -3.7031115057214263e-05 -2.171752816969972e-05 0 -4.4649669373574641e-05 -2.9629799342857584e-05 0 -3.5670384863809166e-05 -2.4374777193415216e-05 0 -3.7031115057214263e-05 -2.171752816969972e-05 0 -4.4058521974763912e-05 -2.4229086761984602e-05 0 -4.4649669373574641e-05 -2.9629799342857584e-05 0 -3.0015094868816531e-05 -2.089388116328361e-05 0 -2.5892971458988667e-05 -1.5014714359058451e-05 0 -3.0558649211841371e-05 -1.8203158216814889e-05 0 -3.7031115057214263e-05 -2.171752816969972e-05 0 -3.0558649211841371e-05 -1.8203158216814889e-05 0 -3.1179412545422873e-05 -1.6136197227524276e-05 0 -3.7031115057214263e-05 -2.171752816969972e-05 0 -3.5670384863809166e-05 -2.4374777193415216e-05 0 -3.0558649211841371e-05 -1.8203158216814889e-05 0 -3.0015094868816531e-05 -2.089388116328361e-05 0 -3.0558649211841371e-05 -1.8203158216814889e-05 0 -3.5670384863809166e-05 -2.4374777193415216e-05 0 -3.0015094868816531e-05 -2.089388116328361e-05 0 -3.5670384863809166e-05 -2.4374777193415216e-05 0 -3.4830283832693456e-05 -2.8184266579555586e-05 0 -4.0977440544697745e-05 -3.2678557026629216e-05 0 -3.4830283832693456e-05 -2.8184266579555583e-05 0 -3.5670384863809166e-05 -2.4374777193415216e-05 0 -4.0977440544697745e-05 -3.2678557026629216e-05 0 -4.7362716668664163e-05 -4.3447325273165207e-05 0 -4.0867474214200907e-05 -3.8692298305272819e-05 0 -4.0977440544697745e-05 -3.2678557026629216e-05 0 -4.0867474214200907e-05 -3.8692298305272819e-05 0 -3.4830283832693456e-05 -2.8184266579555586e-05 0 -3.4278309674853238e-05 -3.2706593038172445e-05 0 -3.4830283832693456e-05 -2.8184266579555586e-05 0 -4.0867474214200907e-05 -3.8692298305272819e-05 0 -4.0977440544697745e-05 -3.2678557026629216e-05 0 -4.4649669373574641e-05 -2.9629799342857584e-05 0 -4.8629460599301177e-05 -3.753501490146337e-05 0 -4.0977440544697745e-05 -3.2678557026629216e-05 0 -3.5670384863809166e-05 -2.4374777193415216e-05 0 -4.4649669373574641e-05 -2.9629799342857584e-05 0 -4.0977440544697745e-05 -3.2678557026629216e-05 0 -4.8629460599301177e-05 -3.753501490146337e-05 0 -4.7362716668664163e-05 -4.3447325273165207e-05 0 -4.4649669373574641e-05 -2.9629799342857584e-05 0 -5.5808453550931558e-05 -3.867537932674002e-05 0 -4.8629460599301177e-05 -3.753501490146337e-05 0 -5.4664424008969974e-05 -4.4330155404671097e-05 0 -4.8629460599301177e-05 -3.753501490146337e-05 0 -5.5808453550931558e-05 -3.867537932674002e-05 0 -5.3038543005430282e-05 -3.1564721527861829e-05 0 -5.5808453550931558e-05 -3.867537932674002e-05 0 -4.4649669373574641e-05 -2.9629799342857584e-05 0 -5.3038543005430282e-05 -3.1564721527861829e-05 0 -6.3353143251268569e-05 -3.9320202694096265e-05 0 -5.5808453550931558e-05 -3.867537932674002e-05 0 -6.7268075731945597e-05 -5.0167091972584113e-05 0 -5.5808453550931558e-05 -3.867537932674002e-05 0 -6.3353143251268569e-05 -3.9320202694096265e-05 0 -7.64176662412868e-05 -4.7709356268672699e-05 0 -6.7268075731945597e-05 -5.0167091972584113e-05 0 -6.3353143251268569e-05 -3.9320202694096265e-05 0 -6.8284316232859342e-05 -3.7840327437478258e-05 0 -7.64176662412868e-05 -4.7709356268672699e-05 0 -6.3353143251268569e-05 -3.9320202694096265e-05 0 -6.8284316232859342e-05 -3.7840327437478258e-05 0 -6.3353143251268569e-05 -3.9320202694096265e-05 0 -5.9152721283008403e-05 -3.2831691995921032e-05 0 -5.3038543005430282e-05 -3.1564721527861829e-05 0 -5.9152721283008403e-05 -3.2831691995921032e-05 0 -6.3353143251268569e-05 -3.9320202694096265e-05 0 -5.9863423573469945e-05 -2.9832085551117726e-05 0 -5.9152721283008403e-05 -3.2831691995921032e-05 0 -5.1210956882888836e-05 -2.6465161402943614e-05 0 -5.3038543005430282e-05 -3.1564721527861829e-05 0 -5.1210956882888836e-05 -2.6465161402943614e-05 0 -5.9152721283008403e-05 -3.2831691995921032e-05 0 -5.9863423573469945e-05 -2.9832085551117726e-05 0 -6.8284316232859342e-05 -3.7840327437478258e-05 0 -5.9152721283008403e-05 -3.2831691995921032e-05 0 -5.9863423573469945e-05 -2.9832085551117726e-05 0 -5.1210956882888836e-05 -2.6465161402943614e-05 0 -4.9196338575443318e-05 -2.3134301592079411e-05 0 -4.2123176333311169e-05 -1.985440442162501e-05 0 -5.1210956882888836e-05 -2.6465161402943614e-05 0 -4.4058521974763912e-05 -2.4229086761984602e-05 0 -5.3038543005430282e-05 -3.1564721527861829e-05 0 -4.4649669373574641e-05 -2.9629799342857584e-05 0 -4.4058521974763912e-05 -2.4229086761984602e-05 0 -5.3038543005430282e-05 -3.1564721527861829e-05 0 -4.4058521974763912e-05 -2.4229086761984602e-05 0 -5.1210956882888836e-05 -2.6465161402943614e-05 0 -2.6263347057634854e-05 -7.3461778629072007e-06 0 -2.2216943272973133e-05 -6.2752609348559046e-06 0 -2.6059471664938537e-05 -1.0745430150509897e-05 0 -2.2564431715245458e-05 -8.8220063612897565e-06 0 -2.6059471664938537e-05 -1.0745430150509897e-05 0 -2.2216943272973133e-05 -6.2752609348559046e-06 0 -2.2564431715245458e-05 -8.8220063612897565e-06 0 -2.486205991033972e-05 -1.2984812603313304e-05 0 -2.6059471664938537e-05 -1.0745430150509897e-05 0 -2.6263347057634854e-05 -7.3461778629072007e-06 0 -2.1191801912408175e-05 -2.5745379552761402e-06 0 -2.2216943272973133e-05 -6.2752609348559046e-06 0 -1.8638252653685899e-05 1.8067080481137675e-06 0 -2.1191801912408175e-05 -2.5745379552761402e-06 0 -2.4559979288649453e-05 -1.8896510463655345e-06 0 -2.6263347057634854e-05 -7.3461778629072007e-06 0 -2.4559979288649453e-05 -1.8896510463655345e-06 0 -2.1191801912408175e-05 -2.5745379552761402e-06 0 -2.6263347057634854e-05 -7.3461778629072007e-06 0 -2.8351670929328303e-05 -6.5530809710894667e-06 0 -2.4559979288649453e-05 -1.8896510463655345e-06 0 -2.6263347057634854e-05 -7.3461778629072007e-06 0 -3.207793390503406e-05 -1.0802176381373211e-05 0 -2.8351670929328303e-05 -6.5530809710894658e-06 0 -3.0445550684025345e-05 -6.4635755300414693e-06 0 -2.4559979288649453e-05 -1.8896510463655345e-06 0 -2.8351670929328303e-05 -6.5530809710894658e-06 0 -3.0445550684025345e-05 -6.4635755300414693e-06 0 -2.8351670929328303e-05 -6.553080971089465e-06 0 -3.2077933905034067e-05 -1.0802176381373212e-05 0 -3.6787207316069211e-05 -1.6726700980931736e-05 0 -3.2077933905034067e-05 -1.0802176381373212e-05 0 -3.0713976749881045e-05 -1.3491703825591163e-05 0 -2.6263347057634854e-05 -7.3461778629072007e-06 0 -3.0713976749881038e-05 -1.3491703825591162e-05 0 -3.2077933905034067e-05 -1.0802176381373212e-05 0 -2.6263347057634854e-05 -7.3461778629072007e-06 0 -2.6059471664938537e-05 -1.0745430150509897e-05 0 -3.0713976749881045e-05 -1.3491703825591163e-05 0 -2.8242318322065354e-05 -1.5644852970164716e-05 0 -3.0713976749881045e-05 -1.3491703825591163e-05 0 -2.6059471664938537e-05 -1.0745430150509897e-05 0 -3.6787207316069211e-05 -1.6726700980931736e-05 0 -3.0713976749881045e-05 -1.3491703825591163e-05 0 -3.3791978074902952e-05 -1.9409861159258876e-05 0 -3.0287275972273354e-05 -2.7422081688443125e-05 0 -3.3791978074902952e-05 -1.9409861159258876e-05 0 -2.9136603676629942e-05 -2.120753418028692e-05 0 -2.8242318322065354e-05 -1.5644852970164716e-05 0 -2.9136603676629942e-05 -2.120753418028692e-05 0 -3.3791978074902952e-05 -1.9409861159258876e-05 0 -2.8242318322065354e-05 -1.5644852970164716e-05 0 -2.6549579857125826e-05 -1.7310607677346314e-05 0 -2.9136603676629942e-05 -2.120753418028692e-05 0 -2.8242318322065354e-05 -1.5644852970164716e-05 0 -3.3791978074902952e-05 -1.9409861159258876e-05 0 -3.0713976749881045e-05 -1.3491703825591163e-05 0 -3.0287275972273354e-05 -2.7422081688443125e-05 0 -2.9902721178442366e-05 -2.4036199659976989e-05 0 -3.4278309674853238e-05 -3.2706593038172445e-05 0 -3.4278309674853238e-05 -3.2706593038172445e-05 0 -2.9902721178442366e-05 -2.4036199659976989e-05 0 -3.4830283832693456e-05 -2.8184266579555586e-05 0 -3.0287275972273354e-05 -2.7422081688443125e-05 0 -2.9136603676629942e-05 -2.120753418028692e-05 0 -2.9902721178442366e-05 -2.4036199659976989e-05 0 -2.6549579857125826e-05 -1.7310607677346314e-05 0 -2.9902721178442366e-05 -2.4036199659976989e-05 0 -2.9136603676629942e-05 -2.120753418028692e-05 0 -3.0015094868816531e-05 -2.089388116328361e-05 0 -3.4830283832693456e-05 -2.8184266579555586e-05 0 -2.9902721178442366e-05 -2.4036199659976989e-05 0 -3.0015094868816531e-05 -2.089388116328361e-05 0 -2.9902721178442366e-05 -2.4036199659976992e-05 0 -2.6549579857125826e-05 -1.7310607677346314e-05 0 -3.0015094868816531e-05 -2.089388116328361e-05 0 -2.6549579857125826e-05 -1.7310607677346314e-05 0 -2.5892971458988667e-05 -1.5014714359058451e-05 0 -2.2906360866352592e-05 -1.1767526155647737e-05 0 -2.5892971458988667e-05 -1.5014714359058451e-05 0 -2.6549579857125826e-05 -1.7310607677346314e-05 0 -2.8242318322065354e-05 -1.5644852970164716e-05 0 -2.6059471664938537e-05 -1.0745430150509897e-05 0 -2.486205991033972e-05 -1.2984812603313304e-05 0 -2.8242318322065354e-05 -1.5644852970164716e-05 0 -2.486205991033972e-05 -1.2984812603313304e-05 0 -2.6549579857125826e-05 -1.7310607677346314e-05 0 -2.2906360866352592e-05 -1.1767526155647737e-05 0 -2.6549579857125826e-05 -1.7310607677346314e-05 0 -2.486205991033972e-05 -1.2984812603313304e-05 0 -2.486205991033972e-05 -1.2984812603313304e-05 0 -1.9189502003749038e-05 -6.8124928023242581e-06 0 -2.2906360866352592e-05 -1.1767526155647737e-05 0 -2.2564431715245458e-05 -8.8220063612897565e-06 0 -1.9189502003749038e-05 -6.8124928023242581e-06 0 -2.486205991033972e-05 -1.2984812603313304e-05 0 -2.2906360866352592e-05 -1.1767526155647737e-05 0 -1.9189502003749038e-05 -6.8124928023242573e-06 0 -1.9973046031433327e-05 -8.3193764782642208e-06 0 -1.9189502003749038e-05 -6.8124928023242581e-06 0 -1.7083580650953208e-05 -5.5495109253819548e-06 0 -1.9973046031433327e-05 -8.3193764782642208e-06 0 -2.5297946320630485e-05 -1.2389239404785223e-05 0 -2.5892971458988667e-05 -1.5014714359058451e-05 0 -2.1967803135015725e-05 -1.0296305893830432e-05 0 -2.2906360866352592e-05 -1.1767526155647737e-05 0 -2.1967803135015725e-05 -1.029630589383043e-05 0 -2.5892971458988667e-05 -1.5014714359058451e-05 0 -2.2906360866352592e-05 -1.1767526155647737e-05 0 -1.9973046031433327e-05 -8.3193764782642208e-06 0 -2.1967803135015725e-05 -1.0296305893830432e-05 0 -1.8136293676461154e-05 -6.6264313312386533e-06 0 -2.1967803135015725e-05 -1.0296305893830432e-05 0 -1.9973046031433327e-05 -8.3193764782642208e-06 0 -2.5297946320630485e-05 -1.2389239404785223e-05 0 -2.1967803135015725e-05 -1.0296305893830432e-05 0 -1.9906393614132684e-05 -7.7868054263666311e-06 0 -1.8136293676461154e-05 -6.6264313312386533e-06 0 -1.9906393614132684e-05 -7.7868054263666311e-06 0 -2.1967803135015725e-05 -1.0296305893830432e-05 0 -1.8136293676461154e-05 -6.6264313312386533e-06 0 -1.5338792334631409e-05 -4.3435536906483128e-06 0 -1.9906393614132684e-05 -7.7868054263666311e-06 0 -1.7793198926173101e-05 -5.835921887852574e-06 0 -1.9906393614132684e-05 -7.7868054263666311e-06 0 -1.5338792334631409e-05 -4.3435536906483128e-06 0 -1.7793198926173101e-05 -5.835921887852574e-06 0 -2.1555528143129974e-05 -8.2872310615063071e-06 0 -1.9906393614132684e-05 -7.7868054263666311e-06 0 -1.4789512285946636e-05 -3.3014718199116108e-06 0 -1.7083580650953208e-05 -5.5495109253819548e-06 0 -1.9189502003749038e-05 -6.8124928023242581e-06 0 -1.8136293676461154e-05 -6.6264313312386533e-06 0 -1.9973046031433327e-05 -8.3193764782642208e-06 0 -1.7083580650953208e-05 -5.5495109253819548e-06 0 -1.8136293676461154e-05 -6.6264313312386533e-06 0 -1.7083580650953208e-05 -5.5495109253819548e-06 0 -1.4763561654545837e-05 -3.9017904510387855e-06 0 -1.8136293676461154e-05 -6.6264313312386533e-06 0 -1.4763561654545837e-05 -3.9017904510387855e-06 0 -1.5338792334631409e-05 -4.3435536906483128e-06 0 -1.4789512285946636e-05 -3.3014718199116108e-06 0 -1.4763561654545837e-05 -3.9017904510387855e-06 0 -1.7083580650953208e-05 -5.5495109253819548e-06 0 -1.4789512285946636e-05 -3.3014718199116108e-06 0 -1.1548547779522685e-05 -1.8558262706031341e-06 0 -1.4763561654545837e-05 -3.9017904510387855e-06 0 -1.4789512285946636e-05 -3.3014718199116108e-06 0 -1.4295386376111899e-05 -1.7430758764327555e-06 0 -1.1645504463043915e-05 -1.2954940544618724e-06 0 -1.4295386376111899e-05 -1.7430758764327557e-06 0 -1.1575090975823561e-05 -1.2254759298336332e-07 0 -1.1645504463043915e-05 -1.2954940544618724e-06 0 -1.4789512285946636e-05 -3.3014718199116108e-06 0 -1.6948582866436385e-05 -4.018812621273481e-06 0 -1.4295386376111899e-05 -1.7430758764327557e-06 0 -1.4789512285946636e-05 -3.3014718199116108e-06 0 -1.9189502003749038e-05 -6.8124928023242581e-06 0 -1.6948582866436385e-05 -4.018812621273481e-06 0 -1.9189502003749038e-05 -6.8124928023242581e-06 0 -1.9662026798980342e-05 -5.735682115095744e-06 0 -1.6948582866436385e-05 -4.018812621273481e-06 0 -1.7737951869593586e-05 -2.7131504500054788e-06 0 -1.6948582866436385e-05 -4.018812621273481e-06 0 -1.9662026798980342e-05 -5.735682115095744e-06 0 -1.7737951869593586e-05 -2.7131504500054788e-06 0 -1.4295386376111899e-05 -1.7430758764327557e-06 0 -1.6948582866436385e-05 -4.018812621273481e-06 0 -1.7737951869593586e-05 -2.7131504500054788e-06 0 -1.9662026798980342e-05 -5.735682115095744e-06 0 -2.2216943272973133e-05 -6.2752609348559046e-06 0 -2.2564431715245458e-05 -8.8220063612897565e-06 0 -2.2216943272973133e-05 -6.2752609348559046e-06 0 -1.9662026798980342e-05 -5.735682115095744e-06 0 -2.2564431715245458e-05 -8.8220063612897565e-06 0 -1.9662026798980342e-05 -5.7356821150957448e-06 0 -1.9189502003749038e-05 -6.8124928023242581e-06 0 -1.8638252653685899e-05 1.8067080481137675e-06 0 -1.7039402098259627e-05 -2.7730561769865613e-08 0 -2.1191801912408175e-05 -2.5745379552761402e-06 0 -1.7737951869593586e-05 -2.7131504500054788e-06 0 -2.1191801912408175e-05 -2.5745379552761402e-06 0 -1.7039402098259627e-05 -2.7730561769865613e-08 0 -1.7737951869593586e-05 -2.7131504500054788e-06 0 -2.2216943272973133e-05 -6.2752609348559046e-06 0 -2.1191801912408175e-05 -2.5745379552761402e-06 0 -1.7737951869593586e-05 -2.7131504500054788e-06 0 -1.4400216594178624e-05 -6.522319965693981e-08 0 -1.4295386376111899e-05 -1.7430758764327557e-06 0 -1.7039402098259627e-05 -2.7730561769865613e-08 0 -1.4205038760259766e-05 2.9084615187982097e-06 0 -1.4400216594178624e-05 -6.522319965693981e-08 0 -1.7737951869593586e-05 -2.7131504500054788e-06 0 -1.7039402098259627e-05 -2.7730561769865613e-08 0 -1.4400216594178624e-05 -6.522319965693981e-08 0 -1.173561255584636e-05 1.5352710544794056e-06 0 -1.1575090975823561e-05 -1.2254759298336332e-07 0 -1.4400216594178624e-05 -6.522319965693981e-08 0 -1.4295386376111899e-05 -1.7430758764327557e-06 0 -1.4400216594178624e-05 -6.522319965693981e-08 0 -1.1575090975823561e-05 -1.2254759298336332e-07 0 -1.173561255584636e-05 1.5352710544794056e-06 0 -9.7274213899633439e-06 9.2452141644975562e-07 0 -1.1575090975823561e-05 -1.2254759298336332e-07 0 -9.8077097245653075e-06 -1.553793179954005e-07 0 -9.7274213899633422e-06 9.2452141644975562e-07 0 -7.936318075338854e-06 4.6470375664508525e-07 0 -9.8077097245653075e-06 -1.553793179954005e-07 0 -7.936318075338854e-06 4.6470375664508525e-07 0 -8.6703406938739728e-06 -2.4976543365784305e-07 0 -9.8077097245653075e-06 -1.553793179954005e-07 0 -1.1645504463043915e-05 -1.2954940544618724e-06 0 -1.1575090975823561e-05 -1.2254759298336332e-07 0 -9.8077097245653075e-06 -1.553793179954005e-07 0 -1.1575090975823561e-05 -1.2254759298336332e-07 0 -9.7274213899633439e-06 9.2452141644975562e-07 0 -1.4789512285946636e-05 -3.3014718199116108e-06 0 -1.1645504463043915e-05 -1.2954940544618726e-06 0 -1.1548547779522685e-05 -1.8558262706031339e-06 0 -8.046648609768495e-06 -3.8159090620060506e-07 0 -1.1548547779522685e-05 -1.8558262706031339e-06 0 -8.6703406938739728e-06 -2.4976543365784305e-07 0 -1.1548547779522685e-05 -1.8558262706031339e-06 0 -1.1645504463043916e-05 -1.2954940544618726e-06 0 -8.6703406938739728e-06 -2.4976543365784305e-07 0 -9.8077097245653075e-06 -1.553793179954005e-07 0 -8.6703406938739728e-06 -2.4976543365784305e-07 0 -1.1645504463043915e-05 -1.2954940544618724e-06 0 -6.4695946420695072e-06 3.6178764506536669e-07 0 -6.0681340046017573e-06 2.1135913786936537e-07 0 -8.6703406938739728e-06 -2.4976543365784305e-07 0 -8.046648609768495e-06 -3.8159090620060506e-07 0 -8.6703406938739728e-06 -2.4976543365784305e-07 0 -6.0681340046017573e-06 2.1135913786936537e-07 0 -8.046648609768495e-06 -3.8159090620060506e-07 0 -6.0681340046017573e-06 2.1135913786936537e-07 0 -5.3065455237417544e-06 1.8807466166973536e-07 0 -6.4695946420695072e-06 3.6178764506536669e-07 0 -4.5995266336126413e-06 3.707173796087406e-07 0 -6.0681340046017573e-06 2.1135913786936537e-07 0 -4.5340327626223441e-06 4.2712789953502025e-07 0 -4.5995266336126413e-06 3.707173796087406e-07 0 -6.4695946420695072e-06 3.6178764506536669e-07 0 -4.5340327626223441e-06 4.2712789953502025e-07 0 -6.4695946420695072e-06 3.6178764506536669e-07 0 -6.2667636880024533e-06 6.6522515558292075e-07 0 -6.4695946420695072e-06 3.6178764506536669e-07 0 -7.936318075338854e-06 4.6470375664508525e-07 0 -6.2667636880024533e-06 6.6522515558292075e-07 0 -6.4695946420695072e-06 3.6178764506536669e-07 0 -8.6703406938739728e-06 -2.4976543365784305e-07 0 -7.936318075338854e-06 4.6470375664508525e-07 0 -1.7793198926173101e-05 -5.835921887852574e-06 0 -1.5338792334631409e-05 -4.3435536906483128e-06 0 -1.429875361190361e-05 -3.6051641734875574e-06 0 -1.1714231676255532e-05 -2.2090995691139947e-06 0 -1.429875361190361e-05 -3.6051641734875574e-06 0 -1.5338792334631409e-05 -4.3435536906483128e-06 0 -1.1714231676255532e-05 -2.2090995691139947e-06 0 -1.0899704736941023e-05 -1.8939766442056843e-06 0 -1.429875361190361e-05 -3.6051641734875574e-06 0 -1.1714231676255532e-05 -2.2090995691139947e-06 0 -1.2953617451033756e-05 -2.8323702833564544e-06 0 -9.9124823244518872e-06 -1.2910947245655702e-06 0 -1.1714231676255532e-05 -2.2090995691139947e-06 0 -1.5338792334631409e-05 -4.3435536906483128e-06 0 -1.2953617451033756e-05 -2.8323702833564544e-06 0 -1.5338792334631409e-05 -4.3435536906483128e-06 0 -1.4763561654545837e-05 -3.9017904510387855e-06 0 -1.2953617451033756e-05 -2.8323702833564544e-06 0 -1.1548547779522685e-05 -1.8558262706031339e-06 0 -1.2953617451033756e-05 -2.8323702833564544e-06 0 -1.4763561654545837e-05 -3.9017904510387855e-06 0 -1.1548547779522685e-05 -1.8558262706031339e-06 0 -9.9124823244518872e-06 -1.2910947245655702e-06 0 -1.2953617451033756e-05 -2.8323702833564544e-06 0 -8.046648609768495e-06 -3.8159090620060506e-07 0 -9.9124823244518872e-06 -1.2910947245655702e-06 0 -1.1548547779522685e-05 -1.8558262706031339e-06 0 -8.046648609768495e-06 -3.8159090620060506e-07 0 -7.8511039351427391e-06 -5.4677263820756749e-07 0 -9.9124823244518872e-06 -1.2910947245655702e-06 0 -8.046648609768495e-06 -3.8159090620060506e-07 0 -5.3065455237417544e-06 1.8807466166973536e-07 0 -7.8511039351427391e-06 -5.4677263820756749e-07 0 -1.1714231676255532e-05 -2.2090995691139947e-06 0 -9.9124823244518855e-06 -1.29109472456557e-06 0 -7.8511039351427391e-06 -5.4677263820756749e-07 0 -1.1714231676255532e-05 -2.2090995691139947e-06 0 -7.8511039351427391e-06 -5.4677263820756749e-07 0 -1.0899704736941023e-05 -1.8939766442056843e-06 0 -8.1872852056788333e-06 -8.7629552564967379e-07 0 -1.0899704736941023e-05 -1.8939766442056843e-06 0 -7.8511039351427391e-06 -5.4677263820756749e-07 0 -8.1872852056788333e-06 -8.7629552564967379e-07 0 -1.0340493230856536e-05 -1.7374257157718504e-06 0 -1.0899704736941023e-05 -1.8939766442056843e-06 0 -1.3354690821502068e-05 -3.044402817150372e-06 0 -1.429875361190361e-05 -3.6051641734875574e-06 0 -1.0899704736941023e-05 -1.8939766442056843e-06 0 -1.3354690821502068e-05 -3.044402817150372e-06 0 -1.0899704736941023e-05 -1.8939766442056843e-06 0 -1.0340493230856536e-05 -1.7374257157718504e-06 0 -3.1405973293549534e-06 1.6046567790352483e-07 0 -6.6598114191505967e-06 -5.2084133492699685e-07 0 -5.5263093011381796e-06 -6.7802470080043169e-08 0 -8.1872852056788333e-06 -8.7629552564967379e-07 0 -6.6598114191505967e-06 -5.2084133492699685e-07 0 -1.0340493230856536e-05 -1.7374257157718504e-06 0 -8.1872852056788333e-06 -8.7629552564967379e-07 0 -5.5263093011381796e-06 -6.7802470080043169e-08 0 -6.6598114191505967e-06 -5.2084133492699685e-07 0 -8.1872852056788333e-06 -8.7629552564967379e-07 0 -7.8511039351427391e-06 -5.4677263820756749e-07 0 -5.5263093011381796e-06 -6.7802470080043169e-08 0 -3.1405973293549534e-06 1.6046567790352483e-07 0 -5.5263093011381796e-06 -6.7802470080043169e-08 0 -2.5521674995699827e-06 2.6628189019336015e-07 0 -4.5644108756837526e-06 2.0139931402989904e-07 0 -2.5521674995699827e-06 2.6628189019336015e-07 0 -5.5263093011381796e-06 -6.7802470080043169e-08 0 -4.5644108756837526e-06 2.0139931402989904e-07 0 -5.5263093011381796e-06 -6.7802470080043169e-08 0 -7.8511039351427391e-06 -5.4677263820756749e-07 0 -4.5644108756837526e-06 2.0139931402989904e-07 0 -7.8511039351427391e-06 -5.4677263820756749e-07 0 -5.3065455237417544e-06 1.8807466166973536e-07 0 -4.5644108756837526e-06 2.0139931402989904e-07 0 -5.3065455237417544e-06 1.8807466166973536e-07 0 -2.4255725229876334e-06 3.4163259717221034e-07 0 -4.5644108756837526e-06 2.0139931402989904e-07 0 -2.425572522987633e-06 3.4163259717221034e-07 0 -2.5521674995699827e-06 2.6628189019336015e-07 0 -2.5997070010149554e-09 2.2993190054167869e-10 0 -2.5521674995699827e-06 2.6628189019336015e-07 0 -2.4255725229876334e-06 3.4163259717221034e-07 0 -2.5997070010149554e-09 2.2993190054167869e-10 0 -2.9008954833655885e-09 2.0523590718116075e-10 0 -2.5521674995699827e-06 2.6628189019336015e-07 0 -2.9008954833655885e-09 2.0523590718116075e-10 0 -3.1405973293549534e-06 1.6046567790352483e-07 0 -2.5521674995699827e-06 2.6628189019336015e-07 0 -2.9008954833655885e-09 2.0523590718116075e-10 0 -3.3157122244055928e-09 1.9659117435414221e-10 0 -3.1405973293549534e-06 1.6046567790352483e-07 0 -3.3157122244055928e-09 1.9659117435414221e-10 0 -3.1841290049699162e-06 -1.6624188468792609e-08 0 -3.1405973293549534e-06 1.6046567790352483e-07 0 -3.3476213119866264e-06 3.5893643096539567e-07 0 -4.5995266336126413e-06 3.707173796087406e-07 0 -2.6524043181335644e-06 2.6035113318679226e-07 0 -4.5340327626223441e-06 4.2712789953502025e-07 0 -2.6524043181335644e-06 2.6035113318679226e-07 0 -4.5995266336126413e-06 3.707173796087406e-07 0 -4.5995266336126413e-06 3.707173796087406e-07 0 -3.3476213119866264e-06 3.5893643096539567e-07 0 -6.0681340046017573e-06 2.1135913786936537e-07 0 -3.3476213119866264e-06 3.5893643096539567e-07 0 -5.3065455237417544e-06 1.8807466166973536e-07 0 -6.0681340046017573e-06 2.1135913786936537e-07 0 -3.3476213119866264e-06 3.5893643096539567e-07 0 -2.4255725229876334e-06 3.4163259717221029e-07 0 -5.3065455237417544e-06 1.8807466166973536e-07 0 -3.3476213119866264e-06 3.5893643096539567e-07 0 -1.5510568514156468e-06 2.5026964757656735e-07 0 -2.4255725229876334e-06 3.4163259717221034e-07 0 -2.290321695050871e-09 1.6683467162228394e-10 0 -2.5997070010149554e-09 2.2993190054167869e-10 0 -2.4255725229876334e-06 3.4163259717221034e-07 0 -2.290321695050871e-09 1.6683467162228394e-10 0 -2.4255725229876334e-06 3.4163259717221034e-07 0 -1.551056851415647e-06 2.5026964757656741e-07 0 -2.0890346492631239e-09 1.3728696345332469e-10 0 -2.290321695050871e-09 1.6683467162228394e-10 0 -1.551056851415647e-06 2.5026964757656741e-07 0 -2.0890346492631239e-09 1.3728696345332469e-10 0 -1.5510568514156473e-06 2.5026964757656741e-07 0 -1.3716762012006561e-06 2.0608475843026844e-07 0 -2.0012954312294181e-09 1.2774624646422815e-10 0 -1.3716762012006561e-06 2.0608475843026844e-07 0 -2.6524043181335644e-06 2.6035113318679226e-07 0 -3.3476213119866264e-06 3.5893643096539567e-07 0 -2.6524043181335644e-06 2.6035113318679226e-07 0 -1.3716762012006561e-06 2.0608475843026844e-07 0 -3.3476213119866264e-06 3.5893643096539567e-07 0 -1.3716762012006561e-06 2.0608475843026844e-07 0 -1.551056851415647e-06 2.5026964757656741e-07 0 -2.0012954312294181e-09 1.2774624646422815e-10 0 -2.0890346492631239e-09 1.3728696345332469e-10 0 -1.3716762012006561e-06 2.0608475843026844e-07 0 -2.0012954312294181e-09 1.2774624646422815e-10 0 -2.6524043181335644e-06 2.6035113318679226e-07 0 -1.6993317898288639e-06 3.8627957193503158e-08 0 -1.9848890837310641e-09 -1.0926132303018601e-10 0 -2.0012954312295107e-09 1.2774624646423027e-10 0 -1.6993317898288639e-06 3.8627957193503158e-08 0 -1.9848890837310641e-09 -1.0926132303018601e-10 0 -1.6993317898288639e-06 3.8627957193503158e-08 0 -1.3560828665124375e-06 -1.3735550578935012e-07 0 -2.9071557109049454e-06 -5.0089186711299821e-08 0 -1.3560828665124375e-06 -1.3735550578935012e-07 0 -1.6993317898288639e-06 3.8627957193503158e-08 0 -2.6524043181335644e-06 2.6035113318679226e-07 0 -3.1808434627340527e-06 1.7001536521164056e-07 0 -1.6993317898288639e-06 3.8627957193503158e-08 0 -4.5340327626223441e-06 4.2712789953502025e-07 0 -3.1808434627340523e-06 1.7001536521164056e-07 0 -2.6524043181335644e-06 2.6035113318679226e-07 0 -2.9071557109049454e-06 -5.0089186711299821e-08 0 -1.6993317898288639e-06 3.8627957193503158e-08 0 -3.1808434627340523e-06 1.7001536521164056e-07 0 -2.9071557109049454e-06 -5.0089186711299821e-08 0 -3.1808434627340523e-06 1.7001536521164056e-07 0 -4.1958595445649605e-06 2.1792204637386255e-07 0 -3.1808434627340523e-06 1.7001536521164056e-07 0 -4.5340327626223441e-06 4.2712789953502025e-07 0 -4.1958595445649605e-06 2.1792204637386255e-07 0 -2.9071557109049454e-06 -5.0089186711299821e-08 0 -4.1958595445649605e-06 2.1792204637386255e-07 0 -3.960637109115413e-06 -1.6769560717640022e-07 0 -3.7673738943714664e-06 -5.6663021767862494e-07 0 -2.072199440534587e-06 -3.9901041142256465e-07 0 -3.960637109115413e-06 -1.6769560717640022e-07 0 -2.9071557109049454e-06 -5.0089186711299821e-08 0 -3.960637109115413e-06 -1.6769560717640022e-07 0 -2.072199440534587e-06 -3.9901041142256465e-07 0 -2.9071557109049454e-06 -5.0089186711299821e-08 0 -2.072199440534587e-06 -3.9901041142256465e-07 0 -1.3560828665124375e-06 -1.3735550578935012e-07 0 -2.0185653808911532e-09 -3.5860748483240405e-11 0 -1.984889083730816e-09 -1.0926132303016084e-10 0 -1.3560828665124375e-06 -1.3735550578935012e-07 0 -2.4261704621787624e-09 -3.7966069927097101e-10 0 -2.0185653808911532e-09 -3.5860748483240405e-11 0 -2.072199440534587e-06 -3.9901041142256465e-07 0 -2.0185653808911532e-09 -3.5860748483240405e-11 0 -1.3560828665124375e-06 -1.3735550578935014e-07 0 -2.072199440534587e-06 -3.9901041142256465e-07 0 -2.8405481314861311e-09 -4.8266444718428313e-10 0 -2.4261704621787624e-09 -3.7966069927097101e-10 0 -2.2814550218356728e-06 -6.9512748511308079e-07 0 -3.7673738943714664e-06 -5.6663021767862494e-07 0 -2.2814550218356728e-06 -6.9512748511308079e-07 0 -2.072199440534587e-06 -3.9901041142256465e-07 0 -2.4261704621787624e-09 -3.7966069927097101e-10 0 -2.072199440534587e-06 -3.9901041142256465e-07 0 -2.2814550218356728e-06 -6.9512748511308079e-07 0 -3.4848758141884359e-09 -6.7483377884576801e-10 0 -2.8405481314861311e-09 -4.8266444718428313e-10 0 -3.0768134482748639e-06 -1.0076130407553492e-06 0 -2.8405481314861311e-09 -4.8266444718428313e-10 0 -2.2814550218356728e-06 -6.9512748511308079e-07 0 -3.0768134482748639e-06 -1.0076130407553492e-06 0 -3.4848758141884359e-09 -6.7483377884576801e-10 0 -3.0768134482748639e-06 -1.0076130407553492e-06 0 -3.3931630651228352e-06 -9.9654368203050903e-07 0 -3.0768134482748639e-06 -1.0076130407553492e-06 0 -5.3096395458676943e-06 -8.3194012068199417e-07 0 -6.4141360410659067e-06 -1.1171949021045114e-06 0 -7.448184116737989e-06 -6.4752594151764187e-07 0 -6.4141360410659067e-06 -1.1171949021045114e-06 0 -5.3096395458676943e-06 -8.3194012068199417e-07 0 -3.0768134482748639e-06 -1.0076130407553492e-06 0 -2.2814550218356728e-06 -6.9512748511308079e-07 0 -5.3096395458676943e-06 -8.3194012068199417e-07 0 -7.448184116737989e-06 -6.4752594151764187e-07 0 -1.0068681244712901e-05 -1.1070756856257703e-07 0 -6.4141360410659067e-06 -1.1171949021045114e-06 0 -3.7673738943714664e-06 -5.6663021767862494e-07 0 -5.3096395458676943e-06 -8.3194012068199417e-07 0 -2.2814550218356728e-06 -6.9512748511308079e-07 0 -3.7673738943714664e-06 -5.6663021767862494e-07 0 -5.2127556180473873e-06 -1.1606660631722297e-07 0 -5.3096395458676943e-06 -8.3194012068199417e-07 0 -3.7673738943714664e-06 -5.6663021767862494e-07 0 -3.9606371091154138e-06 -1.6769560717640017e-07 0 -5.2127556180473873e-06 -1.1606660631722297e-07 0 -7.2538928813491419e-06 5.411237854865986e-07 0 -5.3096395458676943e-06 -8.3194012068199417e-07 0 -5.2127556180473873e-06 -1.1606660631722297e-07 0 -5.8082743605031783e-06 6.2950921835684497e-07 0 -7.2538928813491419e-06 5.411237854865986e-07 0 -5.2127556180473873e-06 -1.1606660631722297e-07 0 -5.8082743605031783e-06 6.2950921835684497e-07 0 -7.4514915644986017e-06 1.7226277052684923e-06 0 -7.2538928813491419e-06 5.411237854865986e-07 0 -7.2538928813491419e-06 5.411237854865986e-07 0 -8.4060317668251328e-06 9.9812293167595711e-08 0 -5.3096395458676943e-06 -8.3194012068199417e-07 0 -7.448184116737989e-06 -6.4752594151764187e-07 0 -8.4060317668251328e-06 9.9812293167595711e-08 0 -1.0068681244712901e-05 -1.1070756856257703e-07 0 -7.448184116737989e-06 -6.4752594151764187e-07 0 -5.3096395458676943e-06 -8.3194012068199417e-07 0 -8.4060317668251328e-06 9.9812293167595711e-08 0 -7.2538928813491419e-06 5.411237854865986e-07 0 -1.0142841494520055e-05 1.3591338735193371e-06 0 -8.4060317668251328e-06 9.9812293167595711e-08 0 -1.2806844251849847e-05 1.0132925872651753e-06 0 -1.0068681244712901e-05 -1.1070756856257703e-07 0 -8.4060317668251328e-06 9.9812293167595711e-08 0 -1.2806844251849847e-05 1.0132925872651753e-06 0 -8.4060317668251328e-06 9.9812293167595711e-08 0 -1.0142841494520055e-05 1.3591338735193371e-06 0 -1.2806844251849847e-05 1.0132925872651753e-06 0 -1.0142841494520055e-05 1.3591338735193371e-06 0 -1.2635960899164652e-05 2.8646920179455086e-06 0 -9.6547751774314366e-06 2.7050817423937769e-06 0 -1.2635960899164652e-05 2.8646920179455086e-06 0 -1.0142841494520055e-05 1.3591338735193371e-06 0 -9.6547751774314366e-06 2.7050817423937769e-06 0 -1.2680725380230114e-05 5.1796134084843663e-06 0 -1.2635960899164652e-05 2.8646920179455086e-06 0 -1.5770231128705848e-05 5.0024820493145681e-06 0 -1.7472254880218285e-05 3.2604214887215918e-06 0 -1.2635960899164652e-05 2.8646920179455086e-06 0 -1.5770231128705848e-05 5.0024820493145681e-06 0 -1.2635960899164652e-05 2.8646920179455086e-06 0 -1.2680725380230114e-05 5.1796134084843655e-06 0 -9.6547751774314366e-06 2.7050817423937769e-06 0 -7.2538928813491419e-06 5.411237854865986e-07 0 -7.4514915644986017e-06 1.7226277052684923e-06 0 -9.6547751774314366e-06 2.7050817423937769e-06 0 -1.0142841494520057e-05 1.3591338735193373e-06 0 -7.2538928813491419e-06 5.411237854865986e-07 0 -9.6547751774314366e-06 2.7050817423937769e-06 0 -7.4514915644986017e-06 1.7226277052684923e-06 0 -9.140621038196496e-06 3.6480054894383336e-06 0 -9.6547751774314366e-06 2.7050817423937769e-06 0 -9.140621038196496e-06 3.6480054894383336e-06 0 -1.0558601192890866e-05 5.6157868876539984e-06 0 -8.0226406182060897e-06 2.3611608046168137e-06 0 -9.140621038196496e-06 3.6480054894383336e-06 0 -7.4514915644986017e-06 1.7226277052684923e-06 0 -9.504893753595974e-06 3.9412688139799486e-06 0 -9.140621038196496e-06 3.6480054894383336e-06 0 -8.0226406182060897e-06 2.3611608046168137e-06 0 -8.0226406182060897e-06 2.3611608046168137e-06 0 -7.4514915644986017e-06 1.7226277052684923e-06 0 -6.5649503532641011e-06 1.2173881890688041e-06 0 -7.3616988074393947e-06 1.2339420101525039e-06 0 -8.0226406182060897e-06 2.3611608046168137e-06 0 -6.5649503532641011e-06 1.2173881890688041e-06 0 -9.504893753595974e-06 3.9412688139799486e-06 0 -8.0226406182060897e-06 2.3611608046168137e-06 0 -9.3125500296406334e-06 2.3523394701049043e-06 0 -7.3616988074393947e-06 1.2339420101525039e-06 0 -9.3125500296406334e-06 2.3523394701049043e-06 0 -8.0226406182060897e-06 2.3611608046168137e-06 0 -7.3616988074393947e-06 1.2339420101525039e-06 0 -9.7274213899633439e-06 9.2452141644975562e-07 0 -9.3125500296406334e-06 2.3523394701049043e-06 0 -7.3616988074393947e-06 1.2339420101525039e-06 0 -6.2667636880024533e-06 6.6522515558292065e-07 0 -7.936318075338854e-06 4.6470375664508525e-07 0 -7.3616988074393947e-06 1.2339420101525039e-06 0 -7.936318075338854e-06 4.6470375664508525e-07 0 -9.7274213899633439e-06 9.2452141644975562e-07 0 -7.3616988074393947e-06 1.2339420101525039e-06 0 -6.5649503532641011e-06 1.2173881890688041e-06 0 -5.377257497236022e-06 6.3410857258131211e-07 0 -7.3616988074393947e-06 1.2339420101525039e-06 0 -5.377257497236022e-06 6.3410857258131211e-07 0 -6.2667636880024533e-06 6.6522515558292075e-07 0 -4.5340327626223441e-06 4.2712789953502025e-07 0 -6.2667636880024533e-06 6.6522515558292075e-07 0 -5.377257497236022e-06 6.3410857258131211e-07 0 -4.1958595445649605e-06 2.1792204637386255e-07 0 -4.5340327626223441e-06 4.2712789953502025e-07 0 -5.377257497236022e-06 6.3410857258131211e-07 0 -5.8082743605031783e-06 6.2950921835684497e-07 0 -4.1958595445649605e-06 2.1792204637386255e-07 0 -5.377257497236022e-06 6.3410857258131211e-07 0 -5.8082743605031783e-06 6.2950921835684497e-07 0 -3.960637109115413e-06 -1.6769560717640022e-07 0 -4.1958595445649605e-06 2.1792204637386255e-07 0 -5.8082743605031783e-06 6.2950921835684497e-07 0 -5.2127556180473873e-06 -1.1606660631722297e-07 0 -3.960637109115413e-06 -1.6769560717640022e-07 0 -6.5649503532641011e-06 1.2173881890688041e-06 0 -7.4514915644986017e-06 1.7226277052684923e-06 0 -5.8082743605031783e-06 6.2950921835684497e-07 0 -5.8082743605031783e-06 6.2950921835684497e-07 0 -5.377257497236022e-06 6.3410857258131221e-07 0 -6.5649503532641011e-06 1.2173881890688041e-06 0 -2.8385392666404759e-05 8.6188165190284407e-06 0 -1.8832107067800808e-05 6.6516223419468749e-06 0 -1.702580659751683e-05 4.1043576708793676e-06 0 -1.1563111628550771e-05 1.28997307889099e-06 0 -1.702580659751683e-05 4.1043576708793676e-06 0 -8.2066754099992411e-06 1.9730047373875355e-06 0 -9.7766211892532317e-06 4.6900265014443504e-06 0 -8.2066754099992411e-06 1.9730047373875355e-06 0 -1.8832107067800808e-05 6.6516223419468749e-06 0 -1.8832107067800808e-05 6.6516223419468749e-06 0 -8.2066754099992411e-06 1.9730047373875355e-06 0 -1.702580659751683e-05 4.1043576708793676e-06 0 -9.7766211892532317e-06 4.6900265014443504e-06 0 -4.1144616992112909e-06 1.4323689243104854e-06 0 -8.2066754099992411e-06 1.9730047373875355e-06 0 -1.1050564048333736e-08 4.7180560359968167e-09 0 -4.1144616992112909e-06 1.4323689243104854e-06 0 -9.7766211892532317e-06 4.6900265014443504e-06 0 -1.1050564048333736e-08 4.7180560359968167e-09 0 -6.2420321773944005e-09 -7.4893482690887281e-10 0 -4.1144616992112909e-06 1.4323689243104854e-06 0 -6.2420321773944005e-09 -7.4893482690887281e-10 0 -8.2066754099992411e-06 1.9730047373875355e-06 0 -4.1144616992112909e-06 1.4323689243104854e-06 0 -6.2420321773944005e-09 -7.4893482690887281e-10 0 -5.6089878435932941e-06 1.6276205928944967e-07 0 -8.2066754099992411e-06 1.9730047373875355e-06 0 -1.1563111628550771e-05 1.28997307889099e-06 0 -8.2066754099992411e-06 1.9730047373875355e-06 0 -5.6089878435932933e-06 1.627620592894492e-07 0 -6.2420321773944005e-09 -7.4893482690887281e-10 0 -6.7158116305199651e-09 5.3663507469715708e-10 0 -5.6089878435932933e-06 1.627620592894492e-07 0 -6.7158116305198601e-09 5.3663507469715429e-10 0 -4.8270646391532533e-09 -1.0403877135861548e-09 0 -5.6089878435932933e-06 1.627620592894492e-07 0 -1.1563111628550771e-05 1.28997307889099e-06 0 -5.6089878435932933e-06 1.627620592894492e-07 0 -7.3394489264080575e-06 -4.5594013991401421e-07 0 -1.1563111628550771e-05 1.28997307889099e-06 0 -7.3394489264080583e-06 -4.5594013991401416e-07 0 -1.2986775777285746e-05 5.5607945814366873e-07 0 -1.1563111628550771e-05 1.28997307889099e-06 0 -1.7611364025892496e-05 2.274015619198294e-06 0 -1.702580659751683e-05 4.1043576708793676e-06 0 -2.3582662164358554e-05 4.738178698634992e-06 0 -1.702580659751683e-05 4.1043576708793676e-06 0 -1.7611364025892496e-05 2.274015619198294e-06 0 -1.6871963083258625e-05 1.1725979264159543e-06 0 -1.7611364025892493e-05 2.2740156191982936e-06 0 -1.2986775777285746e-05 5.5607945814366873e-07 0 -1.1563111628550771e-05 1.28997307889099e-06 0 -1.2986775777285746e-05 5.5607945814366873e-07 0 -1.7611364025892496e-05 2.274015619198294e-06 0 -1.6871963083258625e-05 1.1725979264159543e-06 0 -1.2986775777285746e-05 5.5607945814366873e-07 0 -1.1325480168956656e-05 -2.4562228151360728e-07 0 -7.3968389624655511e-06 -9.6375624572702382e-07 0 -1.1325480168956656e-05 -2.4562228151360728e-07 0 -7.3394489264080575e-06 -4.5594013991401421e-07 0 -7.3394489264080575e-06 -4.5594013991401421e-07 0 -1.1325480168956655e-05 -2.4562228151360744e-07 0 -1.2986775777285746e-05 5.5607945814366873e-07 0 -4.8270646391532533e-09 -1.0403877135861548e-09 0 -3.5961553402144774e-06 -7.3437496120120127e-07 0 -7.3394489264080575e-06 -4.5594013991401421e-07 0 -4.8270646391532533e-09 -1.0403877135861548e-09 0 -7.3394489264080583e-06 -4.5594013991401437e-07 0 -5.6089878435932933e-06 1.627620592894492e-07 0 -4.8270646391532533e-09 -1.0403877135861548e-09 0 -4.3769499581336436e-09 -4.1199343968152224e-10 0 -3.5961553402144774e-06 -7.3437496120120127e-07 0 -7.3968389624655511e-06 -9.6375624572702382e-07 0 -7.3394489264080575e-06 -4.5594013991401416e-07 0 -3.5961553402144774e-06 -7.3437496120120127e-07 0 -7.3968389624655511e-06 -9.6375624572702382e-07 0 -3.5961553402144774e-06 -7.3437496120120127e-07 0 -3.3931630651228352e-06 -9.9654368203050903e-07 0 -4.3769499581336436e-09 -4.1199343968152224e-10 0 -3.3931630651228352e-06 -9.9654368203050903e-07 0 -3.5961553402144774e-06 -7.3437496120120127e-07 0 -4.3769499581336436e-09 -4.1199343968152224e-10 0 -3.4848758141884359e-09 -6.7483377884576801e-10 0 -3.3931630651228352e-06 -9.9654368203050903e-07 0 -3.0768134482748639e-06 -1.0076130407553492e-06 0 -6.4141360410659067e-06 -1.1171949021045114e-06 0 -3.3931630651228352e-06 -9.9654368203050903e-07 0 -7.3968389624655511e-06 -9.6375624572702382e-07 0 -3.3931630651228352e-06 -9.9654368203050903e-07 0 -6.4141360410659067e-06 -1.1171949021045114e-06 0 -7.3968389624655511e-06 -9.6375624572702382e-07 0 -1.2033371063653802e-05 -1.5283924270050415e-07 0 -1.1325480168956656e-05 -2.4562228151360728e-07 0 -7.3968389624655511e-06 -9.6375624572702382e-07 0 -6.4141360410659058e-06 -1.1171949021045114e-06 0 -1.2033371063653802e-05 -1.5283924270050415e-07 0 -1.2033371063653802e-05 -1.5283924270050415e-07 0 -6.4141360410659067e-06 -1.1171949021045114e-06 0 -1.0068681244712901e-05 -1.1070756856257703e-07 0 -1.2806844251849847e-05 1.0132925872651753e-06 0 -1.2033371063653802e-05 -1.5283924270050415e-07 0 -1.0068681244712901e-05 -1.1070756856257703e-07 0 -1.2806844251849847e-05 1.0132925872651753e-06 0 -1.7360750577027333e-05 1.4946349627978369e-06 0 -1.2033371063653802e-05 -1.5283924270050415e-07 0 -1.2806844251849847e-05 1.0132925872651753e-06 0 -1.2635960899164652e-05 2.8646920179455086e-06 0 -1.7472254880218285e-05 3.2604214887215918e-06 0 -2.1542073293539594e-05 3.7287304515770501e-06 0 -1.7472254880218285e-05 3.2604214887215918e-06 0 -2.4755297326522279e-05 6.4797829619880238e-06 0 -2.1542073293539594e-05 3.7287304515770501e-06 0 -1.7360750577027333e-05 1.4946349627978369e-06 0 -1.7472254880218285e-05 3.2604214887215918e-06 0 -1.2806844251849847e-05 1.0132925872651753e-06 0 -1.7472254880218285e-05 3.2604214887215918e-06 0 -1.7360750577027333e-05 1.4946349627978369e-06 0 -2.1542073293539594e-05 3.7287304515770501e-06 0 -2.4672770071616334e-05 3.7536783478376382e-06 0 -1.7360750577027333e-05 1.4946349627978369e-06 0 -2.1542073293539594e-05 3.7287304515770501e-06 0 -2.4755297326522279e-05 6.4797829619880238e-06 0 -2.8730898986584953e-05 6.1928618218717772e-06 0 -2.1542073293539594e-05 3.7287304515770501e-06 0 -2.8730898986584953e-05 6.1928618218717772e-06 0 -2.4672770071616334e-05 3.7536783478376377e-06 0 -1.6871963083258625e-05 1.1725979264159543e-06 0 -1.7360750577027333e-05 1.4946349627978369e-06 0 -2.4672770071616334e-05 3.7536783478376377e-06 0 -1.6871963083258625e-05 1.1725979264159543e-06 0 -2.4672770071616334e-05 3.7536783478376377e-06 0 -2.2664160129591832e-05 3.3582179994499351e-06 0 -1.6871963083258625e-05 1.1725979264159543e-06 0 -1.2033371063653802e-05 -1.5283924270050415e-07 0 -1.7360750577027333e-05 1.4946349627978369e-06 0 -1.6871963083258625e-05 1.1725979264159543e-06 0 -1.1325480168956655e-05 -2.4562228151360749e-07 0 -1.2033371063653802e-05 -1.5283924270050415e-07 0 -1.6871963083258625e-05 1.1725979264159543e-06 0 -2.2664160129591832e-05 3.3582179994499351e-06 0 -1.7611364025892496e-05 2.274015619198294e-06 0 -2.3582662164358554e-05 4.738178698634992e-06 0 -1.7611364025892496e-05 2.274015619198294e-06 0 -2.2664160129591832e-05 3.3582179994499351e-06 0 -3.0625823368577466e-05 6.1724971488657151e-06 0 -2.3582662164358551e-05 4.7381786986349912e-06 0 -2.2664160129591832e-05 3.3582179994499351e-06 0 -3.0625823368577466e-05 6.1724971488657151e-06 0 -2.2664160129591832e-05 3.3582179994499351e-06 0 -2.4672770071616334e-05 3.7536783478376377e-06 0 -3.0625823368577466e-05 6.1724971488657151e-06 0 -2.4672770071616334e-05 3.7536783478376373e-06 0 -3.6866991329597359e-05 8.6360381243631669e-06 0 -2.4672770071616334e-05 3.7536783478376377e-06 0 -2.8730898986584953e-05 6.1928618218717772e-06 0 -3.6866991329597359e-05 8.6360381243631669e-06 0 -3.0625823368577466e-05 6.1724971488657151e-06 0 -3.6866991329597359e-05 8.6360381243631669e-06 0 -4.0500049387641175e-05 1.0286379988070245e-05 0 -3.0625823368577466e-05 6.1724971488657151e-06 0 -4.0500049387641175e-05 1.0286379988070245e-05 0 -3.2568242618417649e-05 7.9595127601100384e-06 0 -4.9352874645433375e-05 1.4237882738921852e-05 0 -4.0500049387641175e-05 1.0286379988070245e-05 0 -3.6866991329597359e-05 8.6360381243631669e-06 0 -5.023382750265418e-05 1.5284633856246619e-05 0 -3.8801212717458573e-05 1.1354982770900104e-05 0 -4.0500049387641175e-05 1.0286379988070245e-05 0 -3.8801212717458573e-05 1.1354982770900104e-05 0 -3.2568242618417649e-05 7.9595127601100384e-06 0 -4.0500049387641175e-05 1.0286379988070245e-05 0 -3.8801212717458573e-05 1.1354982770900104e-05 0 -2.8385392666404759e-05 8.6188165190284407e-06 0 -3.2568242618417649e-05 7.9595127601100384e-06 0 -3.0625823368577466e-05 6.1724971488657151e-06 0 -3.2568242618417649e-05 7.9595127601100384e-06 0 -2.3582662164358554e-05 4.738178698634992e-06 0 -2.8385392666404759e-05 8.6188165190284407e-06 0 -2.3582662164358554e-05 4.738178698634992e-06 0 -3.2568242618417649e-05 7.9595127601100384e-06 0 -2.8385392666404759e-05 8.6188165190284407e-06 0 -1.7025806597516833e-05 4.1043576708793676e-06 0 -2.3582662164358554e-05 4.738178698634992e-06 0 -7.6323898027297525e-05 2.978886721589509e-05 0 -6.0808483941809624e-05 2.1346624979702629e-05 0 -7.1497153964142078e-05 2.9020465192926111e-05 0 -9.1274154597480753e-05 4.1506507539677805e-05 0 -7.6323898027297525e-05 2.978886721589509e-05 0 -7.1497153964142078e-05 2.9020465192926111e-05 0 -5.9128960835994841e-05 2.4429855386990416e-05 0 -7.1497153964142078e-05 2.9020465192926111e-05 0 -6.0808483941809624e-05 2.1346624979702629e-05 0 -5.9128960835994841e-05 2.4429855386990416e-05 0 -7.4007402967249289e-05 3.5683624977633553e-05 0 -7.1497153964142078e-05 2.9020465192926111e-05 0 -7.6323898027297525e-05 2.978886721589509e-05 0 -6.2639917468477866e-05 2.1176198311704191e-05 0 -6.0808483941809624e-05 2.1346624979702629e-05 0 -6.2639917468477866e-05 2.1176198311704191e-05 0 -5.023382750265418e-05 1.5284633856246619e-05 0 -4.9352874645433375e-05 1.4237882738921852e-05 0 -5.023382750265418e-05 1.5284633856246619e-05 0 -4.0500049387641175e-05 1.0286379988070245e-05 0 -4.9352874645433375e-05 1.4237882738921852e-05 0 -6.2639917468477866e-05 2.1176198311704191e-05 0 -4.9352874645433375e-05 1.4237882738921852e-05 0 -6.0808483941809624e-05 2.1346624979702629e-05 0 -4.9352874645433375e-05 1.4237882738921852e-05 0 -4.5997936102148129e-05 1.4912290083611366e-05 0 -6.0808483941809624e-05 2.1346624979702629e-05 0 -3.6384859472712173e-05 9.8219712944125698e-06 0 -4.5997936102148129e-05 1.4912290083611366e-05 0 -3.6866991329597359e-05 8.6360381243631669e-06 0 -4.9352874645433375e-05 1.4237882738921852e-05 0 -3.6866991329597359e-05 8.6360381243631669e-06 0 -4.5997936102148129e-05 1.4912290083611366e-05 0 -3.6384859472712173e-05 9.8219712944125698e-06 0 -3.6866991329597359e-05 8.6360381243631669e-06 0 -2.8730898986584953e-05 6.1928618218717772e-06 0 -5.9128960835994841e-05 2.4429855386990416e-05 0 -4.5997936102148129e-05 1.4912290083611366e-05 0 -4.9382048354859961e-05 2.207872774264851e-05 0 -5.9128960835994841e-05 2.4429855386990416e-05 0 -6.0808483941809624e-05 2.1346624979702629e-05 0 -4.5997936102148129e-05 1.4912290083611366e-05 0 -5.9128960835994841e-05 2.4429855386990416e-05 0 -4.9382048354859961e-05 2.207872774264851e-05 0 -6.0200240455229349e-05 3.2234073342534638e-05 0 -4.9382048354859961e-05 2.207872774264851e-05 0 -3.7652124053206534e-05 1.5644529655437989e-05 0 -4.3921168557745474e-05 2.6907947625322279e-05 0 -3.7652124053206534e-05 1.5644529655437989e-05 0 -3.2115752411551466e-05 1.747799791301413e-05 0 -4.3921168557745474e-05 2.6907947625322279e-05 0 -3.7652124053206534e-05 1.5644529655437989e-05 0 -2.8402441645765101e-05 1.09149745225051e-05 0 -3.2115752411551466e-05 1.747799791301413e-05 0 -3.7652124053206534e-05 1.5644529655437989e-05 0 -4.9382048354859961e-05 2.207872774264851e-05 0 -4.5997936102148129e-05 1.4912290083611366e-05 0 -3.7652124053206534e-05 1.5644529655437989e-05 0 -4.5997936102148129e-05 1.4912290083611366e-05 0 -3.3281048379664961e-05 1.0438418794948533e-05 0 -3.6384859472712173e-05 9.8219712944125698e-06 0 -3.3281048379664961e-05 1.0438418794948533e-05 0 -4.5997936102148129e-05 1.4912290083611366e-05 0 -3.6384859472712173e-05 9.8219712944125698e-06 0 -2.8730898986584953e-05 6.1928618218717772e-06 0 -3.3281048379664961e-05 1.0438418794948533e-05 0 -2.4755297326522279e-05 6.4797829619880238e-06 0 -3.3281048379664961e-05 1.0438418794948533e-05 0 -2.8730898986584953e-05 6.1928618218717772e-06 0 -2.4755297326522279e-05 6.4797829619880238e-06 0 -2.8402441645765101e-05 1.09149745225051e-05 0 -3.3281048379664961e-05 1.0438418794948533e-05 0 -3.7652124053206534e-05 1.5644529655437989e-05 0 -3.3281048379664961e-05 1.0438418794948533e-05 0 -2.8402441645765101e-05 1.09149745225051e-05 0 -2.4755297326522279e-05 6.4797829619880238e-06 0 -2.0867069676027933e-05 7.1580218094526948e-06 0 -2.8402441645765101e-05 1.09149745225051e-05 0 -2.3755852772812135e-05 1.25231336412093e-05 0 -2.8402441645765101e-05 1.09149745225051e-05 0 -2.0867069676027936e-05 7.1580218094526956e-06 0 -2.4755297326522279e-05 6.4797829619880238e-06 0 -1.7472254880218285e-05 3.2604214887215918e-06 0 -2.0867069676027936e-05 7.1580218094526956e-06 0 -1.5770231128705848e-05 5.0024820493145681e-06 0 -1.7242728324240495e-05 8.3024508199534721e-06 0 -2.0867069676027936e-05 7.1580218094526956e-06 0 -1.5770231128705848e-05 5.0024820493145681e-06 0 -2.0867069676027936e-05 7.1580218094526956e-06 0 -1.7472254880218285e-05 3.2604214887215918e-06 0 -2.3755852772812135e-05 1.25231336412093e-05 0 -2.0867069676027936e-05 7.1580218094526948e-06 0 -1.7242728324240495e-05 8.3024508199534721e-06 0 -2.3755852772812135e-05 1.25231336412093e-05 0 -1.7242728324240495e-05 8.3024508199534721e-06 0 -1.825900987374833e-05 1.4085788600087981e-05 0 -2.3755852772812135e-05 1.25231336412093e-05 0 -3.2115752411551466e-05 1.747799791301413e-05 0 -2.8402441645765101e-05 1.09149745225051e-05 0 -2.3755852772812135e-05 1.25231336412093e-05 0 -2.7563857272282493e-05 2.0846370424700801e-05 0 -3.2115752411551466e-05 1.747799791301413e-05 0 -2.3755852772812135e-05 1.25231336412093e-05 0 -1.825900987374833e-05 1.4085788600087981e-05 0 -2.7563857272282493e-05 2.0846370424700801e-05 0 -1.8265025095640886e-05 2.090528636912699e-05 0 -2.5962964161294487e-05 2.8050790311364299e-05 0 -2.7563857272282493e-05 2.0846370424700801e-05 0 -1.8265025095640886e-05 2.090528636912699e-05 0 -2.7563857272282493e-05 2.0846370424700801e-05 0 -1.825900987374833e-05 1.4085788600087981e-05 0 -4.3921168557745474e-05 2.6907947625322279e-05 0 -2.7563857272282493e-05 2.0846370424700804e-05 0 -3.6434945919819182e-05 3.1845078042587574e-05 0 -4.3921168557745474e-05 2.6907947625322279e-05 0 -3.2115752411551466e-05 1.747799791301413e-05 0 -2.7563857272282493e-05 2.0846370424700801e-05 0 -2.7563857272282493e-05 2.0846370424700801e-05 0 -2.5962964161294487e-05 2.8050790311364299e-05 0 -3.6434945919819182e-05 3.1845078042587574e-05 0 -3.4053828813853507e-05 4.2216354516955238e-05 0 -2.5962964161294487e-05 2.8050790311364299e-05 0 -1.8747216270535746e-05 3.0977686345566452e-05 0 -3.4053828813853507e-05 4.2216354516955238e-05 0 -1.8747216270535746e-05 3.0977686345566452e-05 0 -2.7063615203525951e-05 5.5576341032685942e-05 0 -3.4053828813853507e-05 4.2216354516955238e-05 0 -2.7063615203525951e-05 5.5576341032685942e-05 0 -3.9307120660974872e-05 6.1590098821504946e-05 0 -3.4053828813853507e-05 4.2216354516955238e-05 0 -3.9307120660974872e-05 6.1590098821504932e-05 0 -5.2948711670925758e-05 6.6170358947864242e-05 0 -3.4053828813853507e-05 4.2216354516955238e-05 0 -5.2411997747344702e-05 4.6011818077268732e-05 0 -3.6434945919819182e-05 3.1845078042587574e-05 0 -3.4053828813853507e-05 4.2216354516955238e-05 0 -3.6434945919819182e-05 3.1845078042587567e-05 0 -2.5962964161294487e-05 2.8050790311364299e-05 0 -3.4053828813853507e-05 4.2216354516955238e-05 0 -5.2948711670925758e-05 6.6170358947864242e-05 0 -5.2411997747344702e-05 4.6011818077268732e-05 0 -7.1683679331183684e-05 6.9406020799465915e-05 0 -5.2411997747344702e-05 4.6011818077268732e-05 0 -5.2948711670925758e-05 6.6170358947864242e-05 0 -7.1683679331183684e-05 6.9406020799465915e-05 0 -6.2557279431325251e-05 4.3641039765500074e-05 0 -5.2411997747344702e-05 4.6011818077268732e-05 0 -4.3921168557745474e-05 2.6907947625322279e-05 0 -5.2411997747344695e-05 4.6011818077268732e-05 0 -6.2557279431325251e-05 4.3641039765500074e-05 0 -4.3921168557745474e-05 2.6907947625322279e-05 0 -6.2557279431325251e-05 4.3641039765500074e-05 0 -6.0200240455229349e-05 3.2234073342534638e-05 0 -4.3921168557745474e-05 2.6907947625322279e-05 0 -3.6434945919819182e-05 3.1845078042587581e-05 0 -5.2411997747344702e-05 4.6011818077268732e-05 0 -4.3921168557745474e-05 2.6907947625322279e-05 0 -6.0200240455229349e-05 3.2234073342534638e-05 0 -4.9382048354859961e-05 2.207872774264851e-05 0 -5.9128960835994841e-05 2.4429855386990416e-05 0 -6.0200240455229349e-05 3.2234073342534638e-05 0 -7.4007402967249289e-05 3.5683624977633553e-05 0 -7.5219712273551188e-05 4.6054480696817444e-05 0 -7.4007402967249289e-05 3.5683624977633553e-05 0 -6.0200240455229349e-05 3.2234073342534638e-05 0 -7.5219712273551188e-05 4.6054480696817444e-05 0 -6.0200240455229349e-05 3.2234073342534638e-05 0 -6.2557279431325251e-05 4.3641039765500074e-05 0 -7.5219712273551188e-05 4.6054480696817444e-05 0 -6.2557279431325251e-05 4.3641039765500074e-05 0 -8.0538461114725837e-05 6.0309969983730592e-05 0 -7.1683679331183684e-05 6.9406020799465915e-05 0 -8.0538461114725837e-05 6.0309969983730592e-05 0 -6.2557279431325251e-05 4.3641039765500074e-05 0 -9.9865124355781742e-05 8.4530577273586577e-05 0 -9.523481475666661e-05 6.2363941091225563e-05 0 -8.0538461114725837e-05 6.0309969983730592e-05 0 -7.1683679331183684e-05 6.9406020799465915e-05 0 -9.9865124355781742e-05 8.4530577273586577e-05 0 -8.0538461114725837e-05 6.0309969983730592e-05 0 -7.5219712273551188e-05 4.6054480696817444e-05 0 -8.0538461114725837e-05 6.0309969983730592e-05 0 -9.523481475666661e-05 6.2363941091225563e-05 0 -7.5219712273551188e-05 4.6054480696817444e-05 0 -9.523481475666661e-05 6.2363941091225563e-05 0 -8.8542970245336392e-05 4.7828283599703038e-05 0 -0.00012166622617602172 7.9268452615725187e-05 0 -9.523481475666661e-05 6.2363941091225563e-05 0 -9.9865124355781742e-05 8.4530577273586577e-05 0 -0.00012166622617602172 7.9268452615725187e-05 0 -0.00010681663283595669 5.8043425900642918e-05 0 -9.523481475666661e-05 6.2363941091225563e-05 0 -0.00010681663283595669 5.8043425900642918e-05 0 -8.8542970245336392e-05 4.7828283599703038e-05 0 -9.523481475666661e-05 6.2363941091225563e-05 0 -0.00010681663283595669 5.8043425900642918e-05 0 -9.1274154597480753e-05 4.1506507539677805e-05 0 -8.8542970245336392e-05 4.7828283599703038e-05 0 -9.1274154597480753e-05 4.1506507539677805e-05 0 -7.4007402967249275e-05 3.5683624977633546e-05 0 -8.8542970245336392e-05 4.7828283599703038e-05 0 -7.5219712273551188e-05 4.6054480696817444e-05 0 -8.8542970245336392e-05 4.7828283599703038e-05 0 -7.4007402967249289e-05 3.5683624977633553e-05 0 -9.1274154597480753e-05 4.1506507539677805e-05 0 -7.1497153964142078e-05 2.9020465192926111e-05 0 -7.4007402967249289e-05 3.5683624977633553e-05 0 -1.2717454857662297e-05 5.7436174645393764e-06 0 -1.3385272286392059e-05 8.3374962688211847e-06 0 -1.1215918961875443e-05 6.815811217998576e-06 0 -1.245372918675812e-05 1.0755605186398488e-05 0 -1.1215918961875443e-05 6.815811217998576e-06 0 -1.3385272286392059e-05 8.3374962688211847e-06 0 -1.245372918675812e-05 1.0755605186398488e-05 0 -1.3385272286392059e-05 8.3374962688211847e-06 0 -1.4445526842825499e-05 1.2159921125002342e-05 0 -1.2717454857662297e-05 5.7436174645393764e-06 0 -1.5785229546116617e-05 5.8217472556660827e-06 0 -1.3385272286392059e-05 8.3374962688211847e-06 0 -1.8638252653685899e-05 1.8067080481137675e-06 0 -1.5785229546116617e-05 5.8217472556660827e-06 0 -1.4205038760259766e-05 2.9084615187982097e-06 0 -1.2717454857662297e-05 5.7436174645393764e-06 0 -1.4205038760259764e-05 2.9084615187982097e-06 0 -1.5785229546116617e-05 5.8217472556660827e-06 0 -1.8638252653685899e-05 1.8067080481137675e-06 0 -1.4205038760259766e-05 2.9084615187982097e-06 0 -1.7039402098259627e-05 -2.7730561769865613e-08 0 -1.2717454857662297e-05 5.7436174645393764e-06 0 -1.0859207826920568e-05 4.0342571139926051e-06 0 -1.4205038760259766e-05 2.9084615187982097e-06 0 -1.173561255584636e-05 1.5352710544794056e-06 0 -1.4205038760259766e-05 2.9084615187982101e-06 0 -1.0859207826920568e-05 4.0342571139926051e-06 0 -1.4400216594178624e-05 -6.522319965693981e-08 0 -1.4205038760259766e-05 2.9084615187982097e-06 0 -1.173561255584636e-05 1.5352710544794056e-06 0 -1.173561255584636e-05 1.5352710544794056e-06 0 -9.3125500296406334e-06 2.3523394701049043e-06 0 -9.7274213899633439e-06 9.2452141644975562e-07 0 -1.173561255584636e-05 1.5352710544794056e-06 0 -1.0859207826920568e-05 4.0342571139926051e-06 0 -9.3125500296406334e-06 2.3523394701049043e-06 0 -9.504893753595974e-06 3.9412688139799486e-06 0 -9.3125500296406334e-06 2.3523394701049043e-06 0 -1.0859207826920568e-05 4.0342571139926051e-06 0 -1.2717454857662297e-05 5.7436174645393764e-06 0 -1.1215918961875443e-05 6.815811217998576e-06 0 -1.0859207826920568e-05 4.0342571139926051e-06 0 -9.504893753595974e-06 3.9412688139799486e-06 0 -1.0859207826920568e-05 4.0342571139926051e-06 0 -1.1215918961875443e-05 6.815811217998576e-06 0 -9.504893753595974e-06 3.9412688139799486e-06 0 -1.1215918961875443e-05 6.815811217998576e-06 0 -1.0558601192890866e-05 5.6157868876539984e-06 0 -9.504893753595974e-06 3.9412688139799486e-06 0 -1.0558601192890866e-05 5.6157868876539976e-06 0 -9.140621038196496e-06 3.6480054894383336e-06 0 -9.6547751774314366e-06 2.7050817423937769e-06 0 -1.0558601192890866e-05 5.6157868876539984e-06 0 -1.2680725380230114e-05 5.1796134084843655e-06 0 -1.3773451807623061e-05 8.961681432142812e-06 0 -1.0558601192890864e-05 5.6157868876539984e-06 0 -1.1912854907861975e-05 8.8088434336877964e-06 0 -1.3773451807623061e-05 8.961681432142812e-06 0 -1.2680725380230114e-05 5.1796134084843655e-06 0 -1.0558601192890866e-05 5.6157868876539984e-06 0 -1.0558601192890866e-05 5.6157868876539984e-06 0 -1.1215918961875443e-05 6.815811217998576e-06 0 -1.1912854907861975e-05 8.8088434336877964e-06 0 -1.5770231128705848e-05 5.0024820493145681e-06 0 -1.2680725380230114e-05 5.1796134084843655e-06 0 -1.7242728324240495e-05 8.3024508199534721e-06 0 -1.3773451807623061e-05 8.961681432142812e-06 0 -1.7242728324240495e-05 8.3024508199534721e-06 0 -1.2680725380230114e-05 5.1796134084843655e-06 0 -1.3773451807623061e-05 8.961681432142812e-06 0 -1.825900987374833e-05 1.4085788600087981e-05 0 -1.7242728324240495e-05 8.3024508199534721e-06 0 -1.3773451807623061e-05 8.961681432142812e-06 0 -1.3648267356377445e-05 1.3763054779699604e-05 0 -1.825900987374833e-05 1.4085788600087981e-05 0 -1.8265025095640886e-05 2.090528636912699e-05 0 -1.825900987374833e-05 1.4085788600087981e-05 0 -1.3648267356377445e-05 1.3763054779699604e-05 0 -1.245372918675812e-05 1.0755605186398488e-05 0 -1.1912854907861975e-05 8.8088434336877964e-06 0 -1.1215918961875443e-05 6.815811217998576e-06 0 -1.3773451807623061e-05 8.961681432142812e-06 0 -1.1912854907861975e-05 8.8088434336877964e-06 0 -1.3648267356377445e-05 1.3763054779699604e-05 0 -1.245372918675812e-05 1.0755605186398488e-05 0 -1.3648267356377445e-05 1.3763054779699604e-05 0 -1.1912854907861975e-05 8.8088434336877964e-06 0 -1.245372918675812e-05 1.0755605186398488e-05 0 -1.3137549226613185e-05 1.5394246161804077e-05 0 -1.3648267356377445e-05 1.3763054779699604e-05 0 -1.245372918675812e-05 1.0755605186398488e-05 0 -1.4445526842825499e-05 1.2159921125002342e-05 0 -1.3137549226613185e-05 1.5394246161804074e-05 0 -1.3648267356377445e-05 1.3763054779699604e-05 0 -1.3137549226613185e-05 1.5394246161804074e-05 0 -1.2748539568904102e-05 2.2109106502164494e-05 0 -1.47977925406078e-05 1.7013376883124231e-05 0 -1.2748539568904102e-05 2.2109106502164494e-05 0 -1.3137549226613185e-05 1.5394246161804074e-05 0 -1.47977925406078e-05 1.7013376883124231e-05 0 -1.4445526842825499e-05 1.2159921125002342e-05 0 -1.7868982970956702e-05 1.1574710990416149e-05 0 -1.47977925406078e-05 1.7013376883124231e-05 0 -1.3137549226613185e-05 1.5394246161804074e-05 0 -1.4445526842825499e-05 1.2159921125002342e-05 0 -1.8265025095640886e-05 2.090528636912699e-05 0 -1.3648267356377445e-05 1.3763054779699604e-05 0 -1.2748539568904102e-05 2.2109106502164494e-05 0 -1.8265025095640886e-05 2.090528636912699e-05 0 -1.2748539568904102e-05 2.2109106502164494e-05 0 -1.8747216270535746e-05 3.0977686345566452e-05 0 -1.8265025095640886e-05 2.090528636912699e-05 0 -1.8747216270535746e-05 3.0977686345566452e-05 0 -2.5962964161294487e-05 2.8050790311364299e-05 0 -7.1226885884295373e-06 3.3498316771791703e-05 0 -1.8747216270535746e-05 3.0977686345566452e-05 0 -1.2748539568904102e-05 2.2109106502164494e-05 0 -7.1226885884295373e-06 3.3498316771791703e-05 0 -2.7063615203525951e-05 5.5576341032685942e-05 0 -1.8747216270535746e-05 3.0977686345566452e-05 0 -7.1226885884295373e-06 3.3498316771791703e-05 0 -1.2748539568904102e-05 2.2109106502164494e-05 0 -1.5642378247108904e-05 2.196018528047747e-05 0 -1.47977925406078e-05 1.7013376883124231e-05 0 -2.0381569947611926e-05 1.239052991670689e-05 0 -1.5642378247108904e-05 2.196018528047747e-05 0 -1.47977925406078e-05 1.7013376883124231e-05 0 -1.7868982970956702e-05 1.1574710990416149e-05 0 -2.0381569947611926e-05 1.239052991670689e-05 0 -1.47977925406078e-05 1.7013376883124231e-05 0 -1.5642378247108904e-05 2.196018528047747e-05 0 -1.2748539568904102e-05 2.2109106502164494e-05 0 -2.3094775142052171e-05 8.6695771644583157e-06 0 -1.5642378247108904e-05 2.196018528047747e-05 0 -2.0381569947611926e-05 1.239052991670689e-05 0 -2.3094775142052171e-05 8.6695771644583157e-06 0 -2.0381569947611926e-05 1.239052991670689e-05 0 -2.7196774184681269e-05 1.3859507005227043e-06 0 -2.3556397388294918e-05 5.6638973785707195e-06 0 -2.7196774184681269e-05 1.3859507005227043e-06 0 -2.0381569947611926e-05 1.239052991670689e-05 0 -2.3556397388294918e-05 5.6638973785707195e-06 0 -2.0381569947611926e-05 1.239052991670689e-05 0 -1.7868982970956702e-05 1.1574710990416149e-05 0 -1.7346233703686997e-05 8.7705831654360061e-06 0 -1.7868982970956702e-05 1.1574710990416149e-05 0 -1.4445526842825499e-05 1.2159921125002342e-05 0 -1.7868982970956702e-05 1.1574710990416149e-05 0 -1.7346233703686997e-05 8.7705831654360061e-06 0 -2.3556397388294918e-05 5.6638973785707195e-06 0 -1.7346233703686997e-05 8.7705831654360061e-06 0 -2.1276342675777437e-05 3.7156517425582814e-06 0 -2.3556397388294918e-05 5.6638973785707195e-06 0 -1.7346233703686997e-05 8.7705831654360061e-06 0 -1.5785229546116617e-05 5.8217472556660827e-06 0 -2.1276342675777441e-05 3.715651742558281e-06 0 -1.7346233703686997e-05 8.7705831654360061e-06 0 -1.3385272286392059e-05 8.3374962688211847e-06 0 -1.5785229546116617e-05 5.8217472556660827e-06 0 -1.7346233703686997e-05 8.7705831654360061e-06 0 -1.4445526842825499e-05 1.2159921125002342e-05 0 -1.3385272286392059e-05 8.3374962688211847e-06 0 -1.8638252653685899e-05 1.8067080481137675e-06 0 -2.1276342675777441e-05 3.715651742558281e-06 0 -1.5785229546116617e-05 5.8217472556660827e-06 0 -1.8638252653685899e-05 1.8067080481137675e-06 0 -2.4559979288649453e-05 -1.8896510463655345e-06 0 -2.1276342675777441e-05 3.715651742558281e-06 0 -2.3556397388294918e-05 5.6638973785707195e-06 0 -2.7465049870221531e-05 -1.3519016167313522e-06 0 -3.1300232660860123e-05 -6.2992847472617499e-06 0 -3.0445550684025345e-05 -6.4635755300414693e-06 0 -2.7465049870221531e-05 -1.3519016167313522e-06 0 -2.4559979288649453e-05 -1.8896510463655345e-06 0 -2.4559979288649453e-05 -1.8896510463655345e-06 0 -2.7465049870221531e-05 -1.3519016167313522e-06 0 -2.1276342675777441e-05 3.715651742558281e-06 0 -2.3556397388294918e-05 5.6638973785707195e-06 0 -2.1276342675777441e-05 3.715651742558281e-06 0 -2.7465049870221531e-05 -1.3519016167313522e-06 0 -3.0445550684025345e-05 -6.4635755300414693e-06 0 -3.3414341511932844e-05 -9.8143598250180306e-06 0 -2.7465049870221531e-05 -1.3519016167313522e-06 0 -3.1300232660860123e-05 -6.2992847472617499e-06 0 -2.7465049870221531e-05 -1.3519016167313522e-06 0 -3.3414341511932844e-05 -9.8143598250180306e-06 0 -3.1300232660860123e-05 -6.2992847472617499e-06 0 -3.3414341511932844e-05 -9.8143598250180306e-06 0 -3.446637884876441e-05 -1.3897320553735983e-05 0 -3.2088045447115521e-05 -1.1909645465470641e-05 0 -3.1300232660860123e-05 -6.2992847472617508e-06 0 -3.446637884876441e-05 -1.3897320553735983e-05 0 -3.6814693317661512e-05 -1.6001479283944602e-05 0 -3.446637884876441e-05 -1.3897320553735983e-05 0 -3.3414341511932844e-05 -9.8143598250180306e-06 0 -3.6814693317661512e-05 -1.6001479283944602e-05 0 -3.6857462886744081e-05 -2.1446666747472176e-05 0 -3.446637884876441e-05 -1.3897320553735983e-05 0 -3.2088045447115521e-05 -1.1909645465470641e-05 0 -3.4466378848764404e-05 -1.3897320553735983e-05 0 -3.6857462886744088e-05 -2.1446666747472179e-05 0 -3.6814693317661512e-05 -1.6001479283944602e-05 0 -3.9733588707716365e-05 -2.1972340227633246e-05 0 -3.6857462886744088e-05 -2.1446666747472179e-05 0 -2.8620175467348852e-05 -2.2896318282045521e-05 0 -2.7828174946663122e-05 -1.5777987640379109e-05 0 -3.249491900099905e-05 -2.2262211002637205e-05 0 -3.2088045447115521e-05 -1.1909645465470641e-05 0 -3.249491900099905e-05 -2.2262211002637205e-05 0 -2.7828174946663122e-05 -1.5777987640379109e-05 0 -3.2088045447115521e-05 -1.1909645465470641e-05 0 -3.6857462886744088e-05 -2.1446666747472179e-05 0 -3.249491900099905e-05 -2.2262211002637205e-05 0 -3.2088045447115521e-05 -1.1909645465470641e-05 0 -2.7828174946663122e-05 -1.5777987640379109e-05 0 -2.685695342290154e-05 -3.080224472159686e-06 0 -2.3556397388294918e-05 5.6638973785707195e-06 0 -3.1300232660860123e-05 -6.2992847472617482e-06 0 -2.7196774184681269e-05 1.3859507005227043e-06 0 -3.2088045447115521e-05 -1.1909645465470641e-05 0 -2.685695342290154e-05 -3.0802244721596839e-06 0 -2.7196774184681269e-05 1.3859507005227043e-06 0 -3.2088045447115521e-05 -1.1909645465470641e-05 0 -2.7196774184681269e-05 1.3859507005227043e-06 0 -3.1300232660860123e-05 -6.2992847472617499e-06 0 -2.3094775142052171e-05 8.6695771644583157e-06 0 -2.7196774184681269e-05 1.3859507005227043e-06 0 -2.685695342290154e-05 -3.080224472159686e-06 0 -2.3094775142052171e-05 8.6695771644583157e-06 0 -2.0541519410182307e-05 9.6454381597276996e-06 0 -1.5642378247108904e-05 2.196018528047747e-05 0 -2.3094775142052171e-05 8.6695771644583157e-06 0 -2.685695342290154e-05 -3.080224472159686e-06 0 -2.0541519410182307e-05 9.6454381597276996e-06 0 -7.1226885884295373e-06 3.3498316771791703e-05 0 -1.5642378247108904e-05 2.1960185280477474e-05 0 -2.0541519410182307e-05 9.6454381597276996e-06 0 -9.4097848394038965e-06 -1.3638629607979244e-07 0 -2.0541519410182307e-05 9.6454381597276996e-06 0 -2.0912540833811064e-05 -9.2804457205298995e-06 0 -2.0912540833811064e-05 -9.2804457205298995e-06 0 -2.0541519410182307e-05 9.6454381597276996e-06 0 -2.685695342290154e-05 -3.080224472159686e-06 0 -2.7063615203525951e-05 5.5576341032685942e-05 0 -7.1226885884295373e-06 3.3498316771791703e-05 0 -2.1839321212319674e-05 8.9069927285544313e-05 0 -7.1226885884295373e-06 3.3498316771791703e-05 0 -2.0541519410182307e-05 9.6454381597276996e-06 0 -9.4097848394038965e-06 -1.3638629607979244e-07 0 -5.2783803326267226e-06 2.9807709309746383e-05 0 -8.6337156324467334e-07 4.568256061914559e-05 0 -7.1226885884295373e-06 3.3498316771791703e-05 0 5.4913840599252297e-06 8.5515427081348826e-05 0 -2.1839321212319674e-05 8.9069927285544313e-05 0 8.4021242788437081e-06 0.00012216441190326385 0 -2.8190681501255178e-05 0.00012074923426542807 0 -2.1839321212319674e-05 8.9069927285544313e-05 0 -8.6337156324467334e-07 4.568256061914559e-05 0 -2.8390298569128001e-06 5.3657323840656627e-05 0 -9.4097848394038965e-06 -1.3638629607979244e-07 0 -2.0912540833811064e-05 -9.2804457205298995e-06 0 -1.4783599839347739e-05 -1.2338691196573963e-05 0 5.4913840599252297e-06 8.5515427081348826e-05 0 8.4021242788437081e-06 0.00012216441190326385 0 -2.1839321212319674e-05 8.9069927285544313e-05 0 -2.8390298569128001e-06 5.3657323840656627e-05 0 -5.1098559531152437e-06 6.8287276755084092e-05 0 -1.4783599839347739e-05 -1.2338691196573963e-05 0 -2.2579479694546284e-05 -1.8862931756951996e-05 0 -1.968627474875989e-05 -1.9478113008144847e-05 0 8.4021242788437081e-06 0.00012216441190326385 0 -1.2135264329439083e-05 0.00014550327661351763 0 -2.8190681501255178e-05 0.00012074923426542807 0 -2.0912540833811064e-05 -9.2804457205298995e-06 0 -2.685695342290154e-05 -3.080224472159686e-06 0 -2.7828174946663122e-05 -1.5777987640379109e-05 0 -1.4783599839347739e-05 -1.2338691196573963e-05 0 -2.0912540833811064e-05 -9.2804457205298995e-06 0 -2.2579479694546284e-05 -1.8862931756951996e-05 0 -2.0912540833811064e-05 -9.2804457205298995e-06 0 -2.7828174946663122e-05 -1.5777987640379109e-05 0 -2.2579479694546284e-05 -1.8862931756951996e-05 0 -2.8620175467348852e-05 -2.2896318282045521e-05 0 -2.2579479694546284e-05 -1.8862931756951996e-05 0 -2.7828174946663122e-05 -1.5777987640379109e-05 0 -2.8620175467348852e-05 -2.2896318282045521e-05 0 -2.6834042555919449e-05 -2.6128947701869252e-05 0 -2.2579479694546284e-05 -1.8862931756951996e-05 0 -1.968627474875989e-05 -1.9478113008144847e-05 0 -2.2579479694546284e-05 -1.8862931756951996e-05 0 -2.6834042555919449e-05 -2.6128947701869252e-05 0 -1.968627474875989e-05 -1.9478113008144847e-05 0 -2.6834042555919449e-05 -2.6128947701869252e-05 0 -2.3672263625665378e-05 -2.4614661442859271e-05 0 -2.8620175467348852e-05 -2.2896318282045521e-05 0 -3.2002688265702938e-05 -2.8264282064942938e-05 0 -2.6834042555919449e-05 -2.6128947701869252e-05 0 -3.4741575263238939e-05 0.00015716789854116684 0 -1.2135264329439084e-05 0.00014550327661351763 0 -1.0828640033577158e-05 0.00016701130038234799 0 9.164214318548862e-06 0.00015510131029548138 0 -1.0828640033577158e-05 0.00016701130038234799 0 -1.2135264329439083e-05 0.00014550327661351763 0 8.4021242788437081e-06 0.00012216441190326385 0 9.164214318548862e-06 0.00015510131029548138 0 -1.2135264329439083e-05 0.00014550327661351763 0 -5.1098559531152437e-06 6.8287276755084092e-05 0 -7.7577369413763074e-06 8.1455374756646856e-05 0 9.164214318548862e-06 0.00015510131029548138 0 8.32607245211679e-06 0.00018791980161870998 0 -1.0828640033577158e-05 0.00016701130038234799 0 8.3260724521167866e-06 0.00018791980161870998 0 -2.4025779176521428e-05 0.00018669052424598727 0 -1.0828640033577158e-05 0.00016701130038234799 0 8.3260724521167866e-06 0.00018791980161870998 0 -1.7110702405784748e-05 0.00020829766475786643 0 -2.4025779176521428e-05 0.00018669052424598727 0 8.3260724521167866e-06 0.00018791980161870998 0 6.5787982613365753e-06 0.00022048765321987574 0 -1.7110702405784748e-05 0.00020829766475786643 0 -2.3672263625665378e-05 -2.4614661442859271e-05 0 -2.8831740848293928e-05 -3.0430621283674133e-05 0 -2.7434057608373331e-05 -2.905827973416111e-05 0 -7.7577369413763074e-06 8.1455374756646856e-05 0 -1.0711376593398848e-05 9.5726811160078381e-05 0 6.5787982613365753e-06 0.00022048765321987574 0 -2.6231663248727793e-05 0.00023162653472223898 0 -1.7110702405784748e-05 0.00020829766475786643 0 -3.2050555709691838e-05 -3.2079631093560625e-05 0 -2.8831740848293928e-05 -3.0430621283674133e-05 0 -2.6834042555919449e-05 -2.6128947701869252e-05 0 -3.2050555709691838e-05 -3.2079631093560625e-05 0 -2.6834042555919449e-05 -2.6128947701869252e-05 0 -3.2002688265702938e-05 -2.8264282064942942e-05 0 -2.3672263625665378e-05 -2.4614661442859271e-05 0 -2.6834042555919449e-05 -2.6128947701869252e-05 0 -2.8831740848293928e-05 -3.0430621283674133e-05 0 -3.2050555709691838e-05 -3.2079631093560625e-05 0 -3.4423545133517807e-05 -3.6302177247480276e-05 0 -2.8831740848293928e-05 -3.0430621283674133e-05 0 -3.2359208944762588e-05 -3.5597591562973857e-05 0 -2.8831740848293928e-05 -3.0430621283674133e-05 0 -3.4423545133517807e-05 -3.6302177247480276e-05 0 -3.2050555709691838e-05 -3.2079631093560625e-05 0 -3.7141469102783022e-05 -3.4525828347496592e-05 0 -3.4423545133517807e-05 -3.6302177247480276e-05 0 -3.8445826678146045e-05 -4.0201455846732726e-05 0 -3.4423545133517807e-05 -3.6302177247480276e-05 0 -3.7141469102783022e-05 -3.4525828347496592e-05 0 -3.2050555709691838e-05 -3.2079631093560625e-05 0 -3.2002688265702938e-05 -2.8264282064942942e-05 0 -3.7141469102783022e-05 -3.4525828347496592e-05 0 -3.5959437804847801e-05 -2.8834786287794787e-05 0 -3.934628118469065e-05 -2.9593594424121409e-05 0 -3.7141469102783022e-05 -3.4525828347496592e-05 0 -3.5959437804847801e-05 -2.8834786287794787e-05 0 -3.7141469102783022e-05 -3.4525828347496592e-05 0 -3.2002688265702938e-05 -2.8264282064942942e-05 0 -4.1610892500284171e-05 -3.4696705741663041e-05 0 -4.2132899992342285e-05 -4.1143701001695922e-05 0 -3.7141469102783022e-05 -3.4525828347496592e-05 0 -4.1610892500284171e-05 -3.4696705741663041e-05 0 -4.4749800043505032e-05 -3.7667206545103595e-05 0 -4.2132899992342285e-05 -4.1143701001695922e-05 0 -4.1610892500284171e-05 -3.4696705741663041e-05 0 -3.934628118469065e-05 -2.9593594424121409e-05 0 -4.3413533398068958e-05 -3.223715278184157e-05 0 -4.1610892500284171e-05 -3.4696705741663041e-05 0 -3.7141469102783022e-05 -3.4525828347496592e-05 0 -3.934628118469065e-05 -2.9593594424121409e-05 0 -3.5959437804847801e-05 -2.8834786287794787e-05 0 -3.6857462886744088e-05 -2.1446666747472179e-05 0 -3.934628118469065e-05 -2.9593594424121409e-05 0 -4.0773791224739926e-05 -2.690026042372477e-05 0 -4.3413533398068958e-05 -3.223715278184157e-05 0 -3.934628118469065e-05 -2.9593594424121409e-05 0 -4.0773791224739926e-05 -2.690026042372477e-05 0 -3.934628118469065e-05 -2.9593594424121409e-05 0 -3.6857462886744088e-05 -2.1446666747472179e-05 0 -4.0773791224739926e-05 -2.690026042372477e-05 0 -3.6857462886744088e-05 -2.1446666747472179e-05 0 -3.9733588707716365e-05 -2.1972340227633246e-05 0 -3.5959437804847801e-05 -2.8834786287794787e-05 0 -3.249491900099905e-05 -2.2262211002637205e-05 0 -3.6857462886744088e-05 -2.1446666747472179e-05 0 -2.8620175467348852e-05 -2.2896318282045521e-05 0 -3.249491900099905e-05 -2.2262211002637205e-05 0 -3.2002688265702938e-05 -2.8264282064942942e-05 0 -3.5959437804847801e-05 -2.8834786287794787e-05 0 -3.2002688265702938e-05 -2.8264282064942942e-05 0 -3.249491900099905e-05 -2.2262211002637205e-05 0 -0.00014655481128923533 0.0001343830353125932 0 -0.0001206994255434325 0.00011590625688066202 0 -0.00012278244086572163 0.00014456212868744516 0 -0.0001554712338475186 0.00016605909592843737 0 -0.00014655481128923533 0.0001343830353125932 0 -0.00012278244086572163 0.00014456212868744516 0 -0.00010093660101840945 0.00011527673236114277 0 -0.00012278244086572163 0.00014456212868744516 0 -0.0001206994255434325 0.00011590625688066202 0 -0.00014655481128923533 0.0001343830353125932 0 -0.00013471858550239863 0.00010478411488742629 0 -0.0001206994255434325 0.00011590625688066202 0 -0.00013471858550239863 0.00010478411488742629 0 -0.00012166622617602172 7.9268452615725187e-05 0 -9.9865124355781742e-05 8.4530577273586577e-05 0 -0.00010093660101840945 0.00011527673236114277 0 -0.0001206994255434325 0.00011590625688066202 0 -9.9865124355781742e-05 8.4530577273586577e-05 0 -0.00013471858550239863 0.00010478411488742629 0 -9.9865124355781742e-05 8.4530577273586577e-05 0 -0.0001206994255434325 0.00011590625688066202 0 -0.00010093660101840945 0.00011527673236114277 0 -9.9865124355781742e-05 8.4530577273586577e-05 0 -8.3916180067126385e-05 9.6184995980019256e-05 0 -7.1683679331183684e-05 6.9406020799465915e-05 0 -8.3916180067126385e-05 9.6184995980019256e-05 0 -9.9865124355781742e-05 8.4530577273586577e-05 0 -6.7619874396382019e-05 9.9389111162685346e-05 0 -8.4958453333062721e-05 0.00011709117767754882 0 -8.3916180067126385e-05 9.6184995980019256e-05 0 -0.00010093660101840945 0.00011527673236114277 0 -8.3916180067126385e-05 9.6184995980019256e-05 0 -8.4958453333062721e-05 0.00011709117767754882 0 -0.00010093660101840945 0.00011527673236114277 0 -8.4958453333062721e-05 0.00011709117767754882 0 -9.7190401490979808e-05 0.00014111812468840467 0 -0.00010093660101840945 0.00011527673236114277 0 -9.7190401490979808e-05 0.00014111812468840467 0 -0.00012278244086572163 0.00014456212868744516 0 -7.4776385504949567e-05 0.00013583039803093848 0 -9.7190401490979808e-05 0.00014111812468840467 0 -8.4958453333062721e-05 0.00011709117767754882 0 -7.4776385504949567e-05 0.00013583039803093848 0 -5.2137800055952429e-05 0.00012686131020226102 0 -6.2245142419368289e-05 0.00016006308327014911 0 -7.4776385504949567e-05 0.00013583039803093848 0 -6.7619874396382019e-05 9.9389111162685346e-05 0 -5.2137800055952429e-05 0.00012686131020226102 0 -4.3636751744117314e-05 8.7993033974929257e-05 0 -5.2137800055952429e-05 0.00012686131020226102 0 -6.7619874396382019e-05 9.9389111162685346e-05 0 -7.4776385504949567e-05 0.00013583039803093848 0 -8.4958453333062721e-05 0.00011709117767754882 0 -6.7619874396382019e-05 9.9389111162685346e-05 0 -7.1683679331183684e-05 6.9406020799465915e-05 0 -6.7619874396382019e-05 9.9389111162685346e-05 0 -8.3916180067126385e-05 9.6184995980019256e-05 0 -7.1683679331183684e-05 6.9406020799465915e-05 0 -5.2948711670925758e-05 6.6170358947864228e-05 0 -6.7619874396382019e-05 9.9389111162685346e-05 0 -4.3636751744117314e-05 8.7993033974929257e-05 0 -6.7619874396382019e-05 9.9389111162685346e-05 0 -5.2948711670925758e-05 6.6170358947864242e-05 0 -4.3636751744117314e-05 8.7993033974929257e-05 0 -5.2948711670925758e-05 6.6170358947864242e-05 0 -3.9307120660974872e-05 6.1590098821504946e-05 0 -4.3636751744117314e-05 8.7993033974929257e-05 0 -3.9307120660974872e-05 6.1590098821504946e-05 0 -2.7063615203525951e-05 5.5576341032685942e-05 0 -4.3636751744117314e-05 8.7993033974929257e-05 0 -2.7063615203525951e-05 5.5576341032685942e-05 0 -2.1839321212319674e-05 8.9069927285544313e-05 0 -4.3636751744117314e-05 8.7993033974929257e-05 0 -2.1839321212319674e-05 8.9069927285544313e-05 0 -2.8190681501255178e-05 0.00012074923426542807 0 -4.3636751744117314e-05 8.7993033974929257e-05 0 -2.8190681501255178e-05 0.00012074923426542807 0 -5.2137800055952429e-05 0.00012686131020226102 0 -3.4741575263238939e-05 0.00015716789854116684 0 -5.2137800055952429e-05 0.00012686131020226102 0 -2.8190681501255178e-05 0.00012074923426542807 0 -3.4741575263238939e-05 0.00015716789854116684 0 -2.8190681501255178e-05 0.00012074923426542807 0 -1.2135264329439083e-05 0.00014550327661351763 0 -3.4741575263238939e-05 0.00015716789854116684 0 -6.2245142419368289e-05 0.00016006308327014908 0 -5.2137800055952429e-05 0.00012686131020226102 0 -3.4741575263238939e-05 0.00015716789854116684 0 -4.8739950512439911e-05 0.00018034802402082568 0 -6.2245142419368289e-05 0.00016006308327014911 0 -3.4741575263238939e-05 0.00015716789854116684 0 -2.4025779176521428e-05 0.00018669052424598727 0 -4.8739950512439911e-05 0.00018034802402082568 0 -3.4741575263238939e-05 0.00015716789854116684 0 -1.0828640033577158e-05 0.00016701130038234799 0 -2.4025779176521428e-05 0.00018669052424598727 0 -2.4025779176521428e-05 0.00018669052424598727 0 -1.7110702405784748e-05 0.00020829766475786643 0 -4.823156777087218e-05 0.00021124604759661049 0 -1.7110702405784748e-05 0.00020829766475786643 0 -2.6231663248727793e-05 0.00023162653472223898 0 -4.823156777087218e-05 0.00021124604759661049 0 -4.823156777087218e-05 0.00021124604759661049 0 -4.8739950512439911e-05 0.00018034802402082568 0 -2.4025779176521428e-05 0.00018669052424598727 0 -4.823156777087218e-05 0.00021124604759661049 0 -7.3096537058085876e-05 0.00018603812037531065 0 -4.8739950512439911e-05 0.00018034802402082568 0 -4.823156777087218e-05 0.00021124604759661049 0 -8.0092829319256488e-05 0.00021525308128831039 0 -7.3096537058085876e-05 0.00018603812037531065 0 -4.823156777087218e-05 0.00021124604759661049 0 -7.5916712500371484e-05 0.00024272438820233946 0 -8.0092829319256488e-05 0.00021525308128831039 0 -0.00010123164699951356 0.00021349633821753317 0 -7.3096537058085876e-05 0.00018603812037531068 0 -8.0092829319256488e-05 0.00021525308128831039 0 -0.00010123164699951356 0.00021349633821753317 0 -8.9903798223623697e-05 0.00017110811525716143 0 -7.3096537058085876e-05 0.00018603812037531065 0 -7.3096537058085876e-05 0.00018603812037531065 0 -8.9903798223623697e-05 0.00017110811525716143 0 -6.2245142419368289e-05 0.00016006308327014911 0 -7.3096537058085876e-05 0.00018603812037531065 0 -6.2245142419368289e-05 0.00016006308327014911 0 -4.8739950512439911e-05 0.00018034802402082568 0 -7.4776385504949567e-05 0.00013583039803093848 0 -6.2245142419368289e-05 0.00016006308327014911 0 -8.9903798223623697e-05 0.00017110811525716143 0 -7.4776385504949567e-05 0.00013583039803093848 0 -8.9903798223623697e-05 0.00017110811525716143 0 -9.7190401490979808e-05 0.00014111812468840467 0 -0.00011110876682679002 0.0001662277488893359 0 -9.7190401490979808e-05 0.00014111812468840467 0 -8.9903798223623697e-05 0.00017110811525716143 0 -0.00011110876682679002 0.0001662277488893359 0 -0.00012278244086572163 0.00014456212868744516 0 -9.7190401490979808e-05 0.00014111812468840467 0 -0.00011110876682679002 0.0001662277488893359 0 -0.00011373367675167461 0.00018989692333593638 0 -0.00013445279001662294 0.00018444993556468895 0 -0.00011110876682679002 0.0001662277488893359 0 -8.9903798223623697e-05 0.00017110811525716143 0 -0.00011373367675167461 0.00018989692333593638 0 -0.00010123164699951356 0.00021349633821753317 0 -0.00011373367675167461 0.00018989692333593638 0 -8.9903798223623697e-05 0.00017110811525716143 0 -0.00010123164699951356 0.00021349633821753317 0 -8.0092829319256488e-05 0.00021525308128831039 0 -0.00010078501885946758 0.00024345830603477218 0 -0.00010123164699951356 0.00021349633821753317 0 -0.00012008551928231905 0.00023614989078697701 0 -0.00013300268485678769 0.00021475723391879172 0 -0.00010123164699951356 0.00021349633821753317 0 -0.00013300268485678769 0.00021475723391879172 0 -0.00011373367675167461 0.00018989692333593638 0 -0.00013300268485678769 0.00021475723391879172 0 -0.00013445279001662294 0.00018444993556468895 0 -0.00011373367675167461 0.00018989692333593638 0 -0.00016642520766628477 0.00023283821979081583 0 -0.00016209255555300756 0.00019939413102151545 0 -0.00013300268485678769 0.00021475723391879172 0 -0.00016642520766628477 0.00023283821979081583 0 -0.00013300268485678769 0.00021475723391879172 0 -0.00014196219623217329 0.00024598474553287749 0 -0.00016209255555300759 0.00019939413102151545 0 -0.00013445279001662294 0.00018444993556468895 0 -0.00013300268485678769 0.00021475723391879172 0 -0.00016209255555300759 0.00019939413102151545 0 -0.0001554712338475186 0.00016605909592843737 0 -0.00013445279001662294 0.00018444993556468895 0 -0.00011110876682679002 0.0001662277488893359 0 -0.00013445279001662294 0.00018444993556468895 0 -0.00012278244086572163 0.00014456212868744516 0 -0.0001554712338475186 0.00016605909592843737 0 -0.00012278244086572163 0.00014456212868744516 0 -0.00013445279001662294 0.00018444993556468895 0 -0.0001699846632576815 0.00029814951054728657 0 -0.00013108401139999703 0.00029886633042984013 0 -0.0001427399949700594 0.0003285202912307149 0 -0.0001699846632576815 0.00029814951054728657 0 -0.00014650011144448681 0.00027521074502079377 0 -0.00013108401139999703 0.00029886633042984013 0 -0.00012389748431369097 0.00026289708881804472 0 -0.00013108401139999703 0.00029886633042984013 0 -0.00014650011144448681 0.00027521074502079377 0 -0.0001699846632576815 0.00029814951054728657 0 -0.00016897256091531672 0.00026589556735420711 0 -0.00014650011144448681 0.00027521074502079377 0 -0.00016897256091531672 0.00026589556735420711 0 -0.00014196219623217329 0.00024598474553287749 0 -0.00014650011144448681 0.00027521074502079377 0 -0.00016897256091531672 0.00026589556735420711 0 -0.00016642520766628477 0.00023283821979081583 0 -0.00014196219623217329 0.00024598474553287749 0 -0.00013300268485678769 0.00021475723391879172 0 -0.00012008551928231905 0.00023614989078697701 0 -0.00014196219623217329 0.00024598474553287749 0 -0.00012389748431369097 0.00026289708881804472 0 -0.00014650011144448681 0.00027521074502079377 0 -0.00014196219623217329 0.00024598474553287749 0 -0.00012389748431369097 0.00026289708881804472 0 -0.00012008551928231904 0.00023614989078697701 0 -0.00010078501885946758 0.00024345830603477218 0 -0.00012389748431369097 0.00026289708881804472 0 -0.00014196219623217329 0.00024598474553287749 0 -0.00012008551928231905 0.00023614989078697701 0 -0.00010123164699951356 0.00021349633821753317 0 -0.00010078501885946758 0.00024345830603477218 0 -0.00012008551928231905 0.00023614989078697701 0 -0.00012389748431369097 0.00026289708881804472 0 -0.00010078501885946758 0.00024345830603477218 0 -0.00010251086359541166 0.00027219382906306364 0 -0.00013108401139999703 0.00029886633042984013 0 -0.00010251086359541166 0.00027219382906306364 0 -0.00010222991241199914 0.0003011933367248585 0 -0.00012389748431369097 0.00026289708881804472 0 -0.00010251086359541166 0.00027219382906306364 0 -0.00013108401139999703 0.00029886633042984013 0 -0.00011404798363961112 0.00033154721075903914 0 -0.00013108401139999703 0.00029886633042984013 0 -0.00010222991241199914 0.0003011933367248585 0 -8.174566168448647e-05 0.0002818214098214646 0 -8.1912268978059035e-05 0.00031648546245405685 0 -0.00010222991241199914 0.0003011933367248585 0 -8.174566168448647e-05 0.0002818214098214646 0 -5.9844026775235591e-05 0.00029371463865562615 0 -8.1912268978059035e-05 0.00031648546245405685 0 -8.174566168448647e-05 0.0002818214098214646 0 -6.2205070640857928e-05 0.00026303758334295075 0 -5.9844026775235591e-05 0.00029371463865562615 0 -8.174566168448647e-05 0.0002818214098214646 0 -0.00010222991241199914 0.0003011933367248585 0 -0.00010251086359541166 0.00027219382906306364 0 -7.5916712500371484e-05 0.00024272438820233946 0 -0.00010251086359541166 0.00027219382906306364 0 -0.00010078501885946758 0.00024345830603477218 0 -8.174566168448647e-05 0.0002818214098214646 0 -0.00010251086359541166 0.00027219382906306364 0 -7.5916712500371484e-05 0.00024272438820233946 0 -7.5916712500371484e-05 0.00024272438820233946 0 -0.00010078501885946758 0.00024345830603477218 0 -8.0092829319256488e-05 0.00021525308128831039 0 -7.5916712500371484e-05 0.00024272438820233946 0 -5.0655778310074391e-05 0.00024251135771034967 0 -6.2205070640857928e-05 0.00026303758334295075 0 -8.174566168448647e-05 0.0002818214098214646 0 -7.5916712500371484e-05 0.00024272438820233946 0 -6.2205070640857928e-05 0.00026303758334295075 0 -3.9687320284454057e-05 0.00026206805505416453 0 -6.2205070640857928e-05 0.00026303758334295075 0 -5.0655778310074391e-05 0.00024251135771034967 0 -4.823156777087218e-05 0.00021124604759661049 0 -2.6231663248727793e-05 0.00023162653472223898 0 -5.0655778310074391e-05 0.00024251135771034967 0 -4.823156777087218e-05 0.00021124604759661049 0 -5.0655778310074391e-05 0.00024251135771034967 0 -7.5916712500371484e-05 0.00024272438820233946 0 -3.9687320284454057e-05 0.00026206805505416453 0 -5.0655778310074391e-05 0.00024251135771034967 0 -2.6231663248727793e-05 0.00023162653472223898 0 -3.9687320284454057e-05 0.00026206805505416453 0 -2.6231663248727793e-05 0.00023162653472223898 0 -1.4885663202553416e-05 0.00024778953898501585 0 -3.9687320284454057e-05 0.00026206805505416453 0 -3.4073698968130544e-05 0.00029561928771651294 0 -5.9844026775235591e-05 0.00029371463865562615 0 -3.9687320284454057e-05 0.00026206805505416453 0 -1.8317131027868186e-05 0.00026962283663431528 0 -3.4073698968130544e-05 0.00029561928771651294 0 -3.9687320284454057e-05 0.00026206805505416453 0 -5.9844026775235591e-05 0.00029371463865562615 0 -6.2205070640857928e-05 0.00026303758334295075 0 -5.5181161022830654e-05 0.00032861004654786323 0 -5.9844026775235591e-05 0.00029371463865562615 0 -3.4073698968130544e-05 0.00029561928771651294 0 -5.5181161022830654e-05 0.00032861004654786323 0 -3.4073698968130544e-05 0.00029561928771651294 0 -2.8202884219901056e-05 0.00032239709207276807 0 -5.5181161022830654e-05 0.00032861004654786323 0 -3.5917379063502892e-05 0.00034978164993165728 0 -6.0860995203670121e-05 0.00035893475922203598 0 -5.5181161022830654e-05 0.00032861004654786323 0 -2.8202884219901053e-05 0.00032239709207276807 0 -3.5917379063502892e-05 0.00034978164993165728 0 -3.5917379063502892e-05 0.00034978164993165728 0 -4.6483604509236073e-05 0.00036832925625715442 0 -6.0860995203670121e-05 0.00035893475922203598 0 -3.5917379063502892e-05 0.00034978164993165728 0 -2.5434727319775645e-05 0.00036250759860438956 0 -4.6483604509236073e-05 0.00036832925625715442 0 -3.4870745563813476e-05 0.00037913350842788077 0 -4.6483604509236073e-05 0.00036832925625715442 0 -2.5434727319775645e-05 0.00036250759860438956 0 -3.4870745563813476e-05 0.00037913350842788077 0 -5.9520307113788732e-05 0.00038354463579747591 0 -4.6483604509236073e-05 0.00036832925625715442 0 -5.9520307113788732e-05 0.00038354463579747591 0 -6.0860995203670121e-05 0.00035893475922203598 0 -4.6483604509236073e-05 0.00036832925625715442 0 -8.5197204916913859e-05 0.00038604962254338551 0 -0.00010985078796090543 0.00036104389164737726 0 -8.4688903222100763e-05 0.00035062390029420897 0 -8.5197204916913859e-05 0.00038604962254338551 0 -8.4688903222100763e-05 0.00035062390029420897 0 -6.0860995203670121e-05 0.00035893475922203598 0 -5.9520307113788732e-05 0.00038354463579747591 0 -8.5197204916913859e-05 0.00038604962254338551 0 -6.0860995203670121e-05 0.00035893475922203598 0 -0.00011404798363961112 0.00033154721075903914 0 -8.1912268978059035e-05 0.00031648546245405685 0 -8.4688903222100763e-05 0.00035062390029420897 0 -5.5181161022830654e-05 0.00032861004654786323 0 -6.0860995203670121e-05 0.00035893475922203598 0 -8.4688903222100763e-05 0.00035062390029420897 0 -5.5181161022830654e-05 0.00032861004654786323 0 -8.4688903222100763e-05 0.00035062390029420897 0 -8.1912268978059035e-05 0.00031648546245405685 0 -5.5181161022830654e-05 0.00032861004654786323 0 -8.1912268978059035e-05 0.00031648546245405685 0 -5.9844026775235591e-05 0.00029371463865562615 0 -0.00011404798363961112 0.00033154721075903914 0 -0.00010222991241199914 0.0003011933367248585 0 -8.1912268978059035e-05 0.00031648546245405685 0 -0.00011404798363961112 0.00033154721075903914 0 -0.0001427399949700594 0.0003285202912307149 0 -0.00013108401139999703 0.00029886633042984013 0 -0.00011404798363961112 0.00033154721075903914 0 -0.00010985078796090541 0.00036104389164737726 0 -0.00013723234372389553 0.00035538825705672193 0 -0.00011404798363961112 0.00033154721075903914 0 -0.00013723234372389553 0.00035538825705672193 0 -0.0001427399949700594 0.0003285202912307149 0 -0.00011404798363961112 0.00033154721075903914 0 -8.4688903222100763e-05 0.00035062390029420891 0 -0.00010985078796090541 0.00036104389164737726 0 -8.5197204916913859e-05 0.00038604962254338551 0 -0.00011250636330726361 0.00038708776605933434 0 -0.00010985078796090541 0.00036104389164737726 0 -0.00011250636330726361 0.00038708776605933434 0 -0.00014090937255670011 0.00038788097851405251 0 -0.00012647323139557633 0.00037293566374610503 0 -0.00011250636330726361 0.00038708776605933434 0 -0.00012647323139557633 0.00037293566374610503 0 -0.00010985078796090541 0.00036104389164737726 0 -0.00013723234372389553 0.00035538825705672193 0 -0.00010985078796090541 0.00036104389164737726 0 -0.00012647323139557633 0.00037293566374610503 0 -0.00013723234372389553 0.00035538825705672193 0 -0.00012647323139557633 0.00037293566374610503 0 -0.00015053622519855986 0.00037159471339798705 0 -0.00014090937255670011 0.00038788097851405251 0 -0.00015053622519855986 0.00037159471339798705 0 -0.00012647323139557633 0.00037293566374610503 0 -0.00016999689845180574 0.00038806662630713003 0 -0.00015053622519855986 0.00037159471339798705 0 -0.00014090937255670011 0.00038788097851405251 0 -0.00016999689845180574 0.00038806662630713003 0 -0.00017014929044518643 0.00035898325588520425 0 -0.00015053622519855986 0.00037159471339798705 0 -0.00017014929044518643 0.00035898325588520425 0 -0.00013723234372389553 0.00035538825705672193 0 -0.00015053622519855986 0.00037159471339798705 0 -0.00017014929044518643 0.00035898325588520425 0 -0.00017027271460837775 0.00032903933975865165 0 -0.0001427399949700594 0.0003285202912307149 0 -0.00017014929044518643 0.00035898325588520425 0 -0.0001427399949700594 0.0003285202912307149 0 -0.00013723234372389553 0.00035538825705672193 0 -0.00017027271460837775 0.00032903933975865165 0 -0.0001699846632576815 0.00029814951054728657 0 -0.0001427399949700594 0.0003285202912307149 0 -4.3503297657043389e-05 -5.0316709769485194e-05 0 -4.0335588103388653e-05 -4.482726418745707e-05 0 -4.3660796419230354e-05 -4.6766019561697557e-05 0 -3.8635032898586835e-05 -4.461554062637508e-05 0 -4.0335588103388653e-05 -4.482726418745707e-05 0 -4.1303972544982008e-05 -4.9027059755399871e-05 0 -3.8635032898586835e-05 -4.461554062637508e-05 0 -3.6915554965957088e-05 -4.1159748470141134e-05 0 -4.0335588103388653e-05 -4.482726418745707e-05 0 -4.3503297657043389e-05 -5.0316709769485194e-05 0 -4.1303972544982008e-05 -4.9027059755399871e-05 0 -4.0335588103388653e-05 -4.482726418745707e-05 0 -4.3503297657043389e-05 -5.0316709769485194e-05 0 -4.3660796419230354e-05 -4.6766019561697557e-05 0 -4.6483750288545487e-05 -5.0518623005332253e-05 0 -4.3660796419230354e-05 -4.6766019561697557e-05 0 -4.5760392725286863e-05 -4.554059965894943e-05 0 -4.6483750288545487e-05 -5.0518623005332253e-05 0 -4.8378692527003167e-05 -4.8444725452774071e-05 0 -4.6483750288545487e-05 -5.0518623005332253e-05 0 -4.5760392725286863e-05 -4.554059965894943e-05 0 -4.3660796419230354e-05 -4.6766019561697557e-05 0 -4.2132899992342285e-05 -4.1143701001695922e-05 0 -4.5760392725286863e-05 -4.554059965894943e-05 0 -4.5542343882100034e-05 -4.1944665755527391e-05 0 -4.5760392725286863e-05 -4.554059965894943e-05 0 -4.2132899992342285e-05 -4.1143701001695922e-05 0 -4.5542343882100034e-05 -4.1944665755527391e-05 0 -4.2132899992342285e-05 -4.1143701001695922e-05 0 -4.4749800043505032e-05 -3.7667206545103595e-05 0 -3.8445826678146045e-05 -4.0201455846732726e-05 0 -3.7141469102783022e-05 -3.4525828347496592e-05 0 -4.2132899992342285e-05 -4.1143701001695922e-05 0 -4.0335588103388653e-05 -4.482726418745707e-05 0 -3.8445826678146045e-05 -4.0201455846732726e-05 0 -4.2132899992342285e-05 -4.1143701001695922e-05 0 -4.3660796419230354e-05 -4.6766019561697557e-05 0 -4.0335588103388653e-05 -4.482726418745707e-05 0 -4.2132899992342285e-05 -4.1143701001695922e-05 0 -3.8445826678146045e-05 -4.0201455846732726e-05 0 -4.0335588103388653e-05 -4.482726418745707e-05 0 -3.6915554965957088e-05 -4.1159748470141134e-05 0 -3.8445826678146045e-05 -4.0201455846732726e-05 0 -3.6915554965957088e-05 -4.1159748470141134e-05 0 -3.4423545133517807e-05 -3.6302177247480276e-05 0 -3.2359208944762588e-05 -3.5597591562973857e-05 0 -3.4423545133517807e-05 -3.6302177247480276e-05 0 -3.6915554965957088e-05 -4.1159748470141134e-05 0 -2.7434057608373331e-05 -2.905827973416111e-05 0 -2.8831740848293928e-05 -3.0430621283674133e-05 0 -3.2359208944762588e-05 -3.5597591562973857e-05 0 -3.076246733665918e-05 -3.3149676451203887e-05 0 -3.2359208944762588e-05 -3.5597591562973857e-05 0 -3.5107592237763091e-05 -3.9796586442304206e-05 0 -3.2359208944762588e-05 -3.5597591562973857e-05 0 -3.6915554965957088e-05 -4.1159748470141134e-05 0 -3.5107592237763091e-05 -3.9796586442304206e-05 0 6.5787982613365753e-06 0.00022048765321987574 0 -1.4885663202553416e-05 0.00024778953898501585 0 -2.6231663248727793e-05 0.00023162653472223898 0 6.5787982613365753e-06 0.00022048765321987574 0 4.044193421334849e-06 0.00025251821632136747 0 -1.4885663202553416e-05 0.00024778953898501585 0 -2.7434057608373331e-05 -2.905827973416111e-05 0 -3.2359208944762588e-05 -3.5597591562973857e-05 0 -3.076246733665918e-05 -3.3149676451203887e-05 0 -1.0711376593398848e-05 9.5726811160078381e-05 0 -1.3955612379166579e-05 0.00010985325393075664 0 -3.9687320284454057e-05 0.00026206805505416453 0 -1.4885663202553416e-05 0.00024778953898501585 0 -1.8317131027868186e-05 0.00026962283663431528 0 4.044193421334849e-06 0.00025251821632136747 0 -1.8317131027868186e-05 0.00026962283663431528 0 -1.4885663202553416e-05 0.00024778953898501585 0 6.7387607765605016e-07 0.0002845893449782232 0 -3.4073698968130544e-05 0.00029561928771651294 0 -1.8317131027868186e-05 0.00026962283663431528 0 -1.3955612379166579e-05 0.00010985325393075664 0 -1.7216070005191205e-05 0.00012326639353539031 0 -3.076246733665918e-05 -3.3149676451203887e-05 0 -3.5107592237763091e-05 -3.9796586442304206e-05 0 -3.4026100493563506e-05 -3.7226842729397414e-05 0 4.044193421334849e-06 0.00025251821632136747 0 6.7387607765605016e-07 0.0002845893449782232 0 -1.8317131027868186e-05 0.00026962283663431528 0 -1.7216070005191205e-05 0.00012326639353539031 0 -2.2076102546025226e-05 0.00013763536188283963 0 6.7387607765605016e-07 0.0002845893449782232 0 -2.8202884219901056e-05 0.00032239709207276807 0 -3.4073698968130544e-05 0.00029561928771651294 0 -3.8635032898586835e-05 -4.461554062637508e-05 0 -3.5107592237763091e-05 -3.9796586442304206e-05 0 -3.6915554965957088e-05 -4.1159748470141134e-05 0 -3.4026100493563506e-05 -3.7226842729397414e-05 0 -3.5107592237763091e-05 -3.9796586442304206e-05 0 -3.8895302588908187e-05 -4.5890324170982222e-05 0 -3.8635032898586835e-05 -4.461554062637508e-05 0 -4.1303972544982008e-05 -4.9027059755399871e-05 0 -3.8895302588908187e-05 -4.5890324170982222e-05 0 -3.8635032898586835e-05 -4.461554062637508e-05 0 -3.8895302588908187e-05 -4.5890324170982222e-05 0 -3.5107592237763091e-05 -3.9796586442304206e-05 0 -4.2088210040371883e-05 -5.1891152561968912e-05 0 -4.0426951750062674e-05 -4.7972664696166395e-05 0 -3.8895302588908187e-05 -4.5890324170982222e-05 0 -4.2088210040371883e-05 -5.1891152561968912e-05 0 -3.8895302588908187e-05 -4.5890324170982222e-05 0 -4.1303972544982008e-05 -4.9027059755399871e-05 0 -3.4026100493563506e-05 -3.7226842729397414e-05 0 -3.8895302588908187e-05 -4.5890324170982222e-05 0 -3.6970124484258236e-05 -4.0949233984513775e-05 0 -3.6970124484258236e-05 -4.0949233984513775e-05 0 -3.8895302588908187e-05 -4.5890324170982222e-05 0 -4.0426951750062674e-05 -4.7972664696166395e-05 0 -4.2088210040371883e-05 -5.1891152561968912e-05 0 -4.2633550919080256e-05 -5.2003074366065657e-05 0 -4.0426951750062674e-05 -4.7972664696166395e-05 0 6.7387607765605016e-07 0.0002845893449782232 0 -3.0006540109692943e-06 0.00031455396682609555 0 -2.8202884219901056e-05 0.00032239709207276807 0 -2.2076102546025226e-05 0.00013763536188283963 0 -2.1125666055280203e-05 0.00014898941857349773 0 -3.6970124484258236e-05 -4.0949233984513775e-05 0 -4.0426951750062674e-05 -4.7972664696166395e-05 0 -4.0049531594747397e-05 -4.4372500084301492e-05 0 -3.0006540109692943e-06 0.00031455396682609555 0 -6.8218550808105355e-06 0.00034490724979360196 0 -2.8202884219901056e-05 0.00032239709207276807 0 -6.8218550808105355e-06 0.00034490724979360196 0 -3.5917379063502892e-05 0.00034978164993165723 0 -2.8202884219901056e-05 0.00032239709207276807 0 -6.8218550808105355e-06 0.00034490724979360196 0 -2.5434727319775645e-05 0.00036250759860438956 0 -3.5917379063502892e-05 0.00034978164993165728 0 -2.1125666055280203e-05 0.00014898941857349773 0 -4.2800459591874429e-05 0.0001630275606124318 0 -1.053661642398105e-05 0.00037103219585938197 0 -2.5434727319775642e-05 0.00036250759860438956 0 -6.8218550808105355e-06 0.00034490724979360196 0 -1.053661642398105e-05 0.00037103219585938197 0 -3.4870745563813476e-05 0.00037913350842788077 0 -2.5434727319775645e-05 0.00036250759860438956 0 -4.2088210040371883e-05 -5.1891152561968912e-05 0 -4.4133067134184841e-05 -5.6578431136267793e-05 0 -4.2633550919080263e-05 -5.2003074366065657e-05 0 -4.0049531594747397e-05 -4.4372500084301492e-05 0 -4.0426951750062674e-05 -4.7972664696166395e-05 0 -4.2633550919080263e-05 -5.2003074366065657e-05 0 -4.2674029318018938e-05 -4.7437755436917855e-05 0 -4.0049531594747397e-05 -4.4372500084301492e-05 0 -4.2633550919080263e-05 -5.2003074366065657e-05 0 -4.2674029318018938e-05 -4.7437755436917855e-05 0 -4.2633550919080263e-05 -5.2003074366065657e-05 0 -4.4167201045877909e-05 -5.4607861655506888e-05 0 -4.4167201045877909e-05 -5.4607861655506888e-05 0 -4.2633550919080263e-05 -5.2003074366065657e-05 0 -4.4133067134184841e-05 -5.6578431136267793e-05 0 -4.5768136166383229e-05 -5.9506635556412053e-05 0 -4.4133067134184848e-05 -5.6578431136267793e-05 0 -4.528805789354764e-05 -5.5963278188513301e-05 0 -4.4807832920466742e-05 -5.7708633444007761e-05 0 -4.4167201045877909e-05 -5.4607861655506888e-05 0 -4.4133067134184841e-05 -5.6578431136267793e-05 0 -4.5768136166383229e-05 -5.9506635556412053e-05 0 -4.4807832920466742e-05 -5.7708633444007761e-05 0 -4.4133067134184841e-05 -5.6578431136267793e-05 0 -4.2088210040371883e-05 -5.1891152561968912e-05 0 -4.3681513132722488e-05 -5.3511930876976762e-05 0 -4.4133067134184841e-05 -5.6578431136267793e-05 0 -4.528805789354764e-05 -5.5963278188513301e-05 0 -4.4133067134184841e-05 -5.6578431136267793e-05 0 -4.3681513132722488e-05 -5.3511930876976762e-05 0 -4.3503297657043389e-05 -5.0316709769485194e-05 0 -4.6133634142703918e-05 -5.386981032361128e-05 0 -4.3681513132722488e-05 -5.3511930876976762e-05 0 -4.3503297657043389e-05 -5.0316709769485194e-05 0 -4.3681513132722488e-05 -5.3511930876976762e-05 0 -4.1303972544982008e-05 -4.9027059755399871e-05 0 -4.2088210040371883e-05 -5.1891152561968912e-05 0 -4.1303972544982008e-05 -4.9027059755399871e-05 0 -4.3681513132722488e-05 -5.3511930876976762e-05 0 -4.8515448643181734e-05 -5.4093235675663479e-05 0 -4.6133634142703918e-05 -5.386981032361128e-05 0 -4.6483750288545487e-05 -5.0518623005332253e-05 0 -4.3503297657043389e-05 -5.0316709769485194e-05 0 -4.6483750288545487e-05 -5.0518623005332253e-05 0 -4.6133634142703918e-05 -5.386981032361128e-05 0 -4.528805789354764e-05 -5.5963278188513301e-05 0 -4.6133634142703918e-05 -5.386981032361128e-05 0 -4.7326073316615326e-05 -5.7095410627741412e-05 0 -4.528805789354764e-05 -5.5963278188513301e-05 0 -4.3681513132722488e-05 -5.3511930876976762e-05 0 -4.6133634142703918e-05 -5.386981032361128e-05 0 -4.8515448643181734e-05 -5.4093235675663479e-05 0 -4.7326073316615326e-05 -5.7095410627741412e-05 0 -4.6133634142703918e-05 -5.386981032361128e-05 0 -4.5768136166383229e-05 -5.9506635556412053e-05 0 -4.528805789354764e-05 -5.5963278188513301e-05 0 -4.7326073316615326e-05 -5.7095410627741412e-05 0 -4.8401627245838209e-05 -5.9724696229825799e-05 0 -4.5768136166383229e-05 -5.9506635556412053e-05 0 -4.7326073316615326e-05 -5.7095410627741412e-05 0 -4.8401627245838209e-05 -5.9724696229825799e-05 0 -4.7326073316615326e-05 -5.7095410627741412e-05 0 -4.9693632995233893e-05 -5.7124212784288918e-05 0 -5.2042547405304354e-05 -5.9631021458264831e-05 0 -4.8401627245838209e-05 -5.9724696229825799e-05 0 -4.9693632995233893e-05 -5.7124212784288918e-05 0 -5.2042547405304354e-05 -5.9631021458264831e-05 0 -4.9693632995233893e-05 -5.7124212784288918e-05 0 -5.2658167290784622e-05 -5.4916904965971749e-05 0 -4.8515448643181734e-05 -5.4093235675663479e-05 0 -5.2658167290784628e-05 -5.4916904965971755e-05 0 -4.9693632995233893e-05 -5.7124212784288918e-05 0 -4.8515448643181734e-05 -5.4093235675663479e-05 0 -4.9693632995233893e-05 -5.7124212784288918e-05 0 -4.7326073316615326e-05 -5.7095410627741412e-05 0 -6.1956852690651934e-05 -6.081414855158161e-05 0 -5.6962152858918693e-05 -5.9930872258883243e-05 0 -5.6809534042454611e-05 -5.6275252434587562e-05 0 -5.6962152858918693e-05 -5.9930872258883243e-05 0 -5.2042547405304354e-05 -5.9631021458264831e-05 0 -5.6809534042454611e-05 -5.6275252434587562e-05 0 -5.2042547405304354e-05 -5.9631021458264831e-05 0 -5.2658167290784622e-05 -5.4916904965971749e-05 0 -5.6809534042454611e-05 -5.6275252434587562e-05 0 -5.903415883716953e-05 -5.4288934351357548e-05 0 -5.6809534042454604e-05 -5.6275252434587562e-05 0 -5.4998644878655749e-05 -5.2679809399663167e-05 0 -5.2658167290784622e-05 -5.4916904965971749e-05 0 -5.4998644878655749e-05 -5.2679809399663167e-05 0 -5.6809534042454611e-05 -5.6275252434587562e-05 0 -5.4998644878655749e-05 -5.2679809399663167e-05 0 -5.0841462853619096e-05 -5.1380043947092391e-05 0 -5.3439574359855576e-05 -4.9768140084671072e-05 0 -5.3439574359855576e-05 -4.9768140084671072e-05 0 -5.6633747746969979e-05 -5.0761492806271082e-05 0 -5.4998644878655749e-05 -5.2679809399663167e-05 0 -5.903415883716953e-05 -5.4288934351357548e-05 0 -5.4998644878655749e-05 -5.2679809399663167e-05 0 -5.6633747746969979e-05 -5.0761492806271082e-05 0 -4.8515448643181734e-05 -5.4093235675663479e-05 0 -5.0841462853619096e-05 -5.1380043947092391e-05 0 -5.2658167290784622e-05 -5.4916904965971749e-05 0 -5.2658167290784622e-05 -5.4916904965971749e-05 0 -5.0841462853619096e-05 -5.1380043947092391e-05 0 -5.4998644878655749e-05 -5.2679809399663167e-05 0 -4.8515448643181734e-05 -5.4093235675663479e-05 0 -4.6483750288545487e-05 -5.0518623005332253e-05 0 -5.0841462853619096e-05 -5.1380043947092391e-05 0 -4.8378692527003167e-05 -4.8444725452774071e-05 0 -5.0841462853619096e-05 -5.1380043947092391e-05 0 -4.6483750288545487e-05 -5.0518623005332253e-05 0 -4.8378692527003167e-05 -4.8444725452774071e-05 0 -4.5760392725286863e-05 -4.554059965894943e-05 0 -4.8395561228172219e-05 -4.5447980137252549e-05 0 -4.8378692527003167e-05 -4.8444725452774071e-05 0 -4.8395561228172219e-05 -4.5447980137252549e-05 0 -5.0744270119392939e-05 -4.8479566899603684e-05 0 -5.1346112092443921e-05 -4.6069128047862456e-05 0 -5.0744270119392939e-05 -4.8479566899603684e-05 0 -4.8395561228172219e-05 -4.5447980137252549e-05 0 -4.8378692527003167e-05 -4.8444725452774071e-05 0 -5.0744270119392939e-05 -4.8479566899603684e-05 0 -5.0841462853619096e-05 -5.1380043947092391e-05 0 -5.3439574359855576e-05 -4.9768140084671072e-05 0 -5.0744270119392939e-05 -4.8479566899603684e-05 0 -5.1346112092443921e-05 -4.6069128047862456e-05 0 -5.3439574359855576e-05 -4.9768140084671072e-05 0 -5.0841462853619096e-05 -5.1380043947092391e-05 0 -5.0744270119392939e-05 -4.8479566899603684e-05 0 -5.3439574359855576e-05 -4.9768140084671072e-05 0 -5.3954514086256169e-05 -4.6071475557274095e-05 0 -5.6633747746969979e-05 -5.0761492806271082e-05 0 -5.7040672866620375e-05 -4.8983701364066659e-05 0 -5.6633747746969979e-05 -5.0761492806271082e-05 0 -5.3954514086256169e-05 -4.6071475557274095e-05 0 -5.3439574359855576e-05 -4.9768140084671072e-05 0 -5.1346112092443921e-05 -4.6069128047862456e-05 0 -5.3954514086256169e-05 -4.6071475557274095e-05 0 -5.1844167001187422e-05 -4.2203833951336328e-05 0 -5.1346112092443921e-05 -4.6069128047862456e-05 0 -4.8567731116808937e-05 -4.2169551713675853e-05 0 -5.1844167001187422e-05 -4.2203833951336328e-05 0 -5.3954514086256169e-05 -4.6071475557274095e-05 0 -5.1346112092443921e-05 -4.6069128047862456e-05 0 -5.1844167001187422e-05 -4.2203833951336328e-05 0 -5.6075389175935497e-05 -4.5057760850467976e-05 0 -5.3954514086256169e-05 -4.6071475557274095e-05 0 -5.1844167001187422e-05 -4.2203833951336328e-05 0 -4.8567731116808937e-05 -4.2169551713675853e-05 0 -4.7281205928653345e-05 -3.7372649140871035e-05 0 -4.7281205928653345e-05 -3.7372649140871035e-05 0 -4.8567731116808937e-05 -4.2169551713675853e-05 0 -4.4749800043505032e-05 -3.7667206545103595e-05 0 -4.5542343882100034e-05 -4.1944665755527391e-05 0 -4.4749800043505032e-05 -3.7667206545103595e-05 0 -4.8567731116808937e-05 -4.2169551713675853e-05 0 -4.5542343882100034e-05 -4.1944665755527391e-05 0 -4.8567731116808937e-05 -4.2169551713675853e-05 0 -4.8395561228172219e-05 -4.5447980137252549e-05 0 -4.5542343882100034e-05 -4.1944665755527391e-05 0 -4.8395561228172219e-05 -4.5447980137252549e-05 0 -4.5760392725286863e-05 -4.554059965894943e-05 0 -5.1346112092443921e-05 -4.6069128047862456e-05 0 -4.8395561228172219e-05 -4.5447980137252549e-05 0 -4.8567731116808937e-05 -4.2169551713675853e-05 0 -3.0030111018978409e-05 -0.00012523912490159501 0 -3.9553870934998727e-05 -0.00011894216939606285 0 -4.0462193335972686e-05 -0.00013288796272035446 0 -4.305380051831398e-05 -7.7300217841515289e-05 0 -4.5296072628070572e-05 -8.7771368747884709e-05 0 -2.7727045794233694e-05 -0.00010950506915836219 0 -3.9553870934998727e-05 -0.00011894216939606285 0 -3.0030111018978409e-05 -0.00012523912490159501 0 -5.8181167654976162e-05 -4.508048546567319e-05 0 -6.0251626869404133e-05 -5.0289119393929773e-05 0 -5.6075389175935497e-05 -4.5057760850467976e-05 0 -5.8181167654976162e-05 -4.508048546567319e-05 0 -5.6075389175935497e-05 -4.5057760850467976e-05 0 -5.4305153514900813e-05 -4.040019368994051e-05 0 -5.1844167001187422e-05 -4.2203833951336328e-05 0 -5.2837062838210319e-05 -4.0484947276716941e-05 0 -5.6075389175935497e-05 -4.5057760850467976e-05 0 -5.6075389175935497e-05 -4.5057760850467976e-05 0 -5.2837062838210319e-05 -4.0484947276716941e-05 0 -5.4305153514900813e-05 -4.040019368994051e-05 0 -5.7040672866620375e-05 -4.8983701364066659e-05 0 -5.3954514086256169e-05 -4.6071475557274095e-05 0 -5.6075389175935497e-05 -4.5057760850467976e-05 0 -6.0251626869404133e-05 -5.0289119393929773e-05 0 -5.921212066050834e-05 -5.0140792596065194e-05 0 -5.6075389175935497e-05 -4.5057760850467976e-05 0 -5.7040672866620375e-05 -4.8983701364066659e-05 0 -5.6075389175935497e-05 -4.5057760850467976e-05 0 -5.921212066050834e-05 -5.0140792596065194e-05 0 -5.7040672866620375e-05 -4.8983701364066659e-05 0 -5.921212066050834e-05 -5.0140792596065194e-05 0 -6.017340448620177e-05 -5.3099671187773628e-05 0 -5.7040672866620375e-05 -4.8983701364066659e-05 0 -6.017340448620177e-05 -5.3099671187773628e-05 0 -5.6633747746969979e-05 -5.0761492806271082e-05 0 -6.1908058058297201e-05 -5.4591893996140191e-05 0 -6.017340448620177e-05 -5.3099671187773628e-05 0 -5.921212066050834e-05 -5.0140792596065194e-05 0 -6.1908058058297201e-05 -5.4591893996140191e-05 0 -6.3218082555172595e-05 -5.8223557510065296e-05 0 -6.017340448620177e-05 -5.3099671187773628e-05 0 -3.2803674765065299e-05 -0.00014094173659592418 0 -4.0462193335972686e-05 -0.00013288796272035446 0 -4.8794630006258595e-05 -0.00014620429794315971 0 -3.2803674765065299e-05 -0.00014094173659592418 0 -4.8794630006258602e-05 -0.00014620429794315971 0 -4.6379972509226528e-05 -0.00015951419225027538 0 -4.7527611783401974e-05 -9.7678676096298733e-05 0 -4.9774117064107229e-05 -0.0001069869878286751 0 -6.0251626869404133e-05 -5.0289119393929773e-05 0 -6.1908058058297201e-05 -5.4591893996140191e-05 0 -5.921212066050834e-05 -5.0140792596065194e-05 0 -3.0030111018978409e-05 -0.00012523912490159501 0 -4.0462193335972686e-05 -0.00013288796272035446 0 -3.2803674765065299e-05 -0.00014094173659592418 0 -4.5296072628070572e-05 -8.7771368747884709e-05 0 -4.7527611783401974e-05 -9.7678676096298733e-05 0 -3.2803674765065299e-05 -0.00014094173659592418 0 -4.6379972509226528e-05 -0.00015951419225027538 0 -3.5490196221481569e-05 -0.00015527656788611577 0 -4.9774117064107229e-05 -0.0001069869878286751 0 -5.1221136131920138e-05 -0.00011502275687582211 0 -6.3218082555172595e-05 -5.8223557510065296e-05 0 -6.4537981384572439e-05 -6.1291518168098049e-05 0 -6.2036184737514146e-05 -5.6617651019304495e-05 0 -3.5490196221481569e-05 -0.00015527656788611577 0 -4.6379972509226528e-05 -0.00015951419225027538 0 -3.8179295729443905e-05 -0.00016971753079635435 0 -3.8179295729443905e-05 -0.00016971753079635435 0 -4.6379972509226528e-05 -0.00015951419225027538 0 -4.9923525748746401e-05 -0.00017261722070513948 0 -5.903415883716953e-05 -5.4288934351357548e-05 0 -5.6633747746969979e-05 -5.0761492806271082e-05 0 -6.017340448620177e-05 -5.3099671187773628e-05 0 -5.903415883716953e-05 -5.4288934351357548e-05 0 -6.017340448620177e-05 -5.3099671187773628e-05 0 -6.2036184737514146e-05 -5.6617651019304495e-05 0 -6.3218082555172595e-05 -5.8223557510065296e-05 0 -6.2036184737514146e-05 -5.6617651019304495e-05 0 -6.017340448620177e-05 -5.3099671187773628e-05 0 -5.903415883716953e-05 -5.4288934351357548e-05 0 -6.2036184737514146e-05 -5.6617651019304495e-05 0 -6.2132111263303808e-05 -5.8038843875011945e-05 0 -5.903415883716953e-05 -5.4288934351357548e-05 0 -6.2132111263303808e-05 -5.8038843875011945e-05 0 -5.6809534042454611e-05 -5.6275252434587562e-05 0 -6.4537981384572439e-05 -6.1291518168098049e-05 0 -6.2132111263303808e-05 -5.8038843875011945e-05 0 -6.2036184737514146e-05 -5.6617651019304495e-05 0 -6.5672242773424889e-05 -6.4184399319019725e-05 0 -6.2132111263303808e-05 -5.8038843875011945e-05 0 -6.4537981384572439e-05 -6.1291518168098049e-05 0 -6.5672242773424889e-05 -6.4184399319019725e-05 0 -6.1956852690651934e-05 -6.081414855158161e-05 0 -6.2132111263303808e-05 -5.8038843875011945e-05 0 -6.1956852690651934e-05 -6.081414855158161e-05 0 -5.6809534042454611e-05 -5.6275252434587562e-05 0 -6.2132111263303808e-05 -5.8038843875011945e-05 0 -3.8179295729443905e-05 -0.00016971753079635435 0 -4.9923525748746394e-05 -0.00017261722070513948 0 -4.5938440427644644e-05 -0.00017806753163774553 0 -5.1221136131920138e-05 -0.00011502275687582211 0 -5.5543067388719787e-05 -0.0001230605984238036 0 -4.0367144838562261e-05 -0.00018089280843722077 0 -3.8179295729443905e-05 -0.00016971753079635435 0 -4.5938440427644644e-05 -0.00017806753163774553 0 -4.0367144838562261e-05 -0.00018089280843722077 0 -4.5938440427644644e-05 -0.00017806753163774553 0 -4.9775715813495023e-05 -0.0001851180058844895 0 -4.9775715813495023e-05 -0.0001851180058844895 0 -4.5938440427644644e-05 -0.00017806753163774553 0 -5.4248234045405614e-05 -0.00018087276934501594 0 -5.9414169029037671e-05 -0.00018731422568213477 0 -4.9775715813495023e-05 -0.0001851180058844895 0 -5.4248234045405614e-05 -0.00018087276934501594 0 -4.9923525748746401e-05 -0.00017261722070513948 0 -5.9887202297207161e-05 -0.00017689935202410968 0 -5.4248234045405614e-05 -0.00018087276934501594 0 -4.9923525748746401e-05 -0.00017261722070513948 0 -5.4248234045405614e-05 -0.00018087276934501594 0 -4.5938440427644644e-05 -0.00017806753163774553 0 -5.9414169029037671e-05 -0.00018731422568213477 0 -5.4248234045405614e-05 -0.00018087276934501594 0 -5.9887202297207161e-05 -0.00017689935202410968 0 -6.9780863616597126e-05 -0.00018854840922732431 0 -5.9887202297207161e-05 -0.00017689935202410968 0 -6.9541908262510765e-05 -0.00017315690065402027 0 -6.9780863616597126e-05 -0.00018854840922732431 0 -6.9541908262510765e-05 -0.00017315690065402027 0 -8.01202991909132e-05 -0.00017769426909387514 0 -6.9780863616597126e-05 -0.00018854840922732431 0 -5.9414169029037671e-05 -0.00018731422568213477 0 -5.9887202297207161e-05 -0.00017689935202410968 0 -5.7360569294301539e-05 -0.00016334233358716036 0 -6.9541908262510765e-05 -0.00017315690065402027 0 -5.9887202297207161e-05 -0.00017689935202410968 0 -5.7360569294301539e-05 -0.00016334233358716036 0 -6.9515717735704651e-05 -0.0001574018137937375 0 -6.9541908262510765e-05 -0.00017315690065402027 0 -8.1825438466483468e-05 -0.00016407303435925298 0 -6.9541908262510765e-05 -0.00017315690065402027 0 -6.9515717735704651e-05 -0.0001574018137937375 0 -5.7360569294301539e-05 -0.00016334233358716036 0 -6.0417594679208845e-05 -0.00014919270079232261 0 -6.9515717735704651e-05 -0.0001574018137937375 0 -5.7360569294301539e-05 -0.00016334233358716036 0 -4.6379972509226528e-05 -0.00015951419225027538 0 -4.8794630006258595e-05 -0.00014620429794315971 0 -5.7360569294301539e-05 -0.00016334233358716036 0 -4.9923525748746401e-05 -0.00017261722070513948 0 -4.6379972509226528e-05 -0.00015951419225027538 0 -5.7360569294301539e-05 -0.00016334233358716036 0 -5.9887202297207161e-05 -0.00017689935202410968 0 -4.9923525748746401e-05 -0.00017261722070513948 0 -0.00010661853851055258 -0.00017676339251124118 0 -9.7902650887529379e-05 -0.00018235017200190134 0 -9.1982662121012221e-05 -0.00017513769350979705 0 -0.00010651897427731604 -0.00018963240157402535 0 -9.7902650887529379e-05 -0.00018235017200190134 0 -0.00010661853851055258 -0.00017676339251124118 0 -0.00010651897427731604 -0.00018963240157402535 0 -9.3660227117378569e-05 -0.00018951144924865218 0 -9.7902650887529379e-05 -0.00018235017200190134 0 -9.3660227117378569e-05 -0.00018951144924865218 0 -8.7323514329984395e-05 -0.00018291582766072174 0 -9.7902650887529379e-05 -0.00018235017200190134 0 -9.1982662121012221e-05 -0.00017513769350979705 0 -9.7902650887529379e-05 -0.00018235017200190134 0 -8.7323514329984395e-05 -0.00018291582766072174 0 -9.1982662121012221e-05 -0.00017513769350979705 0 -8.7323514329984395e-05 -0.00018291582766072174 0 -8.01202991909132e-05 -0.00017769426909387514 0 -8.1300651424044533e-05 -0.00018904443414677374 0 -8.01202991909132e-05 -0.00017769426909387514 0 -8.7323514329984395e-05 -0.00018291582766072174 0 -9.3660227117378569e-05 -0.00018951144924865218 0 -8.1300651424044533e-05 -0.00018904443414677374 0 -8.7323514329984395e-05 -0.00018291582766072174 0 -8.1300651424044533e-05 -0.00018904443414677374 0 -6.9780863616597126e-05 -0.00018854840922732431 0 -8.01202991909132e-05 -0.00017769426909387514 0 -8.1825438466483468e-05 -0.00016407303435925298 0 -8.01202991909132e-05 -0.00017769426909387514 0 -6.9541908262510765e-05 -0.00017315690065402027 0 -8.1825438466483468e-05 -0.00016407303435925298 0 -6.9515717735704651e-05 -0.0001574018137937375 0 -7.7901711784448288e-05 -0.00014761007352295178 0 -8.1825438466483468e-05 -0.00016407303435925298 0 -8.9972731380376332e-05 -0.00015020911183777111 0 -9.4500931480772743e-05 -0.00016329103591698383 0 -8.1825438466483468e-05 -0.00016407303435925298 0 -9.1982662121012221e-05 -0.00017513769350979705 0 -8.01202991909132e-05 -0.00017769426909387514 0 -8.1825438466483468e-05 -0.00016407303435925298 0 -9.4500931480772743e-05 -0.00016329103591698383 0 -9.1982662121012221e-05 -0.00017513769350979705 0 -0.00010661853851055258 -0.00017676339251124118 0 -9.1982662121012221e-05 -0.00017513769350979705 0 -9.4500931480772743e-05 -0.00016329103591698383 0 -0.00010638328055690081 -0.00014903209032090649 0 -0.00010667142802122227 -0.00016324174964588601 0 -9.4500931480772743e-05 -0.00016329103591698383 0 -0.00010667142802122227 -0.00016324174964588601 0 -0.00010661853851055258 -0.00017676339251124118 0 -9.4500931480772743e-05 -0.00016329103591698383 0 -0.00010547821718647994 -0.00013401880921013148 0 -0.00010638328055690081 -0.00014903209032090649 0 -9.5696515361291213e-05 -0.00013935629985186785 0 -0.00010638328055690081 -0.00014903209032090649 0 -9.4500931480772743e-05 -0.00016329103591698383 0 -8.9972731380376332e-05 -0.00015020911183777111 0 -8.484067365219984e-05 -0.00013383448904559408 0 -9.5696515361291213e-05 -0.00013935629985186782 0 -8.9972731380376332e-05 -0.00015020911183777111 0 -0.00010638328055690081 -0.00014903209032090649 0 -8.9972731380376332e-05 -0.00015020911183777111 0 -9.5696515361291213e-05 -0.00013935629985186785 0 -8.484067365219984e-05 -0.00013383448904559408 0 -8.9972731380376332e-05 -0.00015020911183777111 0 -7.7901711784448288e-05 -0.00014761007352295178 0 -8.1825438466483468e-05 -0.00016407303435925298 0 -7.7901711784448288e-05 -0.00014761007352295178 0 -8.9972731380376332e-05 -0.00015020911183777111 0 -8.484067365219984e-05 -0.00013383448904559408 0 -7.7901711784448288e-05 -0.00014761007352295178 0 -7.4677875267264364e-05 -0.00013299724512583615 0 -6.7565918756263269e-05 -0.00014089063847537149 0 -7.4677875267264364e-05 -0.00013299724512583615 0 -7.7901711784448288e-05 -0.00014761007352295178 0 -8.484067365219984e-05 -0.00013383448904559408 0 -7.4677875267264364e-05 -0.00013299724512583615 0 -7.785501892202003e-05 -0.00012301110298746238 0 -7.4310083756774572e-05 -0.00010867578785681651 0 -7.785501892202003e-05 -0.00012301110298746238 0 -6.7037858557980232e-05 -0.00012310024350157541 0 -6.7037858557980232e-05 -0.00012310024350157541 0 -7.785501892202003e-05 -0.00012301110298746238 0 -7.4677875267264364e-05 -0.00013299724512583615 0 -8.484067365219984e-05 -0.00013383448904559408 0 -7.785501892202003e-05 -0.00012301110298746238 0 -8.8383020387404598e-05 -0.00011848390778708686 0 -8.484067365219984e-05 -0.00013383448904559408 0 -9.5627320899543589e-05 -0.00012868396385754333 0 -9.5696515361291213e-05 -0.00013935629985186785 0 -8.484067365219984e-05 -0.00013383448904559408 0 -8.8383020387404585e-05 -0.00011848390778708686 0 -9.5627320899543589e-05 -0.00012868396385754333 0 -0.00010351311267687549 -0.00011842576704893498 0 -9.5627320899543603e-05 -0.00012868396385754333 0 -8.8383020387404598e-05 -0.00011848390778708686 0 -0.00010351311267687549 -0.00011842576704893498 0 -0.00010547821718647992 -0.00013401880921013148 0 -9.5627320899543589e-05 -0.00012868396385754333 0 -0.00010547821718647994 -0.00013401880921013148 0 -9.5696515361291213e-05 -0.00013935629985186785 0 -9.5627320899543589e-05 -0.00012868396385754333 0 -4.8700318902395598e-05 -0.00012902930734441979 0 -5.8243277973219805e-05 -0.00013556376796332304 0 -4.8794630006258595e-05 -0.00014620429794315971 0 -4.8794630006258595e-05 -0.00014620429794315971 0 -5.8243277973219805e-05 -0.00013556376796332304 0 -6.0417594679208845e-05 -0.00014919270079232261 0 -4.8700318902395598e-05 -0.00012902930734441979 0 -4.8794630006258602e-05 -0.00014620429794315971 0 -4.0462193335972686e-05 -0.00013288796272035446 0 -5.7360569294301539e-05 -0.00016334233358716036 0 -4.8794630006258595e-05 -0.00014620429794315971 0 -6.0417594679208845e-05 -0.00014919270079232261 0 -6.7565918756263269e-05 -0.00014089063847537149 0 -6.9515717735704651e-05 -0.0001574018137937375 0 -6.0417594679208845e-05 -0.00014919270079232261 0 -6.7565918756263269e-05 -0.00014089063847537149 0 -7.7901711784448288e-05 -0.00014761007352295178 0 -6.9515717735704651e-05 -0.0001574018137937375 0 -6.7565918756263269e-05 -0.00014089063847537149 0 -6.0417594679208845e-05 -0.00014919270079232261 0 -5.8243277973219805e-05 -0.00013556376796332304 0 -6.7037858557980232e-05 -0.00012310024350157541 0 -5.8243277973219805e-05 -0.00013556376796332304 0 -5.6256711331735002e-05 -0.00012019690466100911 0 -6.7565918756263269e-05 -0.00014089063847537149 0 -5.8243277973219805e-05 -0.00013556376796332304 0 -6.7037858557980232e-05 -0.00012310024350157541 0 -6.7565918756263269e-05 -0.00014089063847537149 0 -6.7037858557980219e-05 -0.00012310024350157539 0 -7.4677875267264364e-05 -0.00013299724512583615 0 -6.7037858557980232e-05 -0.00012310024350157541 0 -5.6256711331735002e-05 -0.00012019690466100911 0 -6.0902767410310544e-05 -0.00010786835543221765 0 -4.8700318902395598e-05 -0.00012902930734441979 0 -4.7512950305351156e-05 -0.00011597626805931411 0 -5.6256711331735002e-05 -0.00012019690466100911 0 -4.8700318902395598e-05 -0.00012902930734441979 0 -5.6256711331735002e-05 -0.00012019690466100911 0 -5.8243277973219805e-05 -0.00013556376796332304 0 -4.8700318902395598e-05 -0.00012902930734441979 0 -4.0462193335972686e-05 -0.00013288796272035446 0 -3.9553870934998727e-05 -0.00011894216939606285 0 -4.8700318902395598e-05 -0.00012902930734441979 0 -3.9553870934998727e-05 -0.00011894216939606285 0 -4.7512950305351156e-05 -0.00011597626805931411 0 -4.0102832499920945e-05 -0.00010459335186529651 0 -4.7512950305351156e-05 -0.00011597626805931411 0 -3.9553870934998727e-05 -0.00011894216939606285 0 -5.2504214742553672e-05 -0.00010648461697883868 0 -4.7512950305351156e-05 -0.00011597626805931411 0 -4.0102832499920945e-05 -0.00010459335186529651 0 -5.2504214742553672e-05 -0.00010648461697883868 0 -4.0102832499920939e-05 -0.00010459335186529651 0 -4.5020567521706312e-05 -9.5463470738434185e-05 0 -4.0102832499920945e-05 -0.00010459335186529651 0 -3.6054170407894431e-05 -8.9375590015914168e-05 0 -4.5020567521706312e-05 -9.5463470738434185e-05 0 -5.2504214742553672e-05 -0.00010648461697883868 0 -4.5020567521706312e-05 -9.5463470738434185e-05 0 -5.2828941294289411e-05 -9.4076341072125172e-05 0 -5.2504214742553672e-05 -0.00010648461697883868 0 -5.6256711331735002e-05 -0.00012019690466100911 0 -4.7512950305351156e-05 -0.00011597626805931411 0 -5.2504214742553672e-05 -0.00010648461697883868 0 -6.0902767410310544e-05 -0.00010786835543221765 0 -5.6256711331735002e-05 -0.00012019690466100911 0 -7.4310083756774572e-05 -0.00010867578785681651 0 -6.7037858557980232e-05 -0.00012310024350157541 0 -6.0902767410310544e-05 -0.00010786835543221765 0 -7.4310083756774572e-05 -0.00010867578785681651 0 -6.0902767410310544e-05 -0.00010786835543221765 0 -6.2622187939038231e-05 -9.4249707575105304e-05 0 -5.2504214742553672e-05 -0.00010648461697883868 0 -5.2828941294289411e-05 -9.4076341072125172e-05 0 -6.0902767410310544e-05 -0.00010786835543221765 0 -6.2622187939038231e-05 -9.4249707575105304e-05 0 -6.0902767410310544e-05 -0.00010786835543221765 0 -5.2828941294289411e-05 -9.4076341072125172e-05 0 -6.2622187939038231e-05 -9.4249707575105304e-05 0 -5.2828941294289411e-05 -9.4076341072125172e-05 0 -5.1053995146532691e-05 -7.8919562899232063e-05 0 -5.8335902909256757e-05 -7.4783165843275899e-05 0 -6.7457228944165954e-05 -8.5008202062543438e-05 0 -6.2622187939038231e-05 -9.4249707575105304e-05 0 -5.8335902909256757e-05 -7.4783165843275899e-05 0 -6.2622187939038231e-05 -9.4249707575105304e-05 0 -5.1053995146532691e-05 -7.8919562899232063e-05 0 -4.3135704785316567e-05 -8.2340140393971515e-05 0 -4.0036280744016245e-05 -6.4108280146097445e-05 0 -5.1053995146532691e-05 -7.8919562899232063e-05 0 -4.3135704785316567e-05 -8.2340140393971515e-05 0 -3.3258024755932336e-05 -7.2330686278233576e-05 0 -4.0036280744016245e-05 -6.4108280146097445e-05 0 -4.3135704785316567e-05 -8.2340140393971515e-05 0 -4.5020567521706312e-05 -9.5463470738434185e-05 0 -3.6054170407894431e-05 -8.9375590015914168e-05 0 -4.3135704785316567e-05 -8.2340140393971515e-05 0 -5.1053995146532691e-05 -7.8919562899232049e-05 0 -5.2828941294289411e-05 -9.4076341072125172e-05 0 -4.3135704785316567e-05 -8.2340140393971515e-05 0 -5.2828941294289411e-05 -9.4076341072125172e-05 0 -4.5020567521706312e-05 -9.5463470738434185e-05 0 -0.00010035991116782036 -0.00010281889649549976 0 -9.4189975815111334e-05 -0.00011060579248605971 0 -8.4460246064644207e-05 -0.00010179520352109354 0 -0.00010035991116782036 -0.00010281889649549976 0 -8.4460246064644207e-05 -0.00010179520352109354 0 -8.7213639871874988e-05 -9.0513159543698747e-05 0 -0.00010351311267687549 -0.00011842576704893498 0 -8.8383020387404598e-05 -0.00011848390778708686 0 -9.4189975815111348e-05 -0.00011060579248605971 0 -0.00010035991116782036 -0.00010281889649549976 0 -0.00010351311267687549 -0.00011842576704893498 0 -9.4189975815111348e-05 -0.00011060579248605971 0 -8.8383020387404598e-05 -0.00011848390778708686 0 -8.4460246064644207e-05 -0.00010179520352109354 0 -9.4189975815111348e-05 -0.00011060579248605971 0 -7.4310083756774572e-05 -0.00010867578785681651 0 -7.258197496889414e-05 -9.5093769931216377e-05 0 -8.4460246064644207e-05 -0.00010179520352109354 0 -7.4310083756774572e-05 -0.00010867578785681651 0 -8.4460246064644207e-05 -0.00010179520352109354 0 -8.8383020387404598e-05 -0.00011848390778708686 0 -7.4310083756774572e-05 -0.00010867578785681651 0 -8.8383020387404598e-05 -0.00011848390778708686 0 -7.785501892202003e-05 -0.00012301110298746238 0 -7.4310083756774572e-05 -0.00010867578785681651 0 -6.2622187939038218e-05 -9.4249707575105304e-05 0 -7.258197496889414e-05 -9.5093769931216377e-05 0 -7.6909036477095546e-05 -8.6452644494759893e-05 0 -7.258197496889414e-05 -9.5093769931216377e-05 0 -6.7457228944165954e-05 -8.5008202062543438e-05 0 -6.2622187939038231e-05 -9.4249707575105304e-05 0 -6.7457228944165954e-05 -8.5008202062543438e-05 0 -7.258197496889414e-05 -9.5093769931216377e-05 0 -5.8335902909256757e-05 -7.4783165843275899e-05 0 -6.7252094279639433e-05 -7.4909880332115362e-05 0 -6.7457228944165954e-05 -8.5008202062543438e-05 0 -7.6909036477095546e-05 -8.6452644494759893e-05 0 -6.7457228944165954e-05 -8.5008202062543438e-05 0 -6.7252094279639433e-05 -7.4909880332115362e-05 0 -7.6909036477095546e-05 -8.6452644494759893e-05 0 -6.7252094279639433e-05 -7.4909880332115362e-05 0 -8.032959089735139e-05 -7.6678538473902796e-05 0 -7.6909036477095546e-05 -8.6452644494759893e-05 0 -8.4460246064644207e-05 -0.00010179520352109354 0 -7.258197496889414e-05 -9.5093769931216377e-05 0 -7.6909036477095546e-05 -8.6452644494759893e-05 0 -8.7213639871874988e-05 -9.0513159543698747e-05 0 -8.4460246064644207e-05 -0.00010179520352109354 0 -7.6909036477095546e-05 -8.6452644494759893e-05 0 -8.032959089735139e-05 -7.6678538473902796e-05 0 -8.7213639871874988e-05 -9.0513159543698747e-05 0 -9.6095810853347513e-05 -8.736810827623846e-05 0 -8.7213639871874988e-05 -9.0513159543698747e-05 0 -8.032959089735139e-05 -7.6678538473902796e-05 0 -9.6095810853347513e-05 -8.736810827623846e-05 0 -0.00010035991116782036 -0.00010281889649549976 0 -8.7213639871874988e-05 -9.0513159543698747e-05 0 -8.3760958156340102e-05 -5.9348169505820474e-05 0 -9.0604032132623807e-05 -7.2823739322277773e-05 0 -7.8082349071030316e-05 -6.4077934192837728e-05 0 -9.0604032132623807e-05 -7.2823739322277773e-05 0 -9.6095810853347513e-05 -8.736810827623846e-05 0 -8.032959089735139e-05 -7.6678538473902796e-05 0 -9.0604032132623807e-05 -7.2823739322277773e-05 0 -8.032959089735139e-05 -7.6678538473902796e-05 0 -7.8082349071030316e-05 -6.4077934192837728e-05 0 -6.9147068457052507e-05 -6.3170786987280851e-05 0 -7.8082349071030316e-05 -6.4077934192837728e-05 0 -8.032959089735139e-05 -7.6678538473902796e-05 0 -6.9147068457052507e-05 -6.3170786987280851e-05 0 -8.032959089735139e-05 -7.6678538473902796e-05 0 -6.7252094279639433e-05 -7.4909880332115362e-05 0 -5.8335902909256757e-05 -7.4783165843275899e-05 0 -6.2082361170864815e-05 -6.4264353574362381e-05 0 -6.7252094279639433e-05 -7.4909880332115362e-05 0 -6.9147068457052507e-05 -6.3170786987280851e-05 0 -6.7252094279639433e-05 -7.4909880332115362e-05 0 -6.2082361170864815e-05 -6.4264353574362381e-05 0 -5.3862801619179951e-05 -5.6185925961876156e-05 0 -6.1016129071358338e-05 -5.4923086274634852e-05 0 -6.2082361170864815e-05 -6.4264353574362381e-05 0 -6.9147068457052507e-05 -6.3170786987280851e-05 0 -6.2082361170864815e-05 -6.4264353574362381e-05 0 -6.1016129071358338e-05 -5.4923086274634852e-05 0 -5.4664424008969974e-05 -4.4330155404671097e-05 0 -6.7268075731945597e-05 -5.0167091972584113e-05 0 -6.1016129071358338e-05 -5.4923086274634852e-05 0 -5.4664424008969974e-05 -4.4330155404671097e-05 0 -5.5808453550931558e-05 -3.867537932674002e-05 0 -6.7268075731945597e-05 -5.0167091972584113e-05 0 -6.9147068457052507e-05 -6.3170786987280851e-05 0 -6.1016129071358338e-05 -5.4923086274634852e-05 0 -6.7268075731945597e-05 -5.0167091972584113e-05 0 -8.3760958156340102e-05 -5.9348169505820474e-05 0 -7.8082349071030316e-05 -6.4077934192837728e-05 0 -6.7268075731945597e-05 -5.0167091972584113e-05 0 -6.9147068457052507e-05 -6.3170786987280851e-05 0 -6.7268075731945597e-05 -5.0167091972584113e-05 0 -7.8082349071030316e-05 -6.4077934192837728e-05 0 -7.64176662412868e-05 -4.7709356268672699e-05 0 -8.3760958156340102e-05 -5.9348169505820474e-05 0 -6.7268075731945597e-05 -5.0167091972584113e-05 0 -4.4292975652999365e-05 -5.1239221653088918e-05 0 -4.9624820887479734e-05 -6.4639970263074788e-05 0 -4.0036280744016245e-05 -6.4108280146097445e-05 0 -4.4292975652999365e-05 -5.1239221653088918e-05 0 -4.0036280744016245e-05 -6.4108280146097445e-05 0 -3.5860509521887835e-05 -4.5540037417428261e-05 0 -4.0036280744016245e-05 -6.4108280146097445e-05 0 -4.9624820887479734e-05 -6.4639970263074788e-05 0 -5.1053995146532691e-05 -7.8919562899232063e-05 0 -5.8335902909256757e-05 -7.4783165843275899e-05 0 -5.1053995146532698e-05 -7.8919562899232063e-05 0 -4.9624820887479734e-05 -6.4639970263074788e-05 0 -5.8335902909256757e-05 -7.4783165843275899e-05 0 -5.3862801619179951e-05 -5.6185925961876156e-05 0 -6.2082361170864815e-05 -6.4264353574362381e-05 0 -5.8335902909256757e-05 -7.4783165843275899e-05 0 -4.9624820887479734e-05 -6.4639970263074788e-05 0 -5.3862801619179951e-05 -5.6185925961876156e-05 0 -4.4292975652999365e-05 -5.1239221653088918e-05 0 -5.3862801619179951e-05 -5.6185925961876156e-05 0 -4.9624820887479734e-05 -6.4639970263074788e-05 0 -4.4292975652999365e-05 -5.1239221653088918e-05 0 -4.7362716668664163e-05 -4.3447325273165207e-05 0 -5.3862801619179951e-05 -5.6185925961876156e-05 0 -5.4664424008969974e-05 -4.4330155404671097e-05 0 -6.1016129071358338e-05 -5.4923086274634852e-05 0 -5.3862801619179951e-05 -5.6185925961876156e-05 0 -5.4664424008969974e-05 -4.4330155404671097e-05 0 -4.7362716668664163e-05 -4.3447325273165207e-05 0 -4.8629460599301177e-05 -3.753501490146337e-05 0 -5.4664424008969974e-05 -4.4330155404671097e-05 0 -5.3862801619179951e-05 -5.6185925961876156e-05 0 -4.7362716668664163e-05 -4.3447325273165207e-05 0 -4.4292975652999365e-05 -5.1239221653088918e-05 0 -4.0867474214200907e-05 -3.8692298305272819e-05 0 -4.7362716668664163e-05 -4.3447325273165207e-05 0 -4.0867474214200907e-05 -3.8692298305272819e-05 0 -4.4292975652999365e-05 -5.1239221653088918e-05 0 -3.5860509521887835e-05 -4.5540037417428261e-05 0 -3.4278309674853238e-05 -3.2706593038172445e-05 0 -4.0867474214200907e-05 -3.8692298305272819e-05 0 -3.5860509521887835e-05 -4.5540037417428261e-05 0 -3.0287275972273354e-05 -2.7422081688443125e-05 0 -3.4278309674853238e-05 -3.2706593038172445e-05 0 -3.5860509521887835e-05 -4.5540037417428261e-05 0 -3.0287275972273354e-05 -2.7422081688443125e-05 0 -3.9637810178039525e-05 -2.2993440024314096e-05 0 -3.7512448980598274e-05 -2.1153689958785047e-05 0 -3.0287275972273354e-05 -2.7422081688443125e-05 0 -3.5860509521887835e-05 -4.5540037417428261e-05 0 -2.5333591129855477e-05 -4.7603557810192816e-05 0 -3.0022686963395265e-05 -2.7163396382042383e-05 0 -3.2351267319491564e-05 -3.5545417004156418e-05 0 -2.5333591129855477e-05 -4.7603557810192816e-05 0 -3.5860509521887835e-05 -4.5540037417428261e-05 0 -3.1390977216148566e-05 -5.7161654972307683e-05 0 -4.0036280744016245e-05 -6.4108280146097445e-05 0 -3.1390977216148566e-05 -5.7161654972307683e-05 0 -3.5860509521887835e-05 -4.5540037417428261e-05 0 -3.2351267319491564e-05 -3.5545417004156418e-05 0 -3.5028716667455324e-05 -4.4921736528558316e-05 0 -2.5333591129855477e-05 -4.7603557810192816e-05 0 -3.1390977216148566e-05 -5.7161654972307683e-05 0 -2.3937220668756571e-05 -6.2830020330420744e-05 0 -3.5028716667455324e-05 -4.4921736528558316e-05 0 -3.7974766070728303e-05 -5.5608898876722743e-05 0 -2.3937220668756571e-05 -6.2830020330420744e-05 0 -3.1390977216148566e-05 -5.7161654972307683e-05 0 -3.3258024755932329e-05 -7.2330686278233562e-05 0 -4.0036280744016245e-05 -6.4108280146097445e-05 0 -3.3258024755932329e-05 -7.2330686278233562e-05 0 -3.1390977216148566e-05 -5.7161654972307683e-05 0 -4.3717491793396759e-05 -2.3959783371348166e-05 0 -4.1292247457408253e-05 -2.129724671106796e-05 0 -4.6276974513973798e-05 -2.692503493829761e-05 0 -4.6127258920198054e-05 -2.7128714427096856e-05 0 -5.1421883240831033e-05 -3.2896075081885734e-05 0 -4.6276974513973798e-05 -2.692503493829761e-05 0 -4.6127258920198054e-05 -2.7128714427096856e-05 0 -4.6276974513973798e-05 -2.692503493829761e-05 0 -4.1292247457408253e-05 -2.129724671106796e-05 0 -3.9637810178039525e-05 -2.2993440024314096e-05 0 -4.6127258920198054e-05 -2.7128714427096856e-05 0 -4.1292247457408253e-05 -2.129724671106796e-05 0 -4.1292247457408253e-05 -2.129724671106796e-05 0 -3.6787207316069211e-05 -1.6726700980931736e-05 0 -3.7512448980598274e-05 -2.1153689958785047e-05 0 -3.9637810178039525e-05 -2.2993440024314096e-05 0 -4.1292247457408247e-05 -2.1297246711067956e-05 0 -3.7512448980598274e-05 -2.1153689958785047e-05 0 -3.0287275972273354e-05 -2.7422081688443125e-05 0 -3.7512448980598274e-05 -2.1153689958785047e-05 0 -3.3791978074902952e-05 -1.9409861159258876e-05 0 -3.7512448980598274e-05 -2.1153689958785047e-05 0 -3.6787207316069211e-05 -1.6726700980931736e-05 0 -3.3791978074902952e-05 -1.9409861159258876e-05 0 -3.6787207316069211e-05 -1.6726700980931736e-05 0 -4.1292247457408253e-05 -2.129724671106796e-05 0 -4.0452129564965966e-05 -1.9496638951854209e-05 0 -3.6787207316069211e-05 -1.6726700980931736e-05 0 -4.0452129564965966e-05 -1.9496638951854209e-05 0 -3.5965032262800489e-05 -1.3698099544273893e-05 0 -3.6787207316069211e-05 -1.6726700980931736e-05 0 -3.5965032262800489e-05 -1.3698099544273893e-05 0 -3.2077933905034067e-05 -1.0802176381373212e-05 0 -3.0445550684025345e-05 -6.4635755300414693e-06 0 -3.5965032262800489e-05 -1.3698099544273893e-05 0 -3.3414341511932844e-05 -9.8143598250180306e-06 0 -3.0445550684025345e-05 -6.4635755300414693e-06 0 -3.2077933905034067e-05 -1.0802176381373212e-05 0 -3.5965032262800489e-05 -1.3698099544273893e-05 0 -3.6814693317661512e-05 -1.6001479283944602e-05 0 -3.3414341511932844e-05 -9.8143598250180306e-06 0 -3.5965032262800489e-05 -1.3698099544273893e-05 0 -3.6814693317661512e-05 -1.6001479283944602e-05 0 -3.865833654144671e-05 -1.8063046642023072e-05 0 -3.9733588707716365e-05 -2.1972340227633246e-05 0 -3.6814693317661512e-05 -1.6001479283944602e-05 0 -3.5965032262800489e-05 -1.3698099544273893e-05 0 -3.865833654144671e-05 -1.8063046642023072e-05 0 -4.1311783726228769e-05 -2.2482721136610322e-05 0 -3.865833654144671e-05 -1.8063046642023072e-05 0 -4.0452129564965966e-05 -1.9496638951854209e-05 0 -3.5965032262800489e-05 -1.3698099544273893e-05 0 -4.0452129564965966e-05 -1.9496638951854209e-05 0 -3.865833654144671e-05 -1.8063046642023072e-05 0 -4.1311783726228769e-05 -2.2482721136610322e-05 0 -3.9733588707716365e-05 -2.1972340227633246e-05 0 -3.865833654144671e-05 -1.8063046642023072e-05 0 -4.3717491793396759e-05 -2.3959783371348166e-05 0 -4.0452129564965966e-05 -1.9496638951854209e-05 0 -4.1292247457408253e-05 -2.129724671106796e-05 0 -4.1311783726228769e-05 -2.2482721136610322e-05 0 -4.0452129564965966e-05 -1.9496638951854209e-05 0 -4.443917596764589e-05 -2.6537902628683369e-05 0 -4.3717491793396759e-05 -2.3959783371348166e-05 0 -4.443917596764589e-05 -2.6537902628683369e-05 0 -4.0452129564965966e-05 -1.9496638951854209e-05 0 -4.3717491793396759e-05 -2.3959783371348166e-05 0 -4.8024358077161299e-05 -3.0252463534378444e-05 0 -4.443917596764589e-05 -2.6537902628683369e-05 0 -4.6153971683329105e-05 -3.2087258146870667e-05 0 -4.2865831307507949e-05 -2.7137480084096898e-05 0 -4.443917596764589e-05 -2.6537902628683369e-05 0 -4.6153971683329105e-05 -3.2087258146870667e-05 0 -4.443917596764589e-05 -2.6537902628683369e-05 0 -4.8174304562423333e-05 -3.2339036208137857e-05 0 -4.8024358077161299e-05 -3.0252463534378444e-05 0 -4.8174304562423333e-05 -3.2339036208137857e-05 0 -4.443917596764589e-05 -2.6537902628683369e-05 0 -4.0773791224739926e-05 -2.690026042372477e-05 0 -3.9733588707716365e-05 -2.1972340227633246e-05 0 -4.2865831307507949e-05 -2.7137480084096898e-05 0 -4.1311783726228769e-05 -2.2482721136610322e-05 0 -4.2865831307507943e-05 -2.7137480084096898e-05 0 -3.9733588707716365e-05 -2.1972340227633246e-05 0 -4.1311783726228769e-05 -2.2482721136610322e-05 0 -4.443917596764589e-05 -2.6537902628683369e-05 0 -4.2865831307507949e-05 -2.7137480084096898e-05 0 -4.6153971683329105e-05 -3.2087258146870667e-05 0 -4.3413533398068958e-05 -3.223715278184157e-05 0 -4.2865831307507949e-05 -2.7137480084096898e-05 0 -4.0773791224739926e-05 -2.690026042372477e-05 0 -4.2865831307507949e-05 -2.7137480084096898e-05 0 -4.3413533398068958e-05 -3.223715278184157e-05 0 -4.1610892500284171e-05 -3.4696705741663041e-05 0 -4.3413533398068958e-05 -3.223715278184157e-05 0 -4.4749800043505032e-05 -3.7667206545103595e-05 0 -4.6153971683329105e-05 -3.2087258146870667e-05 0 -4.7281205928653345e-05 -3.7372649140871035e-05 0 -4.3413533398068958e-05 -3.223715278184157e-05 0 -4.7281205928653345e-05 -3.7372649140871035e-05 0 -4.4749800043505032e-05 -3.7667206545103595e-05 0 -4.3413533398068958e-05 -3.223715278184157e-05 0 -5.1432439878427084e-05 -3.7111630371635754e-05 0 -4.9721380799533549e-05 -3.7187754311872975e-05 0 -4.8174304562423333e-05 -3.2339036208137857e-05 0 -4.6153971683329105e-05 -3.2087258146870667e-05 0 -4.9721380799533549e-05 -3.7187754311872975e-05 0 -4.7281205928653345e-05 -3.7372649140871035e-05 0 -4.6153971683329105e-05 -3.2087258146870667e-05 0 -4.8174304562423333e-05 -3.2339036208137857e-05 0 -4.9721380799533549e-05 -3.7187754311872975e-05 0 -5.1844167001187422e-05 -4.2203833951336328e-05 0 -4.7281205928653345e-05 -3.7372649140871035e-05 0 -4.9721380799533549e-05 -3.7187754311872975e-05 0 -5.1432439878427084e-05 -3.7111630371635754e-05 0 -5.2837062838210319e-05 -4.0484947276716941e-05 0 -4.9721380799533549e-05 -3.7187754311872975e-05 0 -5.1844167001187422e-05 -4.2203833951336328e-05 0 -4.9721380799533549e-05 -3.7187754311872975e-05 0 -5.2837062838210319e-05 -4.0484947276716941e-05 0 -5.1432439878427084e-05 -3.7111630371635754e-05 0 -5.4305153514900813e-05 -4.040019368994051e-05 0 -5.2837062838210319e-05 -4.0484947276716941e-05 0 -5.1432439878427084e-05 -3.7111630371635754e-05 0 -5.1709054108749947e-05 -3.5421312700651287e-05 0 -5.4305153514900813e-05 -4.040019368994051e-05 0 -5.1432439878427084e-05 -3.7111630371635754e-05 0 -4.8174304562423333e-05 -3.2339036208137857e-05 0 -5.1709054108749947e-05 -3.5421312700651287e-05 0 -5.5363219508787576e-05 -3.9239934921712193e-05 0 -5.4305153514900813e-05 -4.040019368994051e-05 0 -5.1709054108749947e-05 -3.5421312700651287e-05 0 -2.5859958577851516e-05 -9.3801467637356768e-05 0 -4.0102832499920945e-05 -0.00010459335186529651 0 -2.7727045794233694e-05 -0.00010950506915836219 0 -4.0677501355795994e-05 -6.6527263467353222e-05 0 -4.305380051831398e-05 -7.7300217841515289e-05 0 -5.5363219508787576e-05 -3.9239934921712193e-05 0 -5.8181167654976162e-05 -4.508048546567319e-05 0 -5.4305153514900813e-05 -4.040019368994051e-05 0 -2.7727045794233694e-05 -0.00010950506915836219 0 -4.0102832499920945e-05 -0.00010459335186529651 0 -3.9553870934998727e-05 -0.00011894216939606285 0 -2.5859958577851516e-05 -9.3801467637356768e-05 0 -3.6054170407894431e-05 -8.9375590015914168e-05 0 -4.0102832499920945e-05 -0.00010459335186529651 0 -2.4483683011949481e-05 -7.8255724858544378e-05 0 -3.6054170407894431e-05 -8.9375590015914168e-05 0 -2.5859958577851516e-05 -9.3801467637356768e-05 0 -5.1421883240831033e-05 -3.2896075081885734e-05 0 -5.5363219508787576e-05 -3.9239934921712193e-05 0 -5.1709054108749947e-05 -3.5421312700651287e-05 0 -3.7974766070728303e-05 -5.5608898876722743e-05 0 -4.0677501355795994e-05 -6.6527263467353222e-05 0 -2.4483683011949481e-05 -7.8255724858544378e-05 0 -3.3258024755932329e-05 -7.2330686278233562e-05 0 -3.6054170407894431e-05 -8.9375590015914168e-05 0 -4.3135704785316567e-05 -8.2340140393971515e-05 0 -3.6054170407894431e-05 -8.9375590015914168e-05 0 -3.3258024755932329e-05 -7.2330686278233562e-05 0 -2.3937220668756571e-05 -6.2830020330420744e-05 0 -3.3258024755932329e-05 -7.2330686278233562e-05 0 -2.4483683011949481e-05 -7.8255724858544378e-05 0 -5.1421883240831033e-05 -3.2896075081885734e-05 0 -4.8024358077161299e-05 -3.0252463534378444e-05 0 -4.6276974513973798e-05 -2.692503493829761e-05 0 -4.3717491793396759e-05 -2.3959783371348166e-05 0 -4.6276974513973805e-05 -2.692503493829761e-05 0 -4.8024358077161299e-05 -3.0252463534378444e-05 0 -4.8024358077161299e-05 -3.0252463534378444e-05 0 -5.1709054108749947e-05 -3.5421312700651287e-05 0 -4.8174304562423333e-05 -3.2339036208137857e-05 0 -5.1421883240831033e-05 -3.2896075081885734e-05 0 -5.1709054108749947e-05 -3.5421312700651287e-05 0 -4.8024358077161299e-05 -3.0252463534378444e-05 0 
</DataArray>
</PointData>
<CellData Scalars="region_id,cross_section_updated,displacement_divergence," Vectors="" Tensors="stress,">
<DataArray type="Float64" Name="region_id" format="ascii">
1 1 1 1 1 1 1 1 1 1 1 1 1 1 1 1 1 1 1 1 1 1 1 1 1 1 1 1 1 1 1 1 1 1 1 1 1 1 1 1 1 1 1 1 1 1 1 1 1 1 1 1 1 1 1 1 1 1 1 1 1 1 1 1 1 1 1 1 1 1 1 1 1 1 1 1 1 1 1 1 1 1 1 1 1 1 1 1 1 1 1 1 1 1 1 1 1 1 1 1 1 1 1 1 1 1 1 1 1 1 1 1 1 1 1 1 1 1 1 1 1 1 1 1 1 1 1 1 1 1 1 1 1 1 1 1 1 1 1 1 1 1 1 1 1 1 1 1 1 1 1 1 1 1 1 1 1 1 1 1 1 1 1 1 1 1 1 1 1 1 1 1 1 1 1 1 1 1 1 1 1 1 1 1 1 1 1 1 1 1 1 1 1 1 1 1 1 1 1 1 1 1 1 1 1 1 1 1 1 1 1 1 1 1 1 1 1 1 1 1 1 1 1 1 1 1 1 1 1 1 1 1 1 1 1 1 1 1 1 1 1 1 1 1 1 1 1 1 1 1 1 1 1 1 1 1 1 1 1 1 1 1 1 1 1 1 1 1 1 1 1 1 1 1 1 1 1 1 1 1 1 1 1 1 1 1 1 1 1 1 1 1 1 1 1 1 1 1 1 1 1 1 1 1 1 1 1 1 1 1 1 1 1 1 1 1 1 1 1 1 1 1 1 1 1 1 1 1 1 1 1 1 1 1 1 1 1 1 1 1 1 1 1 1 1 1 1 1 1 1 1 1 1 1 1 1 1 1 1 1 1 1 1 1 1 1 1 1 1 1 1 1 1 1 1 1 1 1 1 1 1 1 1 1 1 1 1 1 1 1 1 1 1 1 1 1 1 1 1 1 1 1 1 1 1 1 1 1 1 1 1 1 1 1 1 1 1 1 1 1 1 1 1 1 1 1 1 1 1 1 1 1 1 1 1 1 1 1 1 1 1 1 1 1 1 1 1 1 1 1 1 1 1 1 1 1 1 1 1 1 1 1 1 1 1 1 1 1 1 1 1 1 1 1 1 1 1 1 1 1 1 1 1 1 1 1 1 1 1 1 1 1 1 1 1 1 1 1 1 1 1 1 1 1 1 1 1 1 1 1 1 1 1 1 1 1 1 1 1 1 1 1 1 1 1 1 1 1 1 1 1 1 1 1 1 1 1 1 3 1 1 3 1 1 3 1 1 1 1 1 1 1 1 1 1 1 1 1 3 1 1 1 1 1 3 1 1 1 1 1 1 1 1 1 1 1 1 1 1 1 1 1 1 1 1 1 1 1 1 1 1 1 1 1 1 1 1 1 1 1 1 1 1 1 1 1 1 1 1 1 1 1 1 1 1 1 1 1 1 1 1 1 1 1 1 1 1 1 1 1 1 1 1 1 1 1 1 1 1 1 1 1 1 1 1 1 1 1 1 1 1 1 1 1 1 1 1 1 1 1 1 1 1 1 1 1 1 1 1 1 1 1 1 1 1 1 1 1 1 1 1 1 1 1 1 1 1 1 1 1 1 1 1 1 1 1 1 1 1 1 1 1 1 1 1 1 1 1 1 1 1 1 1 1 1 1 1 1 1 1 1 1 1 1 1 1 1 1 1 1 1 1 1 3 1 1 1 3 1 1 3 1 1 1 1 1 1 1 1 1 1 1 3 1 1 1 1 3 1 1 1 1 1 1 1 1 1 1 1 1 1 1 1 1 1 1 1 1 1 1 1 1 1 1 1 1 1 1 1 1 1 1 1 1 1 1 1 1 1 1 1 1 1 1 1 1 1 1 1 1 1 1 1 1 1 1 2 1 1 1 1 1 1 1 1 1 1 1 1 1 1 2 1 1 2 1 2 1 1 1 1 1 1 1 1 1 1 1 1 1 2 1 1 1 1 1 1 1 1 1 1 1 1 1 1 1 1 1 1 1 1 1 1 1 1 1 1 1 1 1 1 1 1 1 1 1 1 1 1 1 1 1 1 1 1 1 1 1 1 1 1 1 1 1 1 1 1 1 1 1 1 1 1 1 1 1 1 1 1 1 1 1 1 1 1 1 1 1 1 1 1 1 1 1 1 1 1 1 1 1 1 1 1 1 1 1 1 1 1 1 1 1 1 1 1 1 1 1 1 1 1 1 1 1 1 1 1 1 1 1 1 1 1 1 1 1 1 1 1 1 1 1 1 1 1 1 1 2 1 1 2 1 2 1 1 1 1 1 1 1 1 1 1 1 1 1 1 1 1 1 1 1 1 1 1 1 1 1 1 1 1 1 1 1 1 1 1 1 1 1 1 1 1 1 1 1 1 1 1 1 2 1 1 1 1 1 2 1 1 1 1 1 1 1 
</DataArray>
<DataArray type="Float64" Name="stress" NumberOfComponents="9" format="ascii">
-0.17898468443475452 -0.024014414072447754 0 -0.024014414072447754 -0.02454571544185169 0 0 0 -0.050882599969151551 -0.15381328493387103 -0.024919861355510407 0 -0.024919861355510407 -0.051177494991508331 0 0 0 -0.051247694981344849 -0.16177121605239159 -0.0145747882878739 0 -0.0145747882878739 -0.0040832301550359209 0 0 0 -0.041463611551856898 -0.13916042051089131 -0.016740923215457289 0 -0.016740923215457289 -0.033035355217185182 0 0 0 -0.043048943932019128 -0.12029815412028318 -0.01036152026536338 0 -0.01036152026536338 -0.040123123422141541 0 0 0 -0.040105319385606179 -0.12028171077799366 -0.010347497591666041 0 -0.010347497591666041 -0.040070072293373615 0 0 0 -0.040087945767841818 -0.12638909431189849 -0.0073973117962099592 0 -0.0073973117962099592 -0.017818385419433022 0 0 0 -0.036051869932832888 -0.13556154335925605 -0.013178993205136106 0 -0.013178993205136106 -0.023209985989059871 0 0 0 -0.039692882337078982 -0.12771063893865006 -0.007822334826191964 0 -0.007822334826191964 -0.021687433635776937 0 0 0 -0.037349518143606757 -0.11440985016461583 -0.0036956413193552952 0 -0.0036956413193552952 -0.014834074012506575 0 0 0 -0.032310981044280596 -0.13266590075550289 -0.0044141349635863358 0 -0.0044141349635863358 -0.01400703020346547 0 0 0 -0.036668232739742082 -0.11423031636580895 -6.4384722811592493e-05 0 -6.4384722811592493e-05 -0.0063317918839687348 0 0 0 -0.030140527062444439 -0.1382970109035157 -0.00092982626960309844 0 -0.00092982626960309844 -0.0062852080710217584 0 0 0 -0.036145554743634394 -0.13032923733072743 -0.0021071250316005014 0 -0.0021071250316005014 -0.0035282643719865905 0 0 0 -0.033464375425678525 -0.14557220301014723 0.00056212896400889751 0 0.00056212896400889751 -0.0024829287322750138 0 0 0 -0.037013782935605567 -0.14657181656874049 -0.0029011541679471575 0 -0.0029011541679471575 -0.0010565652651496338 0 0 0 -0.036907095458472525 -0.1414312700400617 -0.001604799324762738 0 -0.001604799324762738 -0.0007690648000451372 0 0 0 -0.035550083710026693 -0.14649208479641865 -0.0075092497388875995 0 -0.0075092497388875995 -0.012673451155302717 0 0 0 -0.039791383987930334 -0.086579946716093314 -0.00014713321119844087 0 -0.00014713321119844087 -0.028854401867896107 0 0 0 -0.028858587145997355 -0.090700553085582378 0.0019127616973971108 0 0.0019127616973971108 -0.023860449798053612 0 0 0 -0.028640250720908995 -0.095881429024793963 -0.0021122608585031049 0 -0.0021122608585031049 -0.024100367703678405 0 0 0 -0.029995449182118085 -0.10566570089641276 -0.0016715101251739226 0 -0.0016715101251739226 -0.024088202290601806 0 0 0 -0.03243847579675363 -0.10655786205407891 -0.0032880110997576986 0 -0.0032880110997576986 -0.025779558762424264 0 0 0 -0.033084355204125795 -0.097516482596148146 0.00017215553835366569 0 0.00017215553835366569 -0.021377227450003318 0 0 0 -0.029723427511537864 -0.0973806649572794 -0.0025869203109139022 0 -0.0025869203109139022 -0.03246832783623909 0 0 0 -0.032462248198379624 -0.11039574354694279 -0.00032804984393867628 0 -0.00032804984393867628 -0.013810672347482733 0 0 0 -0.031051603973606384 -0.11234781846410237 -0.0024113424326129874 0 -0.0024113424326129874 -0.014215125285309757 0 0 0 -0.031640735937353039 -0.1074051133740819 -0.0031302415912995429 0 -0.0031302415912995429 -0.020803580760856439 0 0 0 -0.032052173533734588 -0.09407033968927915 -0.0015246026329794674 0 -0.0015246026329794674 -0.017596840926038082 0 0 0 -0.027916795153829325 -0.093631058496298838 0.00031687639301777523 0 0.00031687639301777523 -0.015428967551659598 0 0 0 -0.027265006511989612 -0.086238645123349486 0.0027087730153095382 0 0.0027087730153095382 -0.018610748113114632 0 0 0 -0.026212348309116035 -0.083355268280542599 -0.00097301587738612581 0 -0.00097301587738612581 -0.022406542524374438 0 0 0 -0.026440452701229255 -0.084550450079505637 0.0019389794027199472 0 0.0019389794027199472 -0.013175188905902168 0 0 0 -0.024431409746351954 -0.086311159815339017 -0.001170293499365805 0 -0.001170293499365805 -0.012419649180288081 0 0 0 -0.024682702248906778 -0.096425330623442468 0.0024438777585912355 0 0.0024438777585912355 -0.0089190857157362413 0 0 0 -0.02633610408479467 -0.11221095706025988 0.0026931091304828844 0 0.0026931091304828844 -0.0077220544135842006 0 0 0 -0.02998325286846102 -0.10725566813809127 0.00085418879692921584 0 0.00085418879692921584 -0.011877682408127258 0 0 0 -0.029783337636554632 -0.098453407915409477 0.00039507875689905915 0 0.00039507875689905915 -0.0091557315436791437 0 0 0 -0.026902284864772131 -0.111132622604923 0.0022420002976346678 0 0.0022420002976346678 -0.0040471990399124219 0 0 0 -0.028794955411208845 -0.11461944153606106 0.0046400042302451316 0 0.0046400042302451316 -0.0043551983797943394 0 0 0 -0.02974365997896386 -0.1031994099089249 0.003246021716049069 0 0.003246021716049069 -0.0019111107632589219 0 0 0 -0.026277630168045945 -0.098793297839575606 0.0057784201092754006 0 0.0057784201092754006 -0.00047864799368030342 0 0 0 -0.02481798645831397 -0.099248401080783505 0.0019594881179638857 0 0.0019594881179638857 -0.0037761038650150625 0 0 0 -0.025756126236449649 -0.088306850302655934 0.00032141025392177364 0 0.00032141025392177364 -0.0064538513160487913 0 0 0 -0.0236901754046762 -0.098411296051140351 0.0038993934730304908 0 0.0038993934730304908 -0.0046123232127269001 0 0 0 -0.025755904815966821 -0.094321641776887996 -0.00023108425730059869 0 -0.00023108425730059869 -0.0017077106601001701 0 0 0 -0.024007338109247049 -0.078990176305636803 -0.00013697134580611947 0 -0.00013697134580611947 -0.0036908592280344987 0 0 0 -0.020670258883417808 -0.086950121467718688 0.0013740095333536467 0 0.0013740095333536467 -0.004393180308473868 0 0 0 -0.022835825444048115 -0.14192076740525311 0.0016003497253338425 0 0.0016003497253338425 -0.0011896309794094811 0 0 0 -0.035777599596165673 -0.13524218584300379 0.0051994252861560161 0 0.0051994252861560161 -0.0013045774465794135 0 0 0 -0.034136690822395829 -0.15109585409262291 0.0033304419745087271 0 0.0033304419745087271 -0.0010865386609154037 0 0 0 -0.038045598188384586 -0.14091673982558128 0.0022515087823710006 0 0.0022515087823710006 -0.00075140731296462204 0 0 0 -0.035417036784636459 -0.12549789395759869 0.0015666078351839682 0 0.0015666078351839682 -0.0027331151633464904 0 0 0 -0.032057752280236301 -0.12649471094793524 0.00020204526670004885 0 0.00020204526670004885 -0.0089459649351556758 0 0 0 -0.033860168970772736 -0.12648286608024409 0.0039119755202879219 0 0.0039119755202879219 -0.0055056208027345829 0 0 0 -0.032997121720744663 -0.1301796133536684 0.0010540785149441081 0 0.0010540785149441081 -0.0032009610806103539 0 0 0 -0.033345143608569702 -0.11477894971890343 0.0036884975413805296 0 0.0036884975413805296 -0.0022930673413809749 0 0 0 -0.02926800426507108 -0.13034795583934894 0.0052909915435422981 0 0.0052909915435422981 -0.0030051917433364939 0 0 0 -0.033338286895671351 -0.11749712878203533 0.0040959180257888125 0 0.0040959180257888125 -0.00078979163698195132 0 0 0 -0.029571730104754362 -0.12937041884205033 0.0054123228784589694 0 0.0054123228784589694 4.0221485591768191e-05 0 0 0 -0.032332549339114641 -0.14149364718224466 0.0036600945656921208 0 0.0036600945656921208 -0.00079259692355107547 0 0 0 -0.0355715610264489 -0.14192312648133976 0.003703517764457126 0 0.003703517764457126 -0.0016300211132308229 0 0 0 -0.035888286898642624 -0.14100688845625275 0.0031783819607126701 0 0.0031783819607126701 0.00057349945525539403 0 0 0 -0.035108347250249299 -0.15692121909795714 0.0039339710192216682 0 0.0039339710192216682 -0.00065918249486102143 0 0 0 -0.03939510039820452 -0.15995391695736405 0.0034399256591538807 0 0.0034399256591538807 -0.00049336131307708975 0 0 0 -0.040111819567610271 -0.14161763360545654 0.0044885372093720899 0 0.0044885372093720899 0.0014184583067437251 0 0 0 -0.03504979382467821 -0.14649071079290599 0.0027788041473149477 0 0.0027788041473149477 0.0010379541795800529 0 0 0 -0.036363189153331504 -0.16991526077775732 0.0020774308119259613 0 0.0020774308119259613 0.0013761082204635788 0 0 0 -0.042134788139323434 -0.14798829815825551 0.0056012581415178786 0 0.0056012581415178786 0.0024316266334385439 0 0 0 -0.036389167881204137 -0.14182324289972381 -0.0015453576583123185 0 -0.0015453576583123185 0.0010085165081297753 0 0 0 -0.035203681597898509 -0.1504958575878409 0.002296954630539555 0 0.002296954630539555 0.0027992115838585963 0 0 0 -0.036924161500995603 -0.17761951533136877 -0.001422613286991828 0 -0.001422613286991828 -0.00030573321339300019 0 0 0 -0.044481312136190387 -0.11694876450278785 -0.0024745294238367049 0 -0.0024745294238367049 0.0075945156830922178 0 0 0 -0.027338562204923894 -0.1147778621544243 0.0060501302450340355 0 0.0060501302450340355 0.0043649902325021417 0 0 0 -0.027603217980480526 -0.130782480185518 0.0047232140823892871 0 0.0047232140823892871 0.0007449135596548917 0 0 0 -0.032509391656465741 -0.12986407634937716 0.0033003515004980388 0 0.0033003515004980388 0.0036387209732676729 0 0 0 -0.031556338844027365 -0.11661298178533791 0.007835270360660132 0 0.007835270360660132 0.0022919013351188067 0 0 0 -0.028580270112554762 -0.14175705427077326 0.0083461427769469729 0 0.0083461427769469729 0.002838455089766434 0 0 0 -0.034729649795251699 -0.13000366625181745 0.0035993068295316621 0 0.0035993068295316621 0.00023012041092207447 0 0 0 -0.032443386460223933 -0.12975224262563895 0.0076213305694358691 0 0.0076213305694358691 0.00036107661604853759 0 0 0 -0.032347791502397527 -0.11651270866182456 0.0053694811100887807 0 0.0053694811100887807 -0.00047545850837014958 0 0 0 -0.02924704179254866 -0.10346586251855508 0.0053740746306253084 0 0.0053740746306253084 0.0010749735297136964 0 0 0 -0.02559772224721038 -0.10340279242306824 0.0015763922752542181 0 0.0015763922752542181 0.0011262893443005351 0 0 0 -0.025569125769691923 -0.099518977408311005 0.00052085666643655881 0 0.00052085666643655881 0.0057643320796109676 0 0 0 -0.023438661332174988 -0.092307837386813293 0.0037344993870637166 0 0.0037344993870637166 0.0020264021728168546 0 0 0 -0.022570358803499099 -0.11561882440245416 0.0031334053705973555 0 0.0031334053705973555 0.0023911473177258835 0 0 0 -0.028306919271182049 -0.083919179761798052 -0.0019740876799848595 0 -0.0019740876799848595 0.0020593733346042364 0 0 0 -0.02046495160679844 -0.086820118297508811 0.003096490818949138 0 0.003096490818949138 -0.00058394770930361023 0 0 0 -0.021851016501703107 -0.089594135409723621 -0.0020812036088306719 0 -0.0020812036088306719 0.0053869990715568195 0 0 0 -0.021051784084541725 -0.075397811407870177 -0.0068067060264427742 0 -0.0068067060264427742 0.0091152736597872874 0 0 0 -0.01657063443702074 -0.07922194841847599 0.00058431527246317547 0 0.00058431527246317547 0.0056074334108229817 0 0 0 -0.018403628751913259 -0.086239122344270572 -0.0028671930042327431 0 -0.0028671930042327431 0.01275623214700991 0 0 0 -0.018370722549315155 -0.069996994794770589 -0.0051194495928663653 0 -0.0051194495928663653 0.01347526358582643 0 0 0 -0.014130432802236054 -0.072298765421413766 -0.0088242036493771797 0 -0.0088242036493771797 0.021944110565805974 0 0 0 -0.012588663713901938 -0.10149514475665447 0.0055507583773627377 0 0.0055507583773627377 0.0038852764958439701 0 0 0 -0.024402467065202632 -0.10615703112558292 -0.0004879240145167496 0 -0.0004879240145167496 0.0059953794483577627 0 0 0 -0.025040412919306303 -0.085866906625800044 0.00027863811541924133 0 0.00027863811541924133 0.0064799988549654186 0 0 0 -0.019846726942708698 -0.090270870944950843 -0.0037155302696210146 0 -0.0037155302696210146 0.011435876638558828 0 0 0 -0.019708748576597934 -0.098951386217607643 0.0030632670041230853 0 0.0030632670041230853 0.010643417952300394 0 0 0 -0.02207699206632685 -0.10582777743893315 0.0024542677787575407 0 0.0024542677787575407 0.013041974307844373 0 0 0 -0.023196450782772216 -0.09317205604559381 -0.0058519141932106972 0 -0.0058519141932106972 0.028015485979055343 0 0 0 -0.016289142516634575 -0.099071046349106323 -0.0092301835202272531 0 -0.0092301835202272531 0.015168439199544305 0 0 0 -0.020975651787390526 -0.051480819834968855 -0.013186140745251249 0 -0.013186140745251249 0.026029181661898659 0 0 0 -0.006362909543267542 -0.087727541986339558 -0.0024514792535400565 0 -0.0024514792535400565 0.019900835940175929 0 0 0 -0.016956676511540945 -0.071586390340115907 -0.0086872232637367763 0 -0.0086872232637367763 0.021677355459616632 0 0 0 -0.012477258720124812 -0.070664251585189103 -0.0092148715630634148 0 -0.0092148715630634148 0.035197144119155199 0 0 0 -0.0088667768665084412 -0.052867449262713022 -0.018758103578763397 0 -0.018758103578763397 0.038328063880943133 0 0 0 -0.0036348463454425259 -0.070803334193521639 -0.014580780716185904 0 -0.014580780716185904 0.052490384321374234 0 0 0 -0.0045782374680368165 -0.070743942242288693 -0.027582918362176911 0 -0.027582918362176911 0.049726527281042099 0 0 0 -0.0052543537403116347 -0.063282793893358669 -0.031892013290126309 0 -0.031892013290126309 0.044125386903166808 0 0 0 -0.0047893517475479097 -0.050088684545831708 -0.025007774065841204 0 -0.025007774065841204 0.079285816814870236 0 0 0 0.0072992830672596876 -0.094141392705263588 -0.018240539995102167 0 -0.018240539995102167 0.033293226988012181 0 0 0 -0.0152120414293129 -0.078566690542797663 -0.015623519873537162 0 -0.015623519873537162 0.025887819010557811 0 0 0 -0.013169717883059845 -0.076180977462647792 -0.029613944786868518 0 -0.029613944786868518 0.03070430985795114 0 0 0 -0.011369166901174066 -0.10023730314936871 -0.012198209742209254 0 -0.012198209742209254 0.016116684687395355 0 0 0 -0.021030154615493374 -0.097094078547455887 -0.023586950571847842 0 -0.023586950571847842 0.02080351141413217 0 0 0 -0.019072641783331012 -0.11584557392816555 -0.014643870154138552 0 -0.014643870154138552 0.014603533585550554 0 0 0 -0.025310510085653687 -0.12713829786764244 -0.0043436777767820178 0 -0.0043436777767820178 0.0049029091167590577 0 0 0 -0.030558847187720922 -0.12723383329316612 -0.017631637316248644 0 -0.017631637316248644 0.010958701934790205 0 0 0 -0.029068782839594132 -0.14073240676440457 -0.0035531417028961676 0 -0.0035531417028961676 0.0012300056508599555 0 0 0 -0.03487560027838621 -0.17211992743980006 -0.0041942301708259577 0 -0.0041942301708259577 0.0041746182213611149 0 0 0 -0.041986327304609772 -0.14905824010910224 -0.00036827340735035019 0 -0.00036827340735035019 0.0020701418686223105 0 0 0 -0.036747024560119856 -0.14454322658079771 -0.007913543345339169 0 -0.007913543345339169 0.005173636064327497 0 0 0 -0.03484239762911763 -0.15256969546853616 -0.0034415122451821323 0 -0.0034415122451821323 0.00069423218002973019 0 0 0 -0.037968865822126663 -0.14264704400716682 0.0026972367758722748 0 0.0026972367758722748 0.0024949373680421827 0 0 0 -0.035038026659781285 -0.17935432997158235 0.0011814018547599324 0 0.0011814018547599324 0.00087414028774523977 0 0 0 -0.044620047420959263 -0.15500430481720559 0.0054439533220691505 0 0.0054439533220691505 0.0015939687402235017 0 0 0 -0.038352584019245559 -0.12971613892382983 0.0046810979401332997 0 0.0046810979401332997 0.0059948887498166847 0 0 0 -0.030930312543503286 -0.11534059692458908 -0.0011094841540605083 0 -0.0011094841540605083 0.011251502330224747 0 0 0 -0.026022273648591096 -0.12761915623425343 -0.0060769765080591065 0 -0.0060769765080591065 0.0079055199219837391 0 0 0 -0.029928409078067458 -0.078988159684990275 -0.014884625559118167 0 -0.014884625559118167 0.069940431883230791 0 0 0 -0.002261931950439916 -0.07835882401115557 -0.016518532257298921 0 -0.016518532257298921 0.057603012141894838 0 0 0 -0.0051889529673152246 -0.077419711446314932 -0.020417495173664313 0 -0.020417495173664313 0.052089685247609929 0 0 0 -0.0063325065496761812 -0.086655168891405468 -0.009464876461140484 0 -0.009464876461140484 0.059499774688403215 0 0 0 -0.0067888485507506258 -0.083503093230863995 -0.00027073052934087176 0 -0.00027073052934087176 0.06550961244351497 0 0 0 -0.0044983701968372321 -0.077528194465507322 -0.0037650835637403103 0 -0.0037650835637403103 0.077228443423225199 0 0 0 -7.4937760570514302e-05 -0.088089003653633119 -0.012770267590492414 0 -0.012770267590492414 0.074800226079046558 0 0 0 -0.0033221943936466436 -0.087255195006661054 -0.011995780552483576 0 -0.011995780552483576 0.070469783086549109 0 0 0 -0.0041963529800280036 -0.084512561963856286 -0.013543607320072671 0 -0.013543607320072671 0.070440368240573314 0 0 0 -0.0035180484308207499 -0.084585123700278333 -0.012682336165334374 0 -0.012682336165334374 0.064928467050631822 0 0 0 -0.0049141641624115689 -0.09215152392687663 -0.011790324210080944 0 -0.011790324210080944 0.064249305402069135 0 0 0 -0.0069755546312018357 -0.086906876321028087 -0.016272157244425732 0 -0.016272157244425732 0.071351518526994423 0 0 0 -0.0038888394485084229 -0.088250363483280012 -0.017339559723884443 0 -0.017339559723884443 0.068994696006491857 0 0 0 -0.0048139168691970456 -0.085524103380187205 -0.023906624855133216 0 -0.023906624855133216 0.075362992281591712 0 0 0 -0.0025402777746489288 -0.086277781369024087 -0.016144647461486226 0 -0.016144647461486226 0.084077658967158575 0 0 0 -0.00055003060046637797 -0.030143277336507734 -0.070188318137530653 0 -0.070188318137530653 0.13530390028016875 0 0 0 0.026290155735915199 -0.095039429763777619 -0.042077455353324439 0 -0.042077455353324439 0.084700829888328555 0 0 0 -0.0025846499688622487 -0.036321956755066984 -0.048826399562843792 0 -0.048826399562843792 0.075209381160523531 0 0 0 0.0097218561013641819 -0.093301754843640866 -0.02253598605916772 0 -0.02253598605916772 0.073440778666003959 0 0 0 -0.0049652440444092477 -0.020184625377987209 -0.025964799927356119 0 -0.025964799927356119 0.11600247576932532 0 0 0 0.023954462597834569 -0.02726375855631874 -0.035363174470207842 0 -0.035363174470207842 0.064757282908497027 0 0 0 0.0093733810880445856 0.005527944359424386 -0.042766114948293979 0 -0.042766114948293979 0.08223382731634532 0 0 0 0.021940442918942427 -0.049481708983986433 -0.035822913231561532 0 -0.035822913231561532 0.06317327924217031 0 0 0 0.0034228925645459207 -0.051614554233072013 -0.018451219293995277 0 -0.018451219293995277 0.06024030564525007 0 0 0 0.0021564378530444794 -0.027517606027016625 -0.026882036204295426 0 -0.026882036204295426 0.048089200698365864 0 0 0 0.0051428986678373062 -0.057648048163834849 -0.01976608318870246 0 -0.01976608318870246 0.039805469755736872 0 0 0 -0.0044606446020245358 -0.053583205737936623 -0.018922474082520985 0 -0.018922474082520985 0.02892254931602023 0 0 0 -0.0061651641054791262 -0.071789574882318005 -0.030970251307527591 0 -0.030970251307527591 0.065730794927242875 0 0 0 -0.0015146949887688138 -0.073975767556775734 -0.033273249457067854 0 -0.033273249457067854 0.050225959077995819 0 0 0 -0.0059374521196950136 -0.052014927250503648 -0.031628230900093923 0 -0.031628230900093923 0.055096660747910919 0 0 0 0.0007704333743517866 -0.071666035569887584 -0.020803581344806643 0 -0.020803581344806643 0.030297662915888646 0 0 0 -0.010342093163499752 -0.066386628583868096 -0.021354006782870163 0 -0.021354006782870163 0.051646938855958002 0 0 0 -0.0036849224319775303 -0.063236446871949625 -0.019177019270834011 0 -0.019177019270834011 0.032396652579097018 0 0 0 -0.0077099485732131101 -0.065944582716406921 -0.0096661444388372042 0 -0.0096661444388372042 0.028034478379640154 0 0 0 -0.0094775260841917092 -0.061559302155276052 -0.012119266421733763 0 -0.012119266421733763 0.016627003101543969 0 0 0 -0.011233074763433021 -0.064644002174920293 -0.016485030563323941 0 -0.016485030563323941 0.027896303452614235 0 0 0 -0.0091869246805765248 -0.064000716207055941 -0.015345366812355186 0 -0.015345366812355186 0.020566605462040255 0 0 0 -0.010858527686253922 -0.066487398704002332 -0.0094122285441586573 0 -0.0094122285441586573 0.022615198832985739 0 0 0 -0.010968049967754148 -0.072545319285779758 -0.0050683528770885666 0 -0.0050683528770885666 0.014335146734026857 0 0 0 -0.014552543137938214 -0.067406702638814611 -0.010117191426097294 0 -0.010117191426097294 0.011342105872868794 0 0 0 -0.014016149191486485 -0.070500995393641616 -0.0032920326138981548 0 -0.0032920326138981548 0.0093714833099233508 0 0 0 -0.015282378020929563 -0.072908316134015314 -0.0047483772264334066 0 -0.0047483772264334066 0.0024913609789486424 0 0 0 -0.017604238788766668 -0.077170590593943877 0.00012618838938171367 0 0.00012618838938171367 0.0036528280316376061 0 0 0 -0.018379440640576575 -0.06912664730079468 -0.0084179394994482737 0 -0.0084179394994482737 0.017915736958191292 0 0 0 -0.012802727585650826 -0.066157192085510283 -0.011097245980736161 0 -0.011097245980736161 0.015751516910166935 0 0 0 -0.012601418793835799 -0.068404213198549418 -0.0059308191218064993 0 -0.0059308191218064993 0.013868570072141954 0 0 0 -0.013633910781601859 -0.068116438596334747 -0.006781304760500536 0 -0.006781304760500536 0.0089676364695873007 0 0 0 -0.014787200531686858 -0.066006935227683985 -0.007842868164747975 0 -0.007842868164747975 0.019025500296415185 0 0 0 -0.011745358732817165 -0.063309325171753611 -0.0014133023587520992 0 -0.0014133023587520992 0.01071294375835169 0 0 0 -0.013149095353350466 -0.060245195293859355 0.00075581195484049173 0 0.00075581195484049173 0.020321326606333165 0 0 0 -0.0099809671718815406 -0.062397271416579886 0.0017548210229827322 0 0.0017548210229827322 0.014664822704869506 0 0 0 -0.011933112177927592 -0.067972114842578729 -0.0054602461665954598 0 -0.0054602461665954598 0.022537475469318495 0 0 0 -0.011358659843315078 -0.064853625324559003 -0.0071783598011446181 0 -0.0071783598011446181 0.032342976841567478 0 0 0 -0.0081276621207478847 -0.073481749953038938 -0.0088775168550507474 0 -0.0088775168550507474 0.028801954458566981 0 0 0 -0.011169948873617976 -0.067553822544094214 -0.0072139397382685114 0 -0.0072139397382685114 0.046164416611126274 0 0 0 -0.0053473514832419675 -0.065906555701892938 -0.0016490771785258856 0 -0.0016490771785258856 0.034954421595575158 0 0 0 -0.0077380335265794312 -0.079543995434100956 -0.0088590011312418004 0 -0.0088590011312418004 0.041721335227530555 0 0 0 -0.0094556650516426054 -0.07202325384223443 -0.013073429686428398 0 -0.013073429686428398 0.058021406485535734 0 0 0 -0.0035004618391746897 -0.075208023444964495 -0.015884321610942741 0 -0.015884321610942741 0.038397848909724266 0 0 0 -0.0092025436338100397 -0.067725326849257528 0.0051607466488830384 0 0.0051607466488830384 0.072959787382147104 0 0 0 0.0013086151332223975 -0.078762403273291454 -0.0006461167276888061 0 -0.0006461167276888061 0.048377429703382789 0 0 0 -0.0075962433924771523 -0.071462121047801919 -0.0047718020259373307 0 -0.0047718020259373307 0.063466552530687295 0 0 0 -0.0019988921292786628 -0.067048409472564852 0.0004517962081579778 0 0.0004517962081579778 0.035241745633685449 0 0 0 -0.0079516659597198263 -0.066127324749270633 0.0071886955335902043 0 0.0071886955335902043 0.046797273433547434 0 0 0 -0.0048325128289308517 -0.0634869426252683 0.0049412775557345478 0 0.0049412775557345478 0.050275469040783255 0 0 0 -0.0033028683961212487 -0.060017511732001885 0.007074151778543719 0 0.007074151778543719 0.023162815947101671 0 0 0 -0.0092136739462250709 -0.057619154720696203 0.0059800550933375354 0 0.0059800550933375354 0.029120131985397573 0 0 0 -0.0071247556838246592 -0.050652840965527496 0.010794029869262608 0 0.010794029869262608 0.018704927133062953 0 0 0 -0.0079869784581161323 -0.049153317932995461 0.0084889384896665414 0 0.0084889384896665414 0.0076770255355984706 0 0 0 -0.010369073099349245 -0.054476568689804099 0.0041922776769670366 0 0.0041922776769670366 -0.0029981808463146378 0 0 0 -0.014368687384029702 -0.055985991021749879 0.0060776584991994141 0 0.0060776584991994141 0.010957539582246425 0 0 0 -0.01125711285987588 -0.055806399036245818 0.0055053249907925303 0 0.0055053249907925303 0.0093205749002067025 0 0 0 -0.011621456034009794 -0.063563169997294638 -0.0019342599163208497 0 -0.0019342599163208497 0.0085215491306052035 0 0 0 -0.013760405216672364 -0.059434331583284608 0.0010666331041261608 0 0.0010666331041261608 -0.00030216343982427882 0 0 0 -0.01493412375577723 -0.057906624910267129 0.0029595777740803143 0 0.0029595777740803143 0.0026308653274314609 0 0 0 -0.013818939895708924 -0.056046477639095801 0.0037090694874087077 0 0.0037090694874087077 0.0075201388693144425 0 0 0 -0.012131584692445341 -0.054070235722276448 0.0031128847533935821 0 0.0031128847533935821 -0.008162550600377478 0 0 0 -0.015558196580663474 -0.053916253099692793 0.0037314417881643119 0 0.0037314417881643119 -0.0076561020159169272 0 0 0 -0.015393088778902423 -0.058257995491318167 0.0020000174471241361 0 0.0020000174471241361 -0.010698974710091833 0 0 0 -0.017239242550352502 -0.04807032531164384 0.0050080402282665238 0 0.0050080402282665238 -0.011448389779581873 0 0 0 -0.014879678772806427 -0.049452931792660193 0.0035697761163912232 0 0.0035697761163912232 -0.015097859699557461 0 0 0 -0.016137697873054409 -0.044454367987798997 0.0066151161700733147 0 0.0066151161700733147 -0.0088479401009640274 0 0 0 -0.013325577022190754 -0.050455496746630676 0.0047096594355999794 0 0.0047096594355999794 -0.009777634212703272 0 0 0 -0.015058282739833494 -0.050614416607993234 0.00554135220394689 0 0.00554135220394689 -0.0020133355754435381 0 0 0 -0.013156938045859204 -0.077567149574343658 -0.00087223987901294958 0 -0.00087223987901294958 0.0029875920292395004 0 0 0 -0.018644889386276033 -0.070983381551812233 -0.0011493462201661656 0 -0.0011493462201661656 -0.0039418306876410347 0 0 0 -0.018731303059863307 -0.076977876841267112 -4.9887747116783565e-05 0 -4.9887747116783565e-05 -0.0045458994468735858 0 0 0 -0.020380944072035157 -0.067445566627766157 -0.0011185440263788158 0 -0.0011185440263788158 -0.0071555128624486673 0 0 0 -0.018650269872553724 -0.069122022586966675 -0.0010110925972491649 0 -0.0010110925972491649 0.0029693250677940847 0 0 0 -0.016538174379793151 -0.066785993584271647 -0.00085089524918904869 0 -0.00085089524918904869 0.0033440028332939464 0 0 0 -0.015860497687744387 -0.065705279640772024 -0.0031498942680918268 0 -0.0031498942680918268 0.0011435326140775068 0 0 0 -0.016140436756673621 -0.062819138199057545 0.0012063310435063371 0 0.0012063310435063371 0.0039822640227107353 0 0 0 -0.01470921854408672 -0.061964642460388734 -0.00015954528823266395 0 -0.00015954528823266395 -0.0063597114010697856 0 0 0 -0.017081088465364633 -0.064237909250673478 -0.00090421009762541027 0 -0.00090421009762541027 -0.0076525672407867854 0 0 0 -0.017972619122865068 -0.058472167820688772 0.002991500638144354 0 0.002991500638144354 -0.011401125273835183 0 0 0 -0.017468323273630976 -0.066497358273085741 0.0013747097754516543 0 0.0013747097754516543 -0.0046533172697659341 0 0 0 -0.017787668885712933 -0.068566043292067572 0.00036623389352786247 0 0.00036623389352786247 -0.0096120601138564438 0 0 0 -0.019544525851480987 -0.075388962157734593 -0.00064390327377184138 0 -0.00064390327377184138 -0.011750079629840475 0 0 0 -0.021784760446893758 -0.076661475922706529 0.0019343140776065856 0 0.0019343140776065856 -0.011427337707047056 0 0 0 -0.022022203407438413 -0.077527953015694123 0.00043988271556367857 0 0.00043988271556367857 -0.008132684650996494 0 0 0 -0.021415159416672651 -0.083642506833222802 0.0013810671397096325 0 0.0013810671397096325 -0.0092304004417652734 0 0 0 -0.023218226818747027 -0.076242003952293913 0.0027941956988897154 0 0.0027941956988897154 -0.017663110241456219 0 0 0 -0.023476278548437535 -0.084659610469544636 0.00052854275377440911 0 0.00052854275377440911 -0.013190044792467027 0 0 0 -0.024462413815502921 -0.077902546160171005 -0.00050136317499719371 0 -0.00050136317499719371 -0.01843070293479462 0 0 0 -0.024083312273741407 -0.06970387040604091 0.0028172953891643427 0 0.0028172953891643427 -0.012924363805848348 0 0 0 -0.020657058552972327 -0.070520339767132151 0.00051858429951119026 0 0.00051858429951119026 -0.021747645258371001 0 0 0 -0.023066996256375791 -0.066072514230575904 0.0034290695920532297 0 0.0034290695920532297 -0.016399314810272052 0 0 0 -0.020617957260211987 -0.065415974348358663 0.00041983099847901079 0 0.00041983099847901079 -0.017313625538538099 0 0 0 -0.020682399971724191 -0.063323612095906992 0.0017792932237176882 0 0.0017792932237176882 -0.013522995281989258 0 0 0 -0.01921165184447407 -0.056655620031724196 0.0033846730795220902 0 0.0033846730795220902 -0.017479469915202335 0 0 0 -0.018533772486731631 -0.062307502176031142 0.0013807066043279629 0 0.0013807066043279629 -0.019214794892491623 0 0 0 -0.020380574267130695 -0.062076336625376136 0.0048109893742882487 0 0.0048109893742882487 -0.019793058090537372 0 0 0 -0.020467348678978377 -0.065948717054786082 0.0022965975387297926 0 0.0022965975387297926 -0.021982378837070337 0 0 0 -0.021982773972964102 -0.070262220010768275 0.0047996976681363365 0 0.0047996976681363365 -0.020925497023471511 0 0 0 -0.022796929258559945 -0.075743655276854643 0.0012929952765210297 0 0.0012929952765210297 -0.025247700671317905 0 0 0 -0.02524783898704314 -0.079696649398104988 0.0040989342572754911 0 0.0040989342572754911 -0.022819971830444069 0 0 0 -0.025629155307137261 -0.048773382988024291 0.0028798307230148666 0 0.0028798307230148666 -0.017881234069491301 0 0 0 -0.016663654264378894 -0.04584664218180725 0.0045555674874361157 0 0.0045555674874361157 -0.014487713086033426 0 0 0 -0.015083588816960166 -0.051920509876305719 0.003468948660964471 0 0.003468948660964471 -0.014154450829433278 0 0 0 -0.016518740176434749 -0.052246934357491948 0.0033916934945644444 0 0.0033916934945644444 -0.015096805201536665 0 0 0 -0.016835934889757154 -0.056282839641667484 0.0022605749726811683 0 0.0022605749726811683 -0.016780840886663578 0 0 0 -0.01826592013208277 -0.05181129780092654 0.0032976632281301417 0 0.0032976632281301417 -0.018564394437917651 0 0 0 -0.01759392305971105 -0.057485805812942235 0.0027025231920370881 0 0.0027025231920370881 -0.019163281345197687 0 0 0 -0.019162271789534981 -0.055967383851148453 0.0043590758202262467 0 0.0043590758202262467 -0.018346585824009554 0 0 0 -0.018578492418789505 -0.052411033478669267 0.0028227811368770903 0 0.0028227811368770903 -0.017470974843997355 0 0 0 -0.017470502080666653 -0.050582517655508072 0.0036991852660808369 0 0.0036991852660808369 -0.01781007633829397 0 0 0 -0.017098148498450504 -0.046778346267496107 0.0023031675151072373 0 0.0023031675151072373 -0.018230520717836429 0 0 0 -0.016252216746333134 -0.049158602056864939 0.0032442547758191088 0 0.0032442547758191088 -0.017827014116068789 0 0 0 -0.016746404043233437 -0.051227973741793144 0.0021850198785713483 0 0.0021850198785713483 -0.018239873877104608 0 0 0 -0.017366961904724434 -0.048987289983746449 0.0024561250697352826 0 0.0024561250697352826 -0.016329300196544581 0 0 0 -0.016329147545072753 -0.047391165793637301 0.0015104056799773757 0 0.0015104056799773757 -0.019064168096417099 0 0 0 -0.016613833472513599 -0.045694767616642332 0.00034710227196361353 0 0.00034710227196361353 -0.015236645367030023 0 0 0 -0.015232853245918087 -0.048102550148251294 -0.00079722477889954818 0 -0.00079722477889954818 -0.021094728017717237 0 0 0 -0.017299319541492133 -0.0446990471966415 0.00040558812001636411 0 0.00040558812001636411 -0.019309438678312186 0 0 0 -0.016002121468738421 -0.044490087080864521 0.0019360958068090834 0 0.0019360958068090834 -0.018213269603457493 0 0 0 -0.015675839171080501 -0.044927748039961912 0.0024971660126622977 0 0.0024971660126622977 -0.018892989763860557 0 0 0 -0.015955184450955621 -0.045515396609780982 0.0010465755070059679 0 0.0010465755070059679 -0.020997866198163202 0 0 0 -0.01662831570198605 -0.042752779584649285 0.0027771628655866381 0 0.0027771628655866381 -0.019164728404926338 0 0 0 -0.015479376997393905 -0.044573419310313479 0.0027445576875675401 0 0.0027445576875675401 -0.01798836445006903 0 0 0 -0.015640445940095622 -0.04420183001725142 0.00056684315281304058 0 0.00056684315281304058 -0.02260769838385817 0 0 0 -0.016702382100277392 -0.048105492018421785 -0.0028328529784512587 0 -0.0028328529784512587 -0.025444576917047775 0 0 0 -0.018387517233867397 -0.045976246646140993 -3.5555767149970767e-05 0 -3.5555767149970767e-05 -0.021238011525346361 0 0 0 -0.016803564542871841 -0.046298630000603747 -0.00099243364097541275 0 -0.00099243364097541275 -0.023071173167197152 0 0 0 -0.017342450791950226 -0.047259749173019366 -0.0015974030728597725 0 -0.0015974030728597725 -0.015751683845416108 0 0 0 -0.01575285825460887 -0.049615515504263269 -0.0031899045502836302 0 -0.0031899045502836302 -0.016545839567037954 0 0 0 -0.016540338767825305 -0.050565265263342853 -0.0035478965038137009 0 -0.0035478965038137009 -0.020989091093542585 0 0 0 -0.017888589089221356 -0.058640055124190044 -0.0059620027815704031 0 -0.0059620027815704031 -0.019548882454685515 0 0 0 -0.019547234394718893 -0.051679774019993012 -0.0023898710267571451 0 -0.0023898710267571451 -0.022638258990679561 0 0 0 -0.018579508252668145 -0.057493315562369085 -0.007412003070612988 0 -0.007412003070612988 -0.025347674385405621 0 0 0 -0.020710247486943674 -0.074204135163144974 -0.0081089331081095027 0 -0.0081089331081095027 -0.024738811333457126 0 0 0 -0.024735736624150524 -0.069155756905856486 -0.011814461286897445 0 -0.011814461286897445 -0.028202483244812712 0 0 0 -0.024339560037667303 -0.084039651106272761 -0.014433315798426568 0 -0.014433315798426568 -0.030437654062561617 0 0 0 -0.028619326292208598 -0.07302469180878865 -0.010923008740192423 0 -0.010923008740192423 -0.029040523055204361 0 0 0 -0.025516303715998258 -0.071006985724244409 -0.0057701193431386258 0 -0.0057701193431386258 -0.025973940569198967 0 0 0 -0.02424523157336084 -0.062143605018097112 -0.004869264369926336 0 -0.004869264369926336 -0.026953419906532983 0 0 0 -0.022274256231157523 -0.082664458240429062 -0.0088257496513739018 0 -0.0088257496513739018 -0.022828003548570099 0 0 0 -0.026373115447249778 -0.059855757535169085 -0.0067297524855538717 0 -0.0067297524855538717 -0.025875379839624447 0 0 0 -0.021432784343698393 -0.051062655936358649 -0.0032955283326441091 0 -0.0032955283326441091 -0.027082208130877236 0 0 0 -0.019536216016808969 -0.048817341559970417 7.7513948530810294e-05 0 7.7513948530810294e-05 -0.022104792509525805 0 0 0 -0.017730533517374057 -0.049575933506909316 -7.9145367842564868e-05 0 -7.9145367842564868e-05 -0.022782589237115264 0 0 0 -0.01808963068600615 -0.048995840980944859 -0.00037872795621946551 0 -0.00037872795621946551 -0.020461201683672717 0 0 0 -0.017364260666154395 -0.039716371070997451 0.0031466085866300279 0 0.0031466085866300279 -0.018751405140687176 0 0 0 -0.014616944052921157 -0.058265110202465976 -0.0069034339167410074 0 -0.0069034339167410074 -0.024300824335816776 0 0 0 -0.020641483634570683 -0.069657705905568773 -0.011016863614017342 0 -0.011016863614017342 -0.022551340757773711 0 0 0 -0.02305226166583562 -0.06040548015882536 -0.0052190529978746875 0 -0.0052190529978746875 -0.026408659167985255 0 0 0 -0.021703534831702669 -0.058264461516899964 -0.0014871757993674742 0 -0.0014871757993674742 -0.020543781446313185 0 0 0 -0.019702060740803266 -0.077364184757115123 -0.009805833652884904 0 -0.009805833652884904 -0.024005676097518702 0 0 0 -0.025342465213658478 -0.059868249915376467 -0.011632592668709788 0 -0.011632592668709788 -0.021641546024167978 0 0 0 -0.020377448984886123 -0.053600750667559607 -0.0072007034611739039 0 -0.0072007034611739039 -0.017749227795535907 0 0 0 -0.017837494615773861 -0.055969698387591568 -0.0052460968166721869 0 -0.0052460968166721869 -0.016457796132031348 0 0 0 -0.018106873629905734 -0.036834738695527267 0.0011774264685754723 0 0.0011774264685754723 -0.010488860049682844 0 0 0 -0.011830899686302535 -0.053918837089741878 -0.011259313994941168 0 -0.011259313994941168 -0.010787184896741117 0 0 0 -0.016176505496620745 -0.055148400750772687 -0.01051205029216034 0 -0.01051205029216034 -0.010095277161379562 0 0 0 -0.016310919478038081 -0.04450038747840758 0.0046147260348683196 0 0.0046147260348683196 -0.013102974903384672 0 0 0 -0.014400840595448052 -0.043284783070937395 -0.0031022874561871866 0 -0.0031022874561871866 -0.017801498368638098 0 0 0 -0.015271570359893875 -0.036461272705423903 0.0050178677316865469 0 0.0050178677316865469 -0.012782742195824495 0 0 0 -0.012311003725312093 -0.027634476514029036 0.011878001732339279 0 0.011878001732339279 -0.0014487210875231277 0 0 0 -0.0072707994003880262 -0.037092495269242388 0.01214518512243596 0 0.01214518512243596 -0.0015062160020249751 0 0 0 -0.009649677817816834 -0.035831521111337063 0.010534158746499749 0 0.010534158746499749 0.00064776877926427112 0 0 0 -0.0087959380830181857 -0.039572013011903363 0.0075595331724026601 0 0.0075595331724026601 -0.011072063363037107 0 0 0 -0.012661019093735112 -0.039162246355354792 0.012157285645300808 0 0.012157285645300808 -0.0032424340210173881 0 0 0 -0.010601170094093056 -0.038452240094371495 0.015683095873010616 0 0.015683095873010616 0.010697736046150104 0 0 0 -0.0069386260120553392 -0.043424498423870722 0.010033928179142247 0 0.010033928179142247 -0.0007706219490622862 0 0 0 -0.011048780093233249 -0.042697780060867399 0.013004623584177396 0 0.013004623584177396 0.011302659820377557 0 0 0 -0.0078487800601224639 -0.045558480729767266 0.0081177637411682171 0 0.0081177637411682171 -0.00070962866501420897 0 0 0 -0.01156702734869537 -0.050349790554226663 0.0078241894583427844 0 0.0078241894583427844 -0.0022143813817934776 0 0 0 -0.013141042984005044 -0.043139376493288001 0.0068467824586304557 0 0.0068467824586304557 -0.009532523400580268 0 0 0 -0.01316797497346707 -0.042185777964702749 0.007792840291208609 0 0.007792840291208609 -0.0093924198482565925 0 0 0 -0.012894549453239841 -0.046133051014922287 0.0042733116583552862 0 0.0042733116583552862 -0.013950577865678618 0 0 0 -0.01502090722015023 -0.041504167501833077 0.0053150819077153588 0 0.0053150819077153588 -0.016302346412421596 0 0 0 -0.014451628478563665 -0.044105161715522499 0.0035363922435875167 0 0.0035363922435875167 -0.01649493153747314 0 0 0 -0.015150023313248908 -0.04255278526291343 0.0037396328678577328 0 0.0037396328678577328 -0.019383266597194596 0 0 0 -0.015484012965027012 -0.043699984979097932 7.9623904339928267e-05 0 7.9623904339928267e-05 -0.022257269796761826 0 0 0 -0.01648931369396494 -0.042550136381531295 0.0070882849005379682 0 0.0070882849005379682 -0.01130350898510725 0 0 0 -0.013463411341659627 -0.039396792714887961 0.0063566697223441486 0 0.0063566697223441486 -0.016064854967359554 0 0 0 -0.013865411920561874 -0.20544818021044914 -0.0050733811603318234 0 -0.0050733811603318234 -0.0049342623232396104 0 0 0 -0.052595610633422211 -0.19112493467393046 -0.0027645411302134673 0 -0.0027645411302134673 -0.015296444358436107 0 0 0 -0.051605344758091649 -0.19375241852438624 -0.001967405340362223 0 -0.001967405340362223 -0.0017061593485251537 0 0 0 -0.048864644468227844 -0.18507805987519732 -0.0049511262991989852 0 -0.0049511262991989852 0.0018102047695281037 0 0 0 -0.045816963776417294 -0.20174341241896993 0.011192030384482108 0 0.011192030384482108 -0.0021033981551045952 0 0 0 -0.050961702643518625 -0.21828421781447127 0.02233501991320147 0 0.02233501991320147 -0.029856133432900195 0 0 0 -0.062035087811842853 -0.19117266030443125 0.022166310643780003 0 0.022166310643780003 -0.063607590963068908 0 0 0 -0.063695062816875037 -0.1774936607854142 0.012546946319919912 0 0.012546946319919912 -0.038545947877193232 0 0 0 -0.054009902165651859 -0.17323971065940014 0.0050835160355306563 0 0.0050835160355306563 -0.027851937817284851 0 0 0 -0.050272912119171266 -0.16145761505964978 -0.002138780380079806 0 -0.002138780380079806 -0.021016714916528231 0 0 0 -0.045618582494044504 -0.15172822549616319 0.0014679019336920869 0 0.0014679019336920869 -0.050603500656621878 0 0 0 -0.05058293153819627 -0.15170713223907123 0.0014497317445408104 0 0.0014497317445408104 -0.050535400926873641 0 0 0 -0.050560633291486211 -0.16221815115080779 -0.0032861736924314038 0 -0.0032861736924314038 -0.027807895439324777 0 0 0 -0.047506511647533139 -0.14035810193407383 -0.0084672955958808669 0 -0.0084672955958808669 -0.017991177100008561 0 0 0 -0.039587319758520596 -0.16787374227676577 -0.0092912973702423823 0 -0.0092912973702423823 -0.0036462419357480846 0 0 0 -0.042879996053128484 -0.19061978452496675 -0.011081529845303355 0 -0.011081529845303355 -0.0095526798949721187 0 0 0 -0.050043116104984686 -0.13912379713555215 -0.01525567197559536 0 -0.01525567197559536 -0.0090634509449442624 0 0 0 -0.037046812020124102 -0.17296327416705023 -0.0093356218984452614 0 -0.0093356218984452614 -0.019720748490485294 0 0 0 -0.048171005664383877 -0.13576520762875896 -0.010779230826432111 0 -0.010779230826432111 -0.019990107051323064 0 0 0 -0.038938828670020499 -0.1278651878944751 -0.0094700705024065943 0 -0.0094700705024065943 -0.029078088578131118 0 0 0 -0.039235819118151556 -0.13358409605466576 -0.014667895348808805 0 -0.014667895348808805 -0.019790081855622865 0 0 0 -0.038343544477572149 -0.12783053165409514 -0.010969135877095471 0 -0.010969135877095471 -0.029346799396406564 0 0 0 -0.039294332762625415 -0.12913209436024028 -0.0087197417011494211 0 -0.0087197417011494211 -0.031883654702994105 0 0 0 -0.040253937265808594 -0.11191646825260643 -0.0076247226185528726 0 -0.0076247226185528726 -0.037318895162045541 0 0 0 -0.037308840853662997 -0.11138837757730306 -0.012739778681381826 0 -0.012739778681381826 -0.028052711312159102 0 0 0 -0.03486027222236554 -0.10699533857535312 -0.0079065549436793878 0 -0.0079065549436793878 -0.029550250671640594 0 0 0 -0.034136397311748432 -0.10272178726222399 -0.014614334956911827 0 -0.014614334956911827 -0.030537576184098393 0 0 0 -0.033314840861580597 -0.092261467087929386 -0.0090448277430205393 0 -0.0090448277430205393 -0.030748215102074251 0 0 0 -0.030752420547500905 -0.083567451516890143 -0.0069247789278785582 0 -0.0069247789278785582 -0.027934654662302841 0 0 0 -0.027875526544798256 -0.091426525459481781 -0.015191131707821926 0 -0.015191131707821926 -0.026985651367347967 0 0 0 -0.029603044206707438 -0.10073822536894658 -0.014131645839223913 0 -0.014131645839223913 -0.023245453144942769 0 0 0 -0.03099591962847232 -0.10118877548227487 -0.0092455004829475398 0 -0.0092455004829475398 -0.027060511690720802 0 0 0 -0.032062321793248923 -0.084174787684955385 -0.015058680957626134 0 -0.015058680957626134 -0.026607042606522312 0 0 0 -0.027695457572869425 -0.076701649732267674 -0.011115783611736809 0 -0.011115783611736809 -0.022904577919786975 0 0 0 -0.024901556913013684 -0.10162451438513487 -0.019432642553201235 0 -0.019432642553201235 -0.022060204725415401 0 0 0 -0.030921179777637555 -0.07850751899944805 -0.016762635078677209 0 -0.016762635078677209 -0.018795334567673905 0 0 0 -0.024325713391780475 -0.10029090299456164 -0.018274484558184922 0 -0.018274484558184922 -0.0091845568372960623 0 0 0 -0.027368864957964423 -0.10978810492396965 -0.024312123642604596 0 -0.024312123642604596 -0.014844425650479373 0 0 0 -0.031158132643612266 -0.08102771766415201 -0.01430815879422836 0 -0.01430815879422836 -0.014183934271774386 0 0 0 -0.0238029129839816 -0.10842764236918838 -0.022146412323400491 0 -0.022146412323400491 -0.010118246050308956 0 0 0 -0.029636472104874328 -0.10296531511128591 -0.028738071497260084 0 -0.028738071497260084 -0.0055539051013692442 0 0 0 -0.027129805053163758 -0.14018972834115084 -0.022794200382308838 0 -0.022794200382308838 -0.015586969435441959 0 0 0 -0.038944174444148202 -0.13845276197340561 -0.022561201952935848 0 -0.022561201952935848 -0.015174855676534649 0 0 0 -0.038406904412485079 -0.13939365593315506 -0.018093520486722196 0 -0.018093520486722196 -0.008497628991329137 0 0 0 -0.036972821231121042 -0.10654666314941556 -0.01629744734420728 0 -0.01629744734420728 -0.015107558878800482 0 0 0 -0.030413555507054022 -0.12637946919464721 -0.016918183934778147 0 -0.016918183934778147 -0.021320477755771085 0 0 0 -0.036924986737604575 -0.16361857016001663 -0.016429827223076156 0 -0.016429827223076156 -0.014572945942610212 0 0 0 -0.044547879025656684 -0.15993417343452659 -0.016594390269163008 0 -0.016594390269163008 -0.0018255636217667029 0 0 0 -0.040439934264073288 -0.17965159317003107 -0.015767566968424462 0 -0.015767566968424462 -0.0047633191018455201 0 0 0 -0.046103728067969134 -0.1630653521707868 -0.02570576915207912 0 -0.02570576915207912 -0.0044552933397059707 0 0 0 -0.041880161377623182 -0.17407280527954697 -0.020106085064080348 0 -0.020106085064080348 -0.0085926711324401453 0 0 0 -0.045666369102996734 -0.14327243369471762 -0.031727437261869371 0 -0.031727437261869371 -0.0037004722754510888 0 0 0 -0.036743226492542191 -0.17464398474951753 -0.025988353292355076 0 -0.025988353292355076 0.0020330554179004423 0 0 0 -0.043152732332904245 -0.21213840979155327 -0.017711146687316472 0 -0.017711146687316472 -0.0070873977966807444 0 0 0 -0.054806451897058454 -0.21914667541927207 -0.021370052866394037 0 -0.021370052866394037 -0.0034913457514670065 0 0 0 -0.055659505292684791 -0.24433649326475285 -0.012325501199528993 0 -0.012325501199528993 -0.0013221335447846649 0 0 0 -0.061414656702384399 -0.2067358438012751 -0.0097228317397599073 0 -0.0097228317397599073 0.00016391602566376284 0 0 0 -0.05164298194390287 -0.22280225667387676 -0.010528266181708207 0 -0.010528266181708207 -0.0017942867569605836 0 0 0 -0.056149135857709302 -0.1834650649923186 -0.019749313268076253 0 -0.019749313268076253 -0.002007973793488986 0 0 0 -0.046368259696451891 -0.20609610311702317 -0.0079164684788053385 0 -0.0079164684788053385 -0.0048755440766126631 0 0 0 -0.052742911798408967 -0.18871382145817947 -0.011169356020973388 0 -0.011169356020973388 0.0013962170186769124 0 0 0 -0.046829401109875622 -0.25080234832823733 -0.010435118592999393 0 -0.010435118592999393 0.0064495987091603979 0 0 0 -0.06108818740476929 -0.31894514864013268 -0.00038215276111622232 0 -0.00038215276111622232 -1.9025432651642582e-05 0 0 0 -0.079741043518195998 -0.24116340332031311 -0.023517668095182132 0 -0.023517668095182132 0.0073112038318683958 0 0 0 -0.058463049872111289 -0.23626849962921126 -0.003592074900583081 0 -0.003592074900583081 0.0038889741579432036 0 0 0 -0.058094881367816931 -0.29108661828161958 -0.0090334389238575681 0 -0.0090334389238575681 0.0025149009159558533 0 0 0 -0.072142929341415848 -0.26482541672586934 -0.011622171933855834 0 -0.011622171933855834 -0.00048649236819647834 0 0 0 -0.066327977273516553 -0.21438944384771558 -0.01235422760711842 0 -0.01235422760711842 0.0018211413923959752 0 0 0 -0.053142075613829894 -0.22975840789353302 -0.01021944889174406 0 -0.01021944889174406 0.001590188275950144 0 0 0 -0.057042054904395782 -0.22467386545779361 -0.026002252860128805 0 -0.026002252860128805 0.0042342304745894288 0 0 0 -0.055109908745801031 -0.17543013283072215 -0.025269181205963678 0 -0.025269181205963678 0.0039124352542165286 0 0 0 -0.042879424394126411 -0.17735628024384026 -0.026463595505367504 0 -0.026463595505367504 -0.00085801555515141459 0 0 0 -0.044553573949747925 -0.15279619820169876 -0.02416729483605988 0 -0.02416729483605988 -0.008877660044350727 0 0 0 -0.040418464561512366 -0.1741519754883521 -0.034653614343921821 0 -0.034653614343921821 0.011603612588407919 0 0 0 -0.040637090724986002 -0.19630946744848071 -0.01627476168981036 0 -0.01627476168981036 0.003272810043419061 0 0 0 -0.048259164351265371 -0.17848612569559286 -0.0092441086901420833 0 -0.0092441086901420833 0.012120720456416934 0 0 0 -0.041591351309793967 -0.11821517988588344 -0.025168471436147033 0 -0.025168471436147033 0.015852074780071279 0 0 0 -0.025590776276453023 -0.11045671895710059 -0.020267963400067451 0 -0.020267963400067451 0.037162331570544105 0 0 0 -0.018323596846639104 -0.084209540195286647 -0.031458993200140839 0 -0.031458993200140839 0.011242850579302965 0 0 0 -0.018241672403995934 -0.15936607613899562 -0.021791942437849279 0 -0.021791942437849279 0.015519808611475394 0 0 0 -0.035961566881880069 -0.12536428244495282 -0.031726965199879192 0 -0.031726965199879192 0.0067735163740003379 0 0 0 -0.029647691517738134 -0.1585811776088196 -0.034500740448972417 0 -0.034500740448972417 0.0012499059575597216 0 0 0 -0.039332817912814982 -0.12915235885626697 -0.036197197062496578 0 -0.036197197062496578 -0.0046388435559715502 0 0 0 -0.03344780060305963 -0.12269345486863631 -0.024688255673217377 0 -0.024688255673217377 -0.0017130630925065032 0 0 0 -0.031101629490285672 -0.09324715196019312 -0.031922628502862163 0 -0.031922628502862163 0.001174228650330067 0 0 0 -0.023018230827465735 -0.12399526976071505 -0.024591826932371216 0 -0.024591826932371216 0.0066115402491208064 0 0 0 -0.029345932377898551 -0.091830058988564556 -0.020378336461137 0 -0.020378336461137 -0.00042834609488037745 0 0 0 -0.023064601270861226 -0.059696560501666072 -0.026976658428635048 0 -0.026976658428635048 0.0027019515718849502 0 0 0 -0.014248652232445293 -0.074051582733425797 -0.025586890213417063 0 -0.025586890213417063 -0.0059666821188618657 0 0 0 -0.02000456621307193 -0.045539476187828276 -0.018907583285190321 0 -0.018907583285190321 -0.0028064115164466719 0 0 0 -0.012086471926068737 -0.073807744346503099 -0.014383742331694066 0 -0.014383742331694066 -0.0081045427155626085 0 0 0 -0.020478071765516446 -0.057683569065929828 -0.012290317780266402 0 -0.012290317780266402 0.0079234762582117146 0 0 0 -0.012440023201929537 -0.026987490088662525 -0.020815842761870137 0 -0.020815842761870137 0.015101914693185226 0 0 0 -0.002971393848869297 -0.080632311902794754 -0.019628918917951071 0 -0.019628918917951071 0.019858465462567865 0 0 0 -0.015193461610056691 -0.041538562559296582 -0.026032600356901647 0 -0.026032600356901647 0.024646605234449281 0 0 0 -0.0042229893312118183 -0.042855224246715229 -0.0095125186353111346 0 -0.0095125186353111346 0.035354240729079833 0 0 0 -0.001875245879408835 -0.010727095141312107 -0.00050267376593252089 0 -0.00050267376593252089 0.071713469381398942 0 0 0 0.015246593560021712 0.0013141971221048779 -0.021429052377990435 0 -0.021429052377990435 0.053502312274091579 0 0 0 0.01370412734904914 -0.068150438946165071 -0.011194560294143396 0 -0.011194560294143396 0.046449124757950905 0 0 0 -0.0054253285470535276 -0.083883836433725253 -0.032130434759179788 0 -0.032130434759179788 0.050717845482042445 0 0 0 -0.0082914977379207333 -0.03352349403542898 -0.031191599961986949 0 -0.031191599961986949 0.10587616380257148 0 0 0 0.018088167441785596 -0.0068737173218389458 -0.014390749631707972 0 -0.014390749631707972 0.19379799870901371 0 0 0 0.046731070346793746 -0.010650462613174927 0.037110912465915469 0 0.037110912465915469 0.16275648859296016 0 0 0 0.038026506494946377 -0.023264490170303409 0.034613831921740834 0 0.034613831921740834 0.20522684656375878 0 0 0 0.045490589098363898 -0.045913622611582161 0.030599001397804554 0 0.030599001397804554 0.13110038791193368 0 0 0 0.021296691325087935 -0.070905776336193382 -0.0070689564413298767 0 -0.0070689564413298767 0.098808589396756019 0 0 0 0.00697570326514068 -0.049237003121056666 0.0085382337172644207 0 0.0085382337172644207 0.10262401377611641 0 0 0 0.013346752663764894 -0.090713446694988709 0.045638133409270698 0 0.045638133409270698 0.11455109506209771 0 0 0 0.0059594120917771942 -0.1178298117460399 0.028671611015255394 0 0.028671611015255394 0.064318476460747398 0 0 0 -0.013377833821323126 -0.141147997680445 0.034589022836828451 0 0.034589022836828451 0.082181883979974168 0 0 0 -0.014741528425117667 -0.12521298615397009 -0.0045663016678553978 0 -0.0045663016678553978 0.036025761762531916 0 0 0 -0.022296806097859612 -0.15500570630120536 0.0040919143610659847 0 0.0040919143610659847 0.037991678288179953 0 0 0 -0.029253507003256352 -0.10613750440867378 -0.00055874585196985516 0 -0.00055874585196985516 0.094354417659297973 0 0 0 -0.0029457716873438899 -0.15394674254328869 -0.025833478914338487 0 -0.025833478914338487 0.041688966770879854 0 0 0 -0.028064443943102063 -0.20036390160641959 -0.022252287908082008 0 -0.022252287908082008 0.017058058829935385 0 0 0 -0.045826460694121163 -0.20477192983206965 0.0033071212573004827 0 0.0033071212573004827 0.017394653001602034 0 0 0 -0.046844319207617002 -0.17317577080259858 -0.013509574768431509 0 -0.013509574768431509 0.033678307549490194 0 0 0 -0.034874365813277131 -0.19141050911692867 0.024471967890350887 0 0.024471967890350887 0.036165877971767679 0 0 0 -0.038811157786290164 -0.16214619396089586 0.020794294852386208 0 0.020794294852386208 0.02259343907990452 0 0 0 -0.034888188720247792 -0.21221019703688121 0.036061603008366916 0 0.036061603008366916 0.016690104762786762 0 0 0 -0.048880023068523459 -0.19383657589679548 0.025357563024408836 0 0.025357563024408836 0.044546131670755607 0 0 0 -0.037322611056510024 -0.20556404089041991 0.0061924944482186633 0 0.0061924944482186633 0.013610036684682747 0 0 0 -0.047988501051434374 -0.24620425017022124 0.015576712099602597 0 0.015576712099602597 0.015989706536748027 0 0 0 -0.057553635908368317 -0.23859564011291487 0.007188532831329586 0 0.007188532831329586 0.0046285493849407278 0 0 0 -0.05849177268199357 -0.31368991454543005 0.0084457264346659792 0 0.0084457264346659792 0.0093042301243282388 0 0 0 -0.07609642110527548 -0.25900989617695069 -0.00044433199697924142 0 -0.00044433199697924142 0.0030288102473059464 0 0 0 -0.063995271482411242 -0.32976445620722594 -0.0046084030298654483 0 -0.0046084030298654483 0.0054252386366469008 0 0 0 -0.081084804392644538 -0.26635548698433176 0.0049850271229241461 0 0.0049850271229241461 0.00074599165308236737 0 0 0 -0.066402373832812195 -0.23345635395868386 -0.013535236061175626 0 -0.013535236061175626 0.0095123304667837638 0 0 0 -0.055986005872974989 -0.2624254190753203 -0.017818599441302818 0 -0.017818599441302818 0.0059139542113876287 0 0 0 -0.064127866215983209 -0.032882825543896835 0.029011507181522796 0 0.029011507181522796 0.043189255970672205 0 0 0 0.0025766076066938426 -0.027349353277023369 0.031923635176940732 0 0.031923635176940732 0.055594633896746681 0 0 0 0.0070613201549308419 -0.025761957791838843 0.033886611384854035 0 0.033886611384854035 0.055989906260121847 0 0 0 0.0075569871170707622 -0.042227743667107159 0.026657783721006967 0 0.026657783721006967 0.06798318451084695 0 0 0 0.0064388602109349546 -0.058532090817295192 0.017112437023381093 0 0.017112437023381093 0.074061030913091297 0 0 0 0.0038822350239490159 -0.053347033770500991 0.020472205682682341 0 0.020472205682682341 0.044586759698633571 0 0 0 -0.0021900685179668386 -0.069243693939403092 0.010416283483717245 0 0.010416283483717245 0.050538417039575137 0 0 0 -0.0046763192249569905 -0.041070625983978024 0.023109027040898046 0 0.023109027040898046 0.048774678394384 0 0 0 0.0019260131026015183 -0.055174558571738724 0.014065850720688422 0 0.014065850720688422 0.025836930693412606 0 0 0 -0.0073344069695815209 -0.052600235900082767 0.014296549071486987 0 0.014296549071486987 0.040931567043165931 0 0 0 -0.0029171672142292117 -0.05228860888030866 0.010205604892801985 0 0.010205604892801985 0.010164108056756115 0 0 0 -0.010531125205888139 -0.042807972367853497 0.018141792139659236 0 0.018141792139659236 0.028231725829191073 0 0 0 -0.0036440616346656001 -0.042363099811206527 0.016080001352297139 0 0.016080001352297139 0.009374646600597468 0 0 0 -0.0082471133026522717 -0.044059003103052607 0.020037817766568149 0 0.020037817766568149 0.03044436556956296 0 0 0 -0.0034036593833724066 -0.032227166468835257 0.023779119920279815 0 0.023779119920279815 0.02601639140358307 0 0 0 -0.0015526937663130624 -0.030200730651620884 0.016455121989583533 0 0.016455121989583533 0.0089346288482911318 0 0 0 -0.0053165254508324364 -0.036267658622179628 0.014843646691741069 0 0.014843646691741069 0.0081299904629261385 0 0 0 -0.0070344170398133881 -0.038567395038104121 0.0012834909516231362 0 0.0012834909516231362 -0.0056924470083428436 0 0 0 -0.011064960511611738 -0.022739782703000054 0.0078991681399954161 0 0.0078991681399954161 0.012225721138744677 0 0 0 -0.0026285153910638459 -0.025364094452790923 0.010987771508619192 0 0.010987771508619192 0.0051815284428435859 0 0 0 -0.0050456415024868542 -0.022625937761849957 0.023332591433670134 0 0.023332591433670134 0.026203604261444219 0 0 0 0.00089441662489855855 -0.043245972070078416 -0.0034508431051395033 0 -0.0034508431051395033 -0.0027939591560687815 0 0 0 -0.01150998280653682 -0.029398665675261049 -0.0081873214203205744 0 -0.0081873214203205744 0.0031152776147126901 0 0 0 -0.0065708470151370942 -0.021421881026106968 0.0039570197608068819 0 0.0039570197608068819 0.017337005631857944 0 0 0 -0.0010212188485622664 -0.0095503506234637381 -0.0024561855074199147 0 -0.0024561855074199147 0.031480213693771131 0 0 0 0.0054824657675768412 0.0079145416883874692 0.016322271231812874 0 0.016322271231812874 0.049555990286707263 0 0 0 0.014367632993773652 -0.013605712906904106 0.024287820413719279 0 0.024287820413719279 0.028574680226975097 0 0 0 0.0037422418300177493 0.001277872263399378 0.020076908525570897 0 0.020076908525570897 0.026271256136627383 0 0 0 0.0068872821000066989 -0.012996933083972775 0.02470548117714863 0 0.02470548117714863 0.044882166148314084 0 0 0 0.0079713082660853446 0.0098830069087013916 0.029778573414747073 0 0.029778573414747073 0.050083133561683035 0 0 0 0.014991535117596141 -0.0069179299438228148 0.044067452218256517 0 0.044067452218256517 0.096276695665157785 0 0 0 0.022339691430333736 0.04446402347493307 0.04856263635819523 0 0.04856263635819523 0.090372117672694152 0 0 0 0.033709035286906802 0.015368906025427124 0.046395992828438148 0 0.046395992828438148 0.14117201535066598 0 0 0 0.039135230344023275 -0.015514400288591426 0.047996189444314635 0 0.047996189444314635 0.14657421667354198 0 0 0 0.032764954096237586 -0.00050987447556419263 0.040401131647689978 0 0.040401131647689978 0.098507920291267093 0 0 0 0.024499511453925704 0.040959517718505645 0.0013051657603331823 0 0.0013051657603331823 0.07743078277547355 0 0 0 0.029597575123494785 0.045214380925949677 0.021250868286667474 0 0.021250868286667474 0.12209725996096749 0 0 0 0.041827910221729298 0.051794441453945406 -0.020939152261495203 0 -0.020939152261495203 0.10587763358488056 0 0 0 0.039418018759706519 0.17348422390777357 -0.0083098092648717509 0 -0.0083098092648717509 0.17754131331788897 0 0 0 0.087756384306415636 0.076058164585192087 0.0010724567211476133 0 0.0010724567211476133 0.38943151673445958 0 0 0 0.116372420329913 0.15868012549286881 0.12984483637848393 0 0.12984483637848393 0.28173652828583917 0 0 0 0.11010416344467699 0.019947984806262281 0.073913542854464859 0 0.073913542854464859 0.24214208428542544 0 0 0 0.065522517272921951 -0.050742108746981013 0.031710611276316511 0 0.031710611276316511 0.1385151582431346 0 0 0 0.021943262374038406 0.011698774444829529 0.051344074051151455 0 0.051344074051151455 0.1416133363213703 0 0 0 0.038328027691549971 -0.045874277419265794 -0.027251998026979127 0 -0.027251998026979127 0.27684607013692025 0 0 0 0.057742948179413597 -0.065300917289265445 -0.031277580556141403 0 -0.031277580556141403 0.15332166289693092 0 0 0 0.022005186401916364 -0.062616397550509365 -0.030455916348419307 0 -0.030455916348419307 0.16503511788789163 0 0 0 0.025604680084345591 -0.043828343117663524 0.028283028186648601 0 0.028283028186648601 0.15528142773709558 0 0 0 0.027863271154857996 -0.045342584358703891 0.030091020826928772 0 0.030091020826928772 0.089590444639847167 0 0 0 0.011061965070285812 -0.051549970737441511 0.022187820693750485 0 0.022187820693750485 0.14025104587473153 0 0 0 0.022175268784322508 -0.073446225127099765 0.0082714574294078039 0 0.0082714574294078039 0.091162128623555952 0 0 0 0.0044289758741140502 -0.053170037916674275 0.022374927582968149 0 0.022374927582968149 0.11145398675348756 0 0 0 0.014570987209203308 -0.051208667240866375 0.025417920679289434 0 0.025417920679289434 0.064926296279068485 0 0 0 0.003429407259550557 -0.033632298591342327 0.03748178219970176 0 0.03748178219970176 0.098825901777528286 0 0 0 0.01629840079654649 -0.072955873095105678 0.011926452966802573 0 0.011926452966802573 0.066843928749138443 0 0 0 -0.0015279860864918157 -0.06891980017591412 0.0082828648753208532 0 0.0082828648753208532 0.09336292219961792 0 0 0 0.0061107805059259432 -0.066285402057316756 -0.030334521408711856 0 -0.030334521408711856 0.10236049920745723 0 0 0 0.0090187742875351192 -0.07694452847108485 -0.010756715542552238 0 -0.010756715542552238 0.091436701201325993 0 0 0 0.0036230431825602831 -0.084268009807493438 -0.006652954306739645 0 -0.006652954306739645 0.081592630210314682 0 0 0 -0.00066884489929469951 -0.066802456325661994 0.0018468941264722961 0 0.0018468941264722961 0.12323789142092463 0 0 0 0.014108858773815663 -0.069698552437334874 -0.027840342373879091 0 -0.027840342373879091 0.076809058449542819 0 0 0 0.0017776265030519985 -0.07487740235488953 -0.029702665783020308 0 -0.029702665783020308 0.060654840909194069 0 0 0 -0.0035556403614238757 -0.047676969479040709 -0.04702150133760552 0 -0.04702150133760552 0.068789478899753384 0 0 0 0.0052781273551781686 -0.057526686177363756 -0.045173178629415278 0 -0.045173178629415278 0.032691995944978958 0 0 0 -0.0062086725580961788 -0.067091500196040946 -0.033316933325946152 0 -0.033316933325946152 0.026069779363704807 0 0 0 -0.010255430208084022 -0.04498045497345865 -0.043643707398633921 0 -0.043643707398633921 0.032222125815942915 0 0 0 -0.0031895822893789338 -0.043248413989992178 -0.042036550600869416 0 -0.042036550600869416 0.037498919645116147 0 0 0 -0.0014373735862190287 -0.053439313037584438 -0.035370985049860422 0 -0.035370985049860422 0.0050376307466226122 0 0 0 -0.012100420572740439 -0.023035885268675949 -0.023869427224764525 0 -0.023869427224764525 0.024392332036867304 0 0 0 0.00033911169204786651 -0.034027633596776588 -0.030998079260327244 0 -0.030998079260327244 0.0072993122135274757 0 0 0 -0.0066820803458122746 -0.025919872484476511 -0.040589357790326963 0 -0.040589357790326963 0.013403151827135529 0 0 0 -0.0031291801643352213 -0.0021081091720152063 -0.062214660091620091 0 -0.062214660091620091 0.058339194956187571 0 0 0 0.014057771446043059 -0.069261700499414519 -0.032865567902336162 0 -0.032865567902336162 0.10124129448141167 0 0 0 0.0079948984954992929 -0.044114458833504636 -0.052034412954010657 0 -0.052034412954010657 0.071368080990301841 0 0 0 0.0068134055391992762 -0.044125225186248097 -0.056949106963410483 0 -0.056949106963410483 0.084923730723991703 0 0 0 0.010199626384435917 -0.04002387257449757 -0.066488808041294312 0 -0.066488808041294312 0.13355072274421648 0 0 0 0.023381712542429746 -0.074251828957431001 -0.057979794004506341 0 -0.057979794004506341 0.17789605618523754 0 0 0 0.025911056806951632 -0.023492306419716072 -0.056300524971127343 0 -0.056300524971127343 0.17657211476712772 0 0 0 0.03826995208685291 0.0098617101976550964 -0.015395966774358089 0 -0.015395966774358089 0.4948552574158529 0 0 0 0.12617924190337704 -0.0070367838827135043 -0.020696366066075625 0 -0.020696366066075625 -0.016643565134787763 0 0 0 -0.0059200872543752892 0.031822109544139138 -0.087814968203853608 0 -0.087814968203853608 0.10995561626161393 0 0 0 0.035444431451438281 0.13341756091450452 0.18252240768011097 0 0.18252240768011097 0.32261008548528541 0 0 0 0.1140069115999475 0.022653369043058515 -0.12234627794714069 0 -0.12234627794714069 0.21433426719153501 0 0 0 0.059246909058648385 0.0086711415482080313 0.0016171157004081086 0 0.0016171157004081086 0.025730864083383643 0 0 0 0.0086005014078979203 0.30062159850525949 0.15630570839631944 0 0.15630570839631944 0.094564146021072659 0 0 0 0.098796436131582954 0.10283256820826414 0.048812334733871698 0 0.048812334733871698 0.056712741954599716 0 0 0 0.039886327540715964 0.021968075848678607 0.003872487407524145 0 0.003872487407524145 0.066030669676830578 0 0 0 0.021999686381377295 -0.093017728037116096 0.0054932303899436069 0 0.0054932303899436069 0.064870975885058468 0 0 0 -0.0070366880380144242 0.078026212957713725 0.039854328100838297 0 0.039854328100838297 0.047791264862357963 0 0 0 0.031454369455017894 0.030853752814037547 0.0053206609418654412 0 0.0053206609418654412 0.09270659131226959 0 0 0 0.030890086031576787 -0.079420146205780862 0.011266608457672023 0 0.011266608457672023 0.075510755585034672 0 0 0 -0.00097734765518651956 0.031541143625638424 0.035483903750782475 0 0.035483903750782475 0.031009593004404312 0 0 0 0.015637684157510878 -0.021968361204888695 -0.0327399091039247 0 -0.0327399091039247 -0.00010191271944354208 0 0 0 -0.0055175684810830489 -0.032662407534650703 0.0066192399669927626 0 0.0066192399669927626 0.047064524369214267 0 0 0 0.0036005292086408736 -0.031677605225651537 -0.013588130753095146 0 -0.013588130753095146 0.040946434181556246 0 0 0 0.0023172072389762016 -0.025313933607536032 -0.007942842821853674 0 -0.007942842821853674 0.028907242322557869 0 0 0 0.00089832717875554247 -0.050656294951087213 0.0033363600686861505 0 0.0033363600686861505 0.039724216060513851 0 0 0 -0.0027330197226433095 -0.038504200310825409 0.004534105518278736 0 0.004534105518278736 0.077436756734306167 0 0 0 0.0097331391058701755 -0.055137683489226 0.010207691476906422 0 0.010207691476906422 0.089690237654272753 0 0 0 0.0086381385412617057 -0.029091746147664965 -0.0052543099193824438 0 -0.0052543099193824438 0.042143485886631304 0 0 0 0.003262934934741557 0.01708477614014825 0.0364000549528809 0 0.0364000549528809 0.042933805372232126 0 0 0 0.015004645378094983 0.028277801447683215 0.022767475567871287 0 0.022767475567871287 0.084143887353953062 0 0 0 0.028105422200409125 0.042855431864170734 0.019183327197607729 0 0.019183327197607729 0.079792533051382897 0 0 0 0.030661991228888352 0.038647839492801282 0.0061902272985215907 0 0.0061902272985215907 0.11611298286165254 0 0 0 0.038690205588613455 0.011276583931686179 0.018131956129711347 0 0.018131956129711347 0.087470831246712066 0 0 0 0.02468685379459945 0.021583524638490559 0.022037226032860069 0 0.022037226032860069 0.091448494896505306 0 0 0 0.028258004883749077 -0.0058373555229411789 0.029948834864402363 0 0.029948834864402363 0.086194809266491035 0 0 0 0.020089363435887853 -0.0017527784833237803 0.018980273753451089 0 0.018980273753451089 0.10656721275996084 0 0 0 0.026203608569159265 -0.041995642027538249 0.0084987781353015879 0 0.0084987781353015879 0.114767888810694 0 0 0 0.018193061695788937 0.046137152249912071 0.0067152906859766562 0 0.0067152906859766562 0.13860048968746566 0 0 0 0.046184410484344435 0.0060870882365413048 0.022360164055251097 0 0.022360164055251097 0.11250582356435457 0 0 0 0.029648227950223871 -0.044409667308098866 0.0010462139866199427 0 0.0010462139866199427 0.064173894925365738 0 0 0 0.0049410569043167318 -0.043294707724228942 -0.00064851064623516752 0 -0.00064851064623516752 0.037419529673003882 0 0 0 -0.0014687945128062374 -0.035795292344719759 0.0043633221686288359 0 0.0043633221686288359 0.099649873139602996 0 0 0 0.015963645198720816 -0.031635349682270775 -0.0021650640567583215 0 -0.0021650640567583215 0.070012021383157097 0 0 0 0.0095941679252214973 -0.042112786871290053 -0.00047414648883412069 0 -0.00047414648883412069 0.073140878301691581 0 0 0 0.0077570228576003819 -0.047231089524969433 -0.0066019403757766049 0 -0.0066019403757766049 0.025916280082361826 0 0 0 -0.0053287023606519435 -0.037682896305209684 -0.0089799726244139955 0 -0.0089799726244139955 0.029472875770064078 0 0 0 -0.0020525051337863254 -0.036007686324113608 -0.0075766706764253816 0 -0.0075766706764253816 0.029389630687111645 0 0 0 -0.0016545139092504768 -0.040912172895446977 -0.018871819822896263 0 -0.018871819822896263 -0.0019925140634979022 0 0 0 -0.010726171739736234 -0.040099393619929785 -0.012072510597686388 0 -0.012072510597686388 0.0086810178388264658 0 0 0 -0.0078545939452758229 -0.042257019824462672 -0.01557346253093421 0 -0.01557346253093421 -0.004814145687341731 0 0 0 -0.011767791377951115 -0.039701769127498565 -0.018787240676552214 0 -0.018787240676552214 -0.0082818124362313839 0 0 0 -0.011995895390932515 -0.043746552744534761 -0.024579967862075364 0 -0.024579967862075364 -0.0076261771290832003 0 0 0 -0.01284318246840449 -0.038287975441945732 -0.019083874975292014 0 -0.019083874975292014 -0.0030423110306603898 0 0 0 -0.010332571618151546 -0.036032981931638064 -0.02580428070744506 0 -0.02580428070744506 -0.0015055183234691238 0 0 0 -0.0093846250637767969 -0.045873094483814214 -0.026853309520854116 0 -0.026853309520854116 -0.010330354037930256 0 0 0 -0.014050862130436048 -0.03807005927099899 -0.033055035212935513 0 -0.033055035212935513 0.00092166074473865045 0 0 0 -0.0092870996315650434 -0.048488662333909915 -0.032528473606511316 0 -0.032528473606511316 0.0060013427372788142 0 0 0 -0.01062182989915772 -0.039955753672407057 -0.023784244682709427 0 -0.023784244682709427 0.00053881097207719719 0 0 0 -0.0098542356750824511 -0.039866951178529397 -0.010463547011905272 0 -0.010463547011905272 0.0099299013347364795 0 0 0 -0.0074842624609482433 -0.030251161035897943 -0.017844620731835986 0 -0.017844620731835986 0.01272538159827501 0 0 0 -0.0043814448594057462 -0.18770371489523152 0.020487179797872956 0 0.020487179797872956 -0.0015946786005853752 0 0 0 -0.047324598373954196 -0.18964868578313165 0.023415917207627281 0 0.023415917207627281 0.0017049863846922975 0 0 0 -0.046985924849610061 -0.1609165922432465 0.054698397928997999 0 0.054698397928997999 0.017938150663014962 0 0 0 -0.03574461039505783 -0.25188509277567395 0.024597423592509049 0 0.024597423592509049 0.0018631720357800141 0 0 0 -0.062505480184973594 -0.27557496644561569 0.019077602389262704 0 0.019077602389262704 0.0086260975567080678 0 0 0 -0.066737217222226919 -0.20232361019370909 0.030839391941176575 0 0.030839391941176575 -0.00088741627780597465 0 0 0 -0.050802756617878767 -0.19830759042204754 0.028135390692170192 0 0.028135390692170192 0.0039276549843338948 0 0 0 -0.048594983859428231 -0.1681405828525262 0.060478820993712767 0 0.060478820993712767 0.024972375593059315 0 0 0 -0.035792051814866888 -0.14252627236870175 0.061055044956469767 0 0.061055044956469767 0.026669469094172227 0 0 0 -0.02896420081863238 -0.11411337279333666 0.078616300752858082 0 0.078616300752858082 0.051369768501623003 0 0 0 -0.015685901072928554 -0.14008871655831845 0.057661154709055751 0 0.057661154709055751 0.0057954402183866272 0 0 0 -0.033573319084982955 -0.11439394122238697 0.077110218368729555 0 0.077110218368729555 0.022326324860195035 0 0 0 -0.023016904090548213 -0.15035715549273831 0.051679505383156021 0 0.051679505383156021 -0.00070586404214845189 0 0 0 -0.037765754883721581 -0.10885951172682462 0.072300111790663646 0 0.072300111790663646 0.0039252829479922147 0 0 0 -0.026233557194708212 -0.033280275986628916 0.092634500578839152 0 0.092634500578839152 0.026684970312404799 0 0 0 -0.0016488264185561818 -0.073155576643059161 0.08485396153315769 0 0.08485396153315769 0.019668009086390104 0 0 0 -0.013371891889167209 -0.015870889140821909 0.11063249428827218 0 0.11063249428827218 0.063841566186888077 0 0 0 0.011992669261516542 -0.072379342878690078 0.087227391393656983 0 0.087227391393656983 0.024599858670362629 0 0 0 -0.01194487105208164 -0.13941662598050075 0.058361198351027099 0 0.058361198351027099 0.030102637372940055 0 0 0 -0.027328497151890119 -0.093663088795718275 0.086216659727398448 0 0.086216659727398448 0.08468093238807628 0 0 0 -0.0022455391019104362 -0.087186569670607714 0.078361829195371824 0 0.078361829195371824 0.05938539290245648 0 0 0 -0.0069502941920377842 -0.040037573694516215 0.10737132324513499 0 0.10737132324513499 0.13881832448758624 0 0 0 0.024695187698267396 -0.013894538629113717 0.11234934114438258 0 0.11234934114438258 0.22108160157990087 0 0 0 0.051796765737696759 0.033804517322619576 0.13255891633745365 0 0.13255891633745365 0.086039035283794973 0 0 0 0.029960888151603693 0.044639491476263504 0.10984984026498479 0 0.10984984026498479 0.082293868151943339 0 0 0 0.031733339907051572 -0.0027641077291853389 0.084207109396052249 0 0.084207109396052249 0.032440694170887685 0 0 0 0.0074191466104257531 0.018219469309606051 0.086230771481776713 0 0.086230771481776713 0.038373549990420752 0 0 0 0.014148254825006701 0.049826502738878453 0.044491226525082361 0 0.044491226525082361 0.040139046712613258 0 0 0 0.022491387362872706 -0.012719506330003148 0.071859550138524186 0 0.071859550138524186 0.018596327068155616 0 0 0 0.0014692051845382262 -0.024485736955035309 0.070168606000127531 0 0.070168606000127531 0.014912264763832894 0 0 0 -0.0023933680478005481 0.01260613963462176 0.052724007451889543 0 0.052724007451889543 0.038822016375364754 0 0 0 0.012857039002496684 -0.0045783089561718393 0.038704367015906183 0 0.038704367015906183 0.041773367182630583 0 0 0 0.0092987645566146027 -0.00042361410098945562 0.039588816984791553 0 0.039588816984791553 0.05763354239886187 0 0 0 0.014302482074467937 -0.028488380909335476 0.042548691232754621 0 0.042548691232754621 0.048280430212790826 0 0 0 0.0049480123258640596 -0.02377887881577867 0.053361863865099252 0 0.053361863865099252 0.029279036993473007 0 0 0 0.0013750395444236396 -0.025767261841972422 0.065897181804145388 0 0.065897181804145388 0.015411978978022489 0 0 0 -0.0025888207159876497 -0.045123164638152802 0.062030883367466316 0 0.062030883367466316 0.011827893153106728 0 0 0 -0.008323817871261574 -0.041850143910731941 0.0586721868657476 0 0.0586721868657476 0.01346392423479692 0 0 0 -0.0070965549189838661 -0.048910426061057333 0.064787195279338405 0 0.064787195279338405 0.0045171724259818191 0 0 0 -0.011098313408768767 -0.075143477111201173 0.069660664274117878 0 0.069660664274117878 0.00060163707336258199 0 0 0 -0.018635460009459592 -0.048059654624485915 0.075670947188354543 0 0.075670947188354543 0.010071927873840369 0 0 0 -0.009496931687661414 -0.034924430796220207 0.066561334825397389 0 0.066561334825397389 0.012274474610265429 0 0 0 -0.0056624890464886946 -0.073719094021970077 0.074874041705360161 0 0.074874041705360161 0.0036912810122373685 0 0 0 -0.017506953252433011 -0.080449285201438014 0.080650444612964112 0 0.080650444612964112 0.010406443415574618 0 0 0 -0.017510710446466016 -0.11066455069091141 0.060889962326326819 0 0.060889962326326819 -0.0052429512049529947 0 0 0 -0.02897687547396588 -0.11161974337506519 0.062002515323309138 0 0.062002515323309138 0.011158602893198921 0 0 0 -0.025115285120466346 -0.10248902883796585 0.045799633093698097 0 0.045799633093698097 -0.00134125404822516 0 0 0 -0.025957570721547807 -0.10072864325878755 0.063168579684765636 0 0.063168579684765636 -0.00101932311504771 0 0 0 -0.025436991593458969 -0.068278660023487703 0.059663817195181434 0 0.059663817195181434 0.0034076089351984251 0 0 0 -0.016217762772072541 -0.059403778314382566 0.059590832169860164 0 0.059590832169860164 -0.00017113678919256081 0 0 0 -0.014893728775893872 -0.064377875397476858 0.045608993772086714 0 0.045608993772086714 0.0025294211709052661 0 0 0 -0.015462113556642842 -0.092399597326676908 0.049033200657737197 0 0.049033200657737197 -0.0068111528054934922 0 0 0 -0.024802687533042489 -0.091169545296296395 0.047129028273467766 0 0.047129028273467766 0.0026879720676209473 0 0 0 -0.022120393307168751 -0.093151941281507833 0.018419068637969799 0 0.018419068637969799 -0.0021660885928600493 0 0 0 -0.023829507468592137 -0.0702016028426109 0.017873203478766531 0 0.017873203478766531 0.00075521193845951018 0 0 0 -0.01736159772603818 -0.10634454012698824 0.021378970876225312 0 0.021378970876225312 0.00089578017657254705 0 0 0 -0.026362189987604312 -0.14212317345616188 0.021212641323219962 0 0.021212641323219962 -0.0026049312142539804 0 0 0 -0.036182026167603576 -0.14235784991912126 0.049476646541068758 0 0.049476646541068758 -0.0032109769175314717 0 0 0 -0.036392206709163211 -0.13316574089342215 0.023059707530881379 0 0.023059707530881379 -0.00049196984898669527 0 0 0 -0.033414427685602099 -0.01368044277158223 0.0079413188258032896 0 0.0079413188258032896 0.0012793170471184778 0 0 0 -0.0031002814311158755 -0.0384790526327079 0.016253859030793905 0 0.016253859030793905 -0.0063817810946424913 0 0 0 -0.011215208431837764 -0.031277206874547936 0.020477788881648751 0 0.020477788881648751 0.0049777950265426085 0 0 0 -0.0065748529620011098 -0.021334329341529124 0.010401994946057371 0 0.010401994946057371 0.00077156188721083652 0 0 0 -0.005140691863580571 -0.049045776965257915 0.012849492826410014 0 0.012849492826410014 -0.0014251921632810749 0 0 0 -0.012617742282134969 -0.05546304449709849 0.014293041156996414 0 0.014293041156996414 -0.0033585255521186852 0 0 0 -0.014705392512304627 -0.08326032582128251 0.037416948547366102 0 0.037416948547366102 -0.0067802964679701816 0 0 0 -0.02251015557231284 -0.054644567527677879 0.027630016072064834 0 0.027630016072064834 -0.0075495702608443516 0 0 0 -0.015548534447131335 -0.057505112792557433 0.043857150577255338 0 0.043857150577255338 -0.0027706143395374028 0 0 0 -0.015068931783024375 -0.052730523131227169 0.032408186356533086 0 0.032408186356533086 0.0046291460791207939 0 0 0 -0.012025344263027371 -0.064269341974832361 0.046512974020937181 0 0.046512974020937181 -0.0019188061975174975 0 0 0 -0.016547037043087354 -0.048042544401800003 0.040794159805850327 0 0.040794159805850327 0.0021834904765745122 0 0 0 -0.011464763481305651 -0.036764152996712429 0.033360759175891985 0 0.033360759175891985 -0.0021365408276334819 0 0 0 -0.0097251734560868108 -0.039984494417973471 0.034271922436295732 0 0.034271922436295732 -0.0032364329350005328 0 0 0 -0.010805231838243445 -0.017592963476310786 0.023451332479428766 0 0.023451332479428766 0.0018931253507057377 0 0 0 -0.003924959531401484 -0.028084938366173873 0.036906504079438601 0 0.036906504079438601 0.012031904580208419 0 0 0 -0.0040132584464913634 -0.024592058630090063 0.041833025639821386 0 0.041833025639821386 0.020640307930296142 0 0 0 -0.00098793767494820273 -0.032515213049240321 0.046048022454312942 0 0.046048022454312942 0.02571010859727707 0 0 0 -0.0017012761129910903 -0.03369077661018105 0.041064443868689349 0 0.041064443868689349 0.0028047070855103939 0 0 0 -0.007721517381167331 -0.047509955108020918 0.050323294503177518 0 0.050323294503177518 0.0030763721511988251 0 0 0 -0.011108395739205523 -0.038776883256718464 0.046880850864493784 0 0.046880850864493784 0.0084654341347671913 0 0 0 -0.007577862280488401 -0.04731608144893347 0.055000457950975079 0 0.055000457950975079 0.0031701130924245632 0 0 0 -0.011036492089127225 -0.036219153145012339 0.051997438084899983 0 0.051997438084899983 0.022656291677435214 0 0 0 -0.0033907153668938372 -0.037388814816074589 0.050388445415707583 0 0.050388445415707583 0.015999824969158638 0 0 0 -0.0053472474617284327 -0.025530398093527071 0.045729385042917237 0 0.045729385042917237 0.041772702111130766 0 0 0 0.0040605760044012534 -0.022858550596978722 0.044880159495503946 0 0.044880159495503946 0.052396550488690963 0 0 0 0.0073844999729282268 -0.03295311989991756 0.053752202585326266 0 0.053752202585326266 0.023933907251244335 0 0 0 -0.0022548031621685283 -0.032076966467089463 0.043689243804199585 0 0.043689243804199585 0.051036083615869643 0 0 0 0.004739779287195045 -0.010205873788427855 0.03109861776140721 0 0.03109861776140721 0.09096023793525454 0 0 0 0.020188591036706782 -0.026239969758512949 0.041338043989781359 0 0.041338043989781359 0.059891397366068411 0 0 0 0.0084128569018884214 -0.025415049543771939 0.032615110847221906 0 0.032615110847221906 0.087509193371053229 0 0 0 0.015523535956820211 -0.02864413706049973 0.044360311259657115 0 0.044360311259657115 0.040609664957874436 0 0 0 0.0029913819743434544 -0.017336341939322431 0.037717386132568809 0 0.037717386132568809 0.061092232725592055 0 0 0 0.010938972696567184 -0.018700066006944738 0.035603080938710452 0 0.035603080938710452 0.085761293104889447 0 0 0 0.016765306774486177 -0.0028669378343746388 0.028630309052877223 0 0.028630309052877223 0.074039508334628579 0 0 0 0.017793142625063485 -0.019577504686508707 0.027147068335131141 0 0.027147068335131141 0.086819952158417091 0 0 0 0.016810611867976999 -0.0030932172808659786 0.02074035465907631 0 0.02074035465907631 0.078347588497964082 0 0 0 0.018813592804274748 0.0022222591549470039 0.016787810849293816 0 0.016787810849293816 0.11230005850077873 0 0 0 0.028630579413930768 -0.002876183058147852 0.0085605244058859498 0 0.0085605244058859498 0.11203971678570213 0 0 0 0.027290883431888346 0.0019747490211186841 0.0057342692020796449 0 0.0057342692020796449 0.094762300225285548 0 0 0 0.024184262311600948 0.0029065297623214192 0.013511002231791136 0 0.013511002231791136 0.060967990679355211 0 0 0 0.015968630110418935 -0.0025305255717813502 0.0057784098162270148 0 0.0057784098162270148 0.018135188725574736 0 0 0 0.0039011657884486795 0.0013888371912358366 0.015056053262953908 0 0.015056053262953908 0.029893277014419795 0 0 0 0.0078205285514139078 -0.00050482970994059073 0.0097626081340189685 0 0.0097626081340189685 0.05327144067608458 0 0 0 0.013191652741535886 -0.01500632762076437 0.02296397553215046 0 0.02296397553215046 0.011017520908650269 0 0 0 -0.0009972016780288584 -0.012453935463552224 0.024547186429111745 0 0.024547186429111745 0.036963361248755433 0 0 0 0.0061273564463011354 -0.011965232113683388 0.031277675153555951 0 0.031277675153555951 0.024136241846353101 0 0 0 0.0030427524331670952 -0.025534823663166062 0.038608431849270985 0 0.038608431849270985 0.031039885832465863 0 0 0 0.0013762655423255055 -0.026480748192562853 0.03097224023520817 0 0.03097224023520817 -0.00019328523152584154 0 0 0 -0.0066685083560220626 -0.026254490295776534 0.018592905624878586 0 0.018592905624878586 -0.0041443671176236707 0 0 0 -0.0075997143533500511 -0.011445282801465062 0.0091100917776050228 0 0.0091100917776050228 0.0013855163122240555 0 0 0 -0.0025149416223100296 -0.005341062489449655 0.0080116956161733199 0 0.0080116956161733199 -0.0003251193540805275 0 0 0 -0.0014165454608816574 -0.006325804252904188 0.019015608727873001 0 0.019015608727873001 0.0035209741598487554 0 0 0 -0.00070120752326441327 -0.0017172703435281989 0.0068347140714974941 0 0.0068347140714974941 0.021574638225727583 0 0 0 0.00496434197055029 -0.0046340801442340792 -0.00028923208340358997 0 -0.00028923208340358997 0.015377172319196034 0 0 0 0.0026857730437402664 -0.0029515336963923389 -0.0005757044802443545 0 -0.0005757044802443545 0.01230747864477344 0 0 0 0.0023389862370954972 -0.001172220281741021 0.004061934473070572 0 0.004061934473070572 0.0016032177695759486 0 0 0 0.00010774937195878742 -0.0069465586862005324 0.0011152721141454158 0 0.0011152721141454158 0.0034071397764439126 0 0 0 -0.00088485472744004312 0.0027051286712178602 -8.2727835915008541e-05 0 -8.2727835915008541e-05 0.0063816741141362598 0 0 0 0.0022717006963381969 -0.00050498179118374509 -0.0019167824364703101 0 -0.0019167824364703101 0.003792158988591865 0 0 0 0.00082179429935180792 0.0035433134096711782 -0.0016316590356641593 0 -0.0016316590356641593 0.00087685265268966361 0 0 0 0.0011050415155908766 0.00056886636692810022 -0.0013167818843058399 0 -0.0013167818843058399 0.0018161573993142888 0 0 0 0.00059625594156043071 0.0021899067790296378 0.00053205668381673982 0 0.00053205668381673982 -0.0013294261071230551 0 0 0 0.00021512016797720079 -0.0084048096228652724 0.0039901187036410768 0 0.0039901187036410768 -0.0026062137566942312 0 0 0 -0.0027527558448894318 -0.0078522307547683745 0.0081718874113904626 0 0.0081718874113904626 -0.0051214058197217582 0 0 0 -0.0032434091436219781 -0.029311304205863364 -0.011453592043527 0 -0.011453592043527 0.010671984803053203 0 0 0 -0.0046598298507024571 -0.025764204164697629 -0.012205952480100812 0 -0.012205952480100812 0.052701664694500328 0 0 0 0.0067343651324508202 -0.038604080776788063 -0.0089231111739281541 0 -0.0089231111739281541 0.046855799337153448 0 0 0 0.0020629296400914154 -0.029746375522552718 -0.013883731293026558 0 -0.013883731293026558 0.027828098928292466 0 0 0 -0.00047956914856512114 -0.029290199988610655 -0.012282747916654069 0 -0.012282747916654069 -0.0046367913231346591 0 0 0 -0.0084817478279363145 -0.026762700562017766 -0.011514499565537739 0 -0.011514499565537739 -0.0069290482410896415 0 0 0 -0.0084229372007768866 -0.030389951398723192 -0.007443133196932461 0 -0.007443133196932461 -0.013126455638491796 0 0 0 -0.010879101759303678 -0.038641294767972512 -0.012953651808647833 0 -0.012953651808647833 -0.0079310043892686366 0 0 0 -0.011643074789310259 -0.036853732653110316 -0.012495112176943629 0 -0.012495112176943629 -0.0099655289863247454 0 0 0 -0.011704815409858793 -0.040847743509723054 -0.01628764641399788 0 -0.01628764641399788 -0.012760410534575273 0 0 0 -0.013402038511074597 -0.040441369675728644 -0.013514916691378345 0 -0.013514916691378345 0.0098670135224236954 0 0 0 -0.0076435890383262928 -0.041904323634409546 -0.011804071779241972 0 -0.011804071779241972 0.0092506290200758956 0 0 0 -0.0081634236535834126 -0.033300150879112103 -0.013305821443252153 0 -0.013305821443252153 0.0082743626743606025 0 0 0 -0.0062564470511878439 -0.030300712682361841 -0.011022842282290899 0 -0.011022842282290899 0.044024932422373153 0 0 0 0.0034310549350028974 -0.044061976577711187 -0.0063272975279227706 0 -0.0063272975279227706 0.036380897451858241 0 0 0 -0.0019202697814632297 -0.029356763776384492 -0.0049206279807198494 0 -0.0049206279807198494 0.080774536823549403 0 0 0 0.012854443261791249 -0.024850079498201755 0.0025511606263761699 0 0.0025511606263761699 0.12384529087417939 0 0 0 0.024748802843994361 -0.016282431637201583 -0.00029469759797134953 0 -0.00029469759797134953 0.1427027570509164 0 0 0 0.031605081353428655 -0.034480758594130995 -0.0019298956221859842 0 -0.0019298956221859842 0.087135988070496828 0 0 0 0.013163807369091451 -0.019642752437221578 0.028884550327312075 0 0.028884550327312075 0.10176285936190599 0 0 0 0.020530026731171436 -0.0076468026264953082 0.017527821705687164 0 0.017527821705687164 0.13927430188062573 0 0 0 0.032906874813532383 -0.027157064667263225 0.0055262483970637266 0 0.0055262483970637266 0.13154702860850509 0 0 0 0.026097490985310418 0.053443520913802396 0.0069949632049358191 0 0.0069949632049358191 0.16053819383169629 0 0 0 0.053495428686374677 -0.027097267998975605 0.032096137024046012 0 0.032096137024046012 0.086607984015624417 0 0 0 0.014877679004162259 -0.0055840004816938293 0.022060272144909465 0 0.022060272144909465 0.145161290933145 0 0 0 0.034894322612862849 -0.0093134693737943475 0.021753749793904653 0 0.021753749793904653 0.13797671218096874 0 0 0 0.032165810701793529 0.060670157064994595 0.0070579688497584342 0 0.0070579688497584342 0.18221914048304938 0 0 0 0.060722324387010994 -0.019700114581411937 0.0019949330367488582 0 0.0019949330367488582 0.14977217829764122 0 0 0 0.032518015929057315 -0.023576042445492718 0.021362244975142212 0 0.021362244975142212 0.14497218265896628 0 0 0 0.030349035053368389 0.067615298070842975 0.0069818964512304441 0 0.0069818964512304441 0.20315693629514234 0 0 0 0.067693058591496325 -0.016564638672388998 0.025247301268045419 0 0.025247301268045419 0.13483929677341777 0 0 0 0.02956866452525686 -0.022510334978542212 -0.0075395470058373104 0 -0.0075395470058373104 0.097211495103999401 0 0 0 0.018675290031364422 -0.006881578182551501 -0.0022649831156784095 0 -0.0022649831156784095 0.15630802441311442 0 0 0 0.037356611557640668 -0.020642790259108479 -0.0093618387143793169 0 -0.0093618387143793169 0.079864706956510823 0 0 0 0.0148054791743506 -0.026820969568750574 -0.0068014746332843434 0 -0.0068014746332843434 0.097036172529048281 0 0 0 0.01755380074007451 -0.012183793912844222 -0.010725305077226799 0 -0.010725305077226799 0.11384748871558542 0 0 0 0.025415923700685315 -0.014347313749602297 -0.013665934717832007 0 -0.013665934717832007 0.083316488901807206 0 0 0 0.017242293788051199 -0.0087187127588671809 0.00072464757715834383 0 0.00072464757715834383 0.16226139712786058 0 0 0 0.038385671092248358 0.00095622214973922759 -0.0056978526240627492 0 -0.0056978526240627492 0.17287309581969135 0 0 0 0.043457329492357755 -0.011544163464491053 -0.012363565854359604 0 -0.012363565854359604 0.11441481439734935 0 0 0 0.02571766273321463 -0.01887334695729237 0.01712298122029976 0 0.01712298122029976 0.17854988480014633 0 0 0 0.039919134460713046 0.074501105544629173 0.0068105471522478438 0 0.0068105471522478438 0.22344248869847982 0 0 0 0.074485898560777253 -0.0043635574465254456 -0.00026583823043813126 0 -0.00026583823043813126 0.18399138273172966 0 0 0 0.044906956321301039 -0.022392878249578363 0.020232054221939411 0 0.020232054221939411 0.17737823372110384 0 0 0 0.03874633886788148 0.002864210593529648 0.024487927195290471 0 0.024487927195290471 0.16079396385707911 0 0 0 0.040914543612651844 -0.00087433064457753673 0.022893129396106993 0 0.022893129396106993 0.15912839146946922 0 0 0 0.039563515206222366 0.080254775072542084 0.0066488140771089567 0 0.0066488140771089567 0.24215151200396823 0 0 0 0.080601571769127592 -0.013875981517017966 0.0051917389709736916 0 0.0051917389709736916 0.19611678141186051 0 0 0 0.04556019997371008 0.0079315837858143015 0.0019981581906600709 0 0.0019981581906600709 0.17547186272347026 0 0 0 0.045850861627320584 -0.0059235945137590118 -0.012457105327045692 0 -0.012457105327045692 0.081603167796262754 0 0 0 0.01891989332062588 0.013397957530107918 -0.0042336651761044619 0 -0.0042336651761044619 0.18512007535612995 0 0 0 0.049629508221559482 0.0049224985766935792 -0.0038751647512870746 0 -0.0038751647512870746 0.18273535001945862 0 0 0 0.046914462149038105 0.020433682926497998 -0.00204474907751373 0 -0.00204474907751373 0.15977349363833415 0 0 0 0.045051794141208079 -0.0065084470833027264 -0.0086402825995029603 0 -0.0086402825995029603 0.081562456424019159 0 0 0 0.018763502335179039 0.0013943739276380263 -0.0098741732359552414 0 -0.0098741732359552414 0.014782147929406797 0 0 0 0.0040441304642612197 0.0052530456980810492 -0.0057482761603545596 0 -0.0057482761603545596 0.067900813387206771 0 0 0 0.018288464771321955 -0.0051485201630770165 -0.0032188777121233692 0 -0.0032188777121233692 0.036641205010182552 0 0 0 0.0078731712117762996 -0.0051827896843016641 -0.015370548190994593 0 -0.015370548190994593 0.050187399659914617 0 0 0 0.011251152493903266 -0.015481067470204724 -0.012899808788378153 0 -0.012899808788378153 0.018249952981509443 0 0 0 0.00069222137782620763 -0.023052616434283246 -0.012510088486258064 0 -0.012510088486258064 0.0038827789399986656 0 0 0 -0.0047924593735712007 -0.015480562495208183 -0.01423569717104381 0 -0.01423569717104381 0.032598990209417034 0 0 0 0.004279606928552171 -0.019724899096406623 -0.015709568437360988 0 -0.015709568437360988 0.045727257379242214 0 0 0 0.0065005895707088701 -0.022178715503009913 -0.0082154271687108205 0 -0.0082154271687108205 -0.018837802665496006 0 0 0 -0.010254129542126497 -0.015620815208186117 -0.010996504045543976 0 -0.010996504045543976 -0.0001146549553396603 0 0 0 -0.0039338675408814028 -0.011277262225552254 -0.0094819114002487881 0 -0.0094819114002487881 -0.0089102640773313091 0 0 0 -0.0050468815757208629 -0.0071447959158967844 -0.01372372205848188 0 -0.01372372205848188 0.0093075278433079056 0 0 0 0.0005406829818527803 -0.0059672899945770741 -0.0039160317889681551 0 -0.0039160317889681551 -0.011646907300627563 0 0 0 -0.0044035493238012702 9.3717434883622275e-05 -0.0026436404671687092 0 -0.0026436404671687092 0.0016641585336594211 0 0 0 0.00043946899213576085 -0.0013596941412601777 -0.0022792160498640301 0 -0.0022792160498640301 0.004198729652394529 0 0 0 0.00070975887778353228 -0.00039842667421352562 0.00062961362921626352 0 0.00062961362921626352 -0.01058490100540066 0 0 0 -0.0027458319199036296 -0.0011957503562005389 0.0019029149428608783 0 0.0019029149428608783 -0.002396978578706333 0 0 0 -0.00089818223372670409 -0.00071036671075574986 0.00054348476073828866 0 0.00054348476073828866 -0.011255894708748881 0 0 0 -0.0029915653548762688 -0.0039530732967778814 0.0025880989006084043 0 0.0025880989006084043 -0.015006540360845699 0 0 0 -0.004739903414405916 -0.0085684366341103324 -0.0023366534637828673 0 -0.0023366534637828673 -0.014424587372270592 0 0 0 -0.0057482560015952311 0.0028187688010954549 0.0045473065605076135 0 0.0045473065605076135 0.019782817177987567 0 0 0 0.005650396494770853 -0.001851476665440166 0.0039391927025260731 0 0.0039391927025260731 0.0057796581913986955 0 0 0 0.00098204538148960463 -0.00038504542200623604 0.0074754579821188424 0 0.0074754579821188424 -0.0049810503734206701 0 0 0 -0.0013415239488567821 -0.0049830863462219099 0.010181364758812539 0 0.010181364758812539 0.019591178339925408 0 0 0 0.003652022998425819 -0.013174549178674166 0.0082225649198219841 0 0.0082225649198219841 -0.0055891267122225585 0 0 0 -0.0046909189727241674 -0.023307848769055589 0.0037803220839535134 0 0.0037803220839535134 -0.010066976688441365 0 0 0 -0.0083437063643743425 -0.014755500924309425 0.0061666854172272023 0 0.0061666854172272023 0.014718355020959251 0 0 0 -9.2864758375194034e-06 -0.018732933686441536 0.0077953804731207277 0 0.0077953804731207277 0.014160588736242985 0 0 0 -0.0011430862375497314 -0.017678126325801291 0.00047047162630786676 0 0.00047047162630786676 -0.019923750152826769 0 0 0 -0.0094004691196570289 -0.0084177519802242085 0.0065826389029996768 0 0.0065826389029996768 -0.00425180318220586 0 0 0 -0.0031673887906076281 -0.013792176174607929 -0.0024982639412136354 0 -0.0024982639412136354 -0.012987430166728542 0 0 0 -0.0066949015853341454 -0.027053865868441274 -0.004997210815400166 0 -0.004997210815400166 -0.018376238792438437 0 0 0 -0.011357526165219956 -0.032147282633171514 -0.0080245510274978837 0 -0.0080245510274978837 -0.012277341390143137 0 0 0 -0.011106156005828649 -0.033760153980224916 -0.0071897990000726886 0 -0.0071897990000726886 -0.015930618415550768 0 0 0 -0.012422693098943838 -0.028964862137127012 -0.0044383434322775028 0 -0.0044383434322775028 -0.0057626569680717665 0 0 0 -0.0086818797762997502 -0.023453981382986849 -0.0028842033185894067 0 -0.0028842033185894067 -0.011822228754442901 0 0 0 -0.0088190525343574688 -0.032635157667244646 -0.0024237722972486053 0 -0.0024237722972486053 -0.0088061887413063422 0 0 0 -0.010360336602137726 -0.023080219659449841 0.00028156543966684211 0 0.00028156543966684211 -0.0040025203281104371 0 0 0 -0.0067706849968901528 -0.030368282113062306 -0.00068129077411388517 0 -0.00068129077411388517 0.0076292601203464816 0 0 0 -0.0056847554981789283 -0.023332494617511301 -0.00070106471278280624 0 -0.00070106471278280624 0.032001428322025127 0 0 0 0.0021672334261283455 -0.028401162365185806 -0.0020780896938403931 0 -0.0020780896938403931 0.0056850865354212132 0 0 0 -0.0056790189574412731 -0.037506540966883273 -0.0095012311636632762 0 -0.0095012311636632762 -6.9956815390348481e-05 0 0 0 -0.0093941244455683637 -0.042730485698256326 -0.007319249419584048 0 -0.007319249419584048 0.0038172059495722444 0 0 0 -0.0097283199371710483 -0.035144192441791011 -0.0083280405509892907 0 -0.0083280405509892907 0.029584567276388141 0 0 0 -0.0013899062913506066 -0.042410650923596603 -0.016288686177989897 0 -0.016288686177989897 0.000540815495645941 0 0 0 -0.010467458856987542 -0.045028096184163813 -0.017662531483660697 0 -0.017662531483660697 -0.0099014991510202321 0 0 0 -0.013732398833796011 -0.040338513491967931 -0.016438603461106871 0 -0.016438603461106871 -0.011321197499100322 0 0 0 -0.01291492774776698 -0.037227961473973004 -0.011132406194504729 0 -0.011132406194504729 -0.0098738471724257246 0 0 0 -0.011775452161599694 -0.038277671021538062 -0.011969473950262932 0 -0.011969473950262932 -0.014206231859698271 0 0 0 -0.013120975720308958 -0.039130334368639247 -0.0099656753471197845 0 -0.0099656753471197845 -0.01115749416934414 0 0 0 -0.012571957134495909 -0.022824409577562377 -0.023110076384901923 0 -0.023110076384901923 0.074873261491524179 0 0 0 0.013012212978490534 0.027821103309436688 -0.012218896749484603 0 -0.012218896749484603 0.083606815343334487 0 0 0 0.027856979663192793 -0.026803519672292331 -0.01931363142734499 0 -0.01931363142734499 0.066985615366785378 0 0 0 0.010045523923623345 -0.022653005489786104 -0.013739690932352278 0 -0.013739690932352278 0.06455037325403179 0 0 0 0.010474341941061394 -0.035548184026608476 -0.012498633800221259 0 -0.012498633800221259 0.063301267524464744 0 0 0 0.0069382708744639143 -0.042943598288572804 -0.016204261683612886 0 -0.016204261683612886 0.024086256597802835 0 0 0 -0.0047143354226924505 -0.041806649868839474 -0.014784295258664398 0 -0.014784295258664398 0.036136420832374005 0 0 0 -0.0014175572591162422 -0.034352332627786697 -0.0053894486195000257 0 -0.0053894486195000257 0.0235882094881531 0 0 0 -0.0026910307849083437 -0.020551380712100442 -0.0059715162991134663 0 -0.0059715162991134663 0.073235025426141132 0 0 0 0.013170911178510214 -0.025021153349568004 -0.0073006926074675182 0 -0.0073006926074675182 0.055266491578139121 0 0 0 0.007561334557142807 -0.019983816265713217 -0.00016279992655776621 0 -0.00016279992655776621 0.050647673940658278 0 0 0 0.0076659644187361264 -0.021636499004637488 -0.0017114533861223857 0 -0.0017114533861223857 0.037471465783158742 0 0 0 0.0039587416946303411 -0.0059417137412488552 -0.0061281927556697813 0 -0.0061281927556697813 0.086914408834112722 0 0 0 0.02024317377321605 0.00068156267941787974 -0.0056677947760269487 0 -0.0056677947760269487 0.085886255838278913 0 0 0 0.021641954629424198 -0.020007896963846972 -0.023508394288849987 0 -0.023508394288849987 0.071937058282593558 0 0 0 0.012982290329686563 -0.023755515687256416 -0.02496547262453408 0 -0.02496547262453408 0.070586872841860285 0 0 0 0.011707839288651052 0.036626654468429984 -0.011440920419243597 0 -0.011440920419243597 0.11002373974325505 0 0 0 0.036662598552921255 -0.0091954934340432448 -0.0096037030841025217 0 -0.0096037030841025217 0.078425115787026378 0 0 0 0.017307405588245728 -0.034146134375929116 -0.02115000041978532 0 -0.02115000041978532 0.075069676621773107 0 0 0 0.010230885561460956 0.032206412681761894 -0.011944438287518847 0 -0.011944438287518847 0.096762056551226883 0 0 0 0.032242117308247192 -0.025165220371670793 -0.019676525950147461 0 -0.019676525950147461 0.09644171209562824 0 0 0 0.017819122930989417 0.041061076143233857 -0.010881600550141092 0 -0.010881600550141092 0.12327583765004156 0 0 0 0.041084228448318855 0.0046998163244550417 -0.002605686166020557 0 -0.002605686166020557 0.098572974054954354 0 0 0 0.025818197594852488 -0.025208387010969089 -0.020525124507082326 0 -0.020525124507082326 0.096477207476682217 0 0 0 0.017817205116428338 -0.005658310605207939 -0.024052898665630096 0 -0.024052898665630096 0.084590931259195479 0 0 0 0.019733155163496718 -0.012113836385669097 0.00721526380088508 0 0.00721526380088508 0.043632101349120989 0 0 0 0.0078795662408630007 -0.0078350268409957957 0.0042783750425970379 0 0.0042783750425970379 0.057029314315413693 0 0 0 0.012298571868604391 0.00071422537544624243 -0.00080715934639979947 0 -0.00080715934639979947 0.095364984776549533 0 0 0 0.024019802537998902 -0.0068591845295395276 0.0087959352859100504 0 0.0087959352859100504 0.05816884725925052 0 0 0 0.012827415682427692 -0.0037182582197029523 0.0083037802781674719 0 0.0083037802781674719 0.03244239972068752 0 0 0 0.0071810353752462808 0.011364873510467902 -0.001070622291077572 0 -0.001070622291077572 0.098629916079581603 0 0 0 0.027498697397512331 0.0079267008524968041 0.0013652917343917048 0 0.0013652917343917048 0.096372831444048401 0 0 0 0.026074883074136412 0.015371364703781046 -0.0016002466471757293 0 -0.0016002466471757293 0.077022471273366797 0 0 0 0.023098458994287044 -0.002931076719200898 0.008187646514457525 0 0.008187646514457525 0.032709487981744889 0 0 0 0.00744460281563597 -0.0042247766283597388 -0.019760541475649429 0 -0.019760541475649429 0.083822066852233035 0 0 0 0.01989932255596838 0.044923157999128278 -0.010397059450382088 0 -0.010397059450382088 0.13504607759782003 0 0 0 0.044992308899237068 -0.010463563303530599 -0.0077611376165999269 0 -0.0077611376165999269 0.10863165307298406 0 0 0 0.024542022442363365 0.0038087776631645642 -0.0044252317797672802 0 -0.0044252317797672802 0.091407138095892293 0 0 0 0.023803978939764159 -0.0014676471764809573 -0.0076576924651543532 0 -0.0076576924651543532 0.056391039530225839 0 0 0 0.013730848088436165 0.0013455945155005017 -0.0062393927323709519 0 -0.0062393927323709519 0.047301220521482119 0 0 0 0.0121617037592456 -0.0027791427789392031 -0.017772743386169854 0 -0.017772743386169854 0.03936550617517165 0 0 0 0.0091465908490582226 -0.0011897451161915207 -0.016400915380100134 0 -0.016400915380100134 0.05497340436052589 0 0 0 0.013445914811083925 0.00025931857825534088 -0.011744030611328782 0 -0.011744030611328782 0.025313316646607298 0 0 0 0.0063931588062153821 -0.00078016614772069559 -0.012569221873169889 0 -0.012569221873169889 0.0097537920244241683 0 0 0 0.0022434064691758682 -0.0012474670507949259 -0.0056557318572869712 0 -0.0056557318572869712 0.0083518893148770701 0 0 0 0.0017761055660208136 -0.00025410023752463445 -0.0083568211472180298 0 -0.0083568211472180298 0.026244548884799747 0 0 0 0.0064976121618188333 -0.0099350097439774299 -0.021295365490088702 0 -0.021295365490088702 0.017021534872108113 0 0 0 0.0017716312820326152 -0.011285800293520887 -0.026221533690900856 0 -0.026221533690900856 0.008071368143762303 0 0 0 -0.00080360803743950715 -0.013617932271079547 -0.019067001010417028 0 -0.019067001010417028 0.0043777346155660091 0 0 0 -0.0023100494138784677 -0.023333252266206195 -0.031690852203582143 0 -0.031690852203582143 0.012173255940868266 0 0 0 -0.0027899990813344822 -0.020912045817040398 -0.032756780235560612 0 -0.032756780235560612 0.041862846618831384 0 0 0 0.005237700200447809 -0.017837030522233732 -0.02523690965544878 0 -0.02523690965544878 0.044954251661966094 0 0 0 0.0067793052849329793 -0.0065101159648452978 -0.025341662276147925 0 -0.025341662276147925 0.034046347587401549 0 0 0 0.0068840579056388407 0.00023270514553597188 0.00064756052285330767 0 0.00064756052285330767 0.0013398591795441561 0 0 0 0.00039314108126986547 0.0022626389192457186 0.0010029590052582638 0 0.0010029590052582638 0.00041580583061495702 0 0 0 0.00066961118746533543 -0.00047658816433857976 0.0012069706653967671 0 0.0012069706653967671 0.0024214535531874026 0 0 0 0.00048621634721203921 0.0018709427767404918 -0.00012970455325267416 0 -0.00012970455325267416 0.003671857628639863 0 0 0 0.0013857001013453107 -0.0056839817163147899 -0.00144922422356486 0 -0.00144922422356486 0.0014094219583782319 0 0 0 -0.0010686399394841395 -0.0012237950985214407 -0.0036858494661298202 0 -0.0036858494661298202 -0.0011161108642037121 0 0 0 -0.00058497649068156576 -0.0016644394912384008 -0.00033352387038898534 0 -0.00033352387038898534 0.006492155976985714 0 0 0 0.0012069291214364952 -0.0036071570813988774 -0.00036143604152050202 0 -0.00036143604152050202 0.0087606031463031177 0 0 0 0.0012883615162256159 -0.0018712596943900443 -0.0058944804821861041 0 -0.0058944804821861041 0.0099581117168194185 0 0 0 0.0020217130056073992 -0.0060761809068816675 -0.015489221020595939 0 -0.015489221020595939 -0.0028810664194125479 0 0 0 -0.0022393118315735538 -0.022416192190030215 -0.024935601357458648 0 -0.024935601357458648 -0.0042144878609517988 0 0 0 -0.0066576700127457533 -0.020507503257236159 -0.014712638941917988 0 -0.014712638941917988 -0.0049542056835178983 0 0 0 -0.0063654272351882923 -0.0088489166442686784 -0.0080236182330146733 0 -0.0080236182330146733 -0.00096360179140830837 0 0 0 -0.0024531296089191912 -0.0047484198436946595 -0.0069348481001698659 0 -0.0069348481001698659 -0.00099141180305378773 0 0 0 -0.0014349579116872263 -0.0074328957975207666 -0.0034389092705418012 0 -0.0034389092705418012 -0.0023096143609664388 0 0 0 -0.0024356275396216209 -0.007371762371112256 -0.006186672869022863 0 -0.006186672869022863 -0.0036738493968107022 0 0 0 -0.002761402941980684 0.00081413805038144105 -0.00068203905599561999 0 -0.00068203905599561999 -0.0009425145317072392 0 0 0 -3.2094120331116471e-05 -0.018797740671736785 -0.0073267387223688741 0 -0.0073267387223688741 0.001530833691571587 0 0 0 -0.0043167267450410218 -0.011221305086141387 -0.0058811960189834034 0 -0.0058811960189834034 0.00054950913880480456 0 0 0 -0.002667948986834201 -0.023339126657346609 -0.013926064819688388 0 -0.013926064819688388 0.0028528647006249575 0 0 0 -0.005121565489180302 -0.028673477797610814 -0.010937750457372886 0 -0.010937750457372886 -0.0040587281099658257 0 0 0 -0.0081830514768941875 -0.03278725559652429 -0.023644054991105612 0 -0.023644054991105612 -0.0054275998141548598 0 0 0 -0.0095537138526695653 -0.016008101252187323 -0.017383678378930234 0 -0.017383678378930234 0.0024789299094858386 0 0 0 -0.0033822928356752602 -0.029431427936572829 -0.025943604408873777 0 -0.025943604408873777 0.0031022633267729915 0 0 0 -0.006582291152450237 -0.03300943993832095 -0.031613800537058312 0 -0.031613800537058312 -0.0003391388113356264 0 0 0 -0.0083371446874140887 -0.045803001834892818 -0.02878060349447531 0 -0.02878060349447531 -0.0025467277842169123 0 0 0 -0.012087432404777373 -0.051147217267541123 -0.035558293259806723 0 -0.035558293259806723 0.0010410825692241943 0 0 0 -0.012526533674579232 -0.037245069732791791 -0.033744753664593841 0 -0.033744753664593841 0.0053539923599491002 0 0 0 -0.0079727693432103952 -0.040909985292791551 -0.026327809526614065 0 -0.026327809526614065 1.441085866460412e-05 0 0 0 -0.010223893608531598 -0.034426909433715958 -0.016472978869285004 0 -0.016472978869285004 -0.002006416969962288 0 0 0 -0.0091083316009197279 -0.051987245553070771 -0.017840184899107769 0 -0.017840184899107769 -0.0032718923791961174 0 0 0 -0.013814784483066722 -0.040325995201485831 -0.011903188066937465 0 -0.011903188066937465 0.0032139884020874199 0 0 0 -0.0092780016998496029 -0.043093721570269139 -0.0096393230534158412 0 -0.0096393230534158412 -0.0035144760964538335 0 0 0 -0.011652049416681187 -0.036357301591666391 -0.0073783291846325483 0 -0.0073783291846325483 0.00038748140969868672 0 0 0 -0.0089924550454921759 -0.03341717854560744 -0.03505745106559699 0 -0.03505745106559699 0.02833388630771605 0 0 0 -0.0012708230594727921 -0.02702502497713688 -0.034999950246489053 0 -0.034999950246489053 0.025427740847212998 0 0 0 -0.00039932103248085937 -0.029830116010758578 -0.030358532333261135 0 -0.030358532333261135 0.046775607144983411 0 0 0 0.0042363727835561527 -0.019672545556895571 -0.032310502770812488 0 -0.032310502770812488 0.02843936452475937 0 0 0 0.0021917047419659497 -0.024262216219594901 -0.033556793239791216 0 -0.033556793239791216 0.0084852016898375737 0 0 0 -0.0039442536324394428 -0.024396056325909021 -0.027862491666171385 0 -0.027862491666171385 0.0058419298415814946 0 0 0 -0.0046385316210817429 -0.030916968519405841 -0.034182576897649364 0 -0.034182576897649364 0.01306725193349223 0 0 0 -0.0044624291464784305 -0.037140826055569454 -0.038257368647799384 0 -0.038257368647799384 0.012935194871267264 0 0 0 -0.006051407796075603 -0.03448528045584176 -0.037605558075195944 0 -0.037605558075195944 0.0088077622198646788 0 0 0 -0.0064193795589941871 -0.036696188392012719 -0.033496668957451126 0 -0.033496668957451126 0.0057815938678542622 0 0 0 -0.0077286486310397251 -0.04368364411376971 -0.039120919893083084 0 -0.039120919893083084 0.010559076728232808 0 0 0 -0.0082811418463842046 -0.036887844414615234 -0.037043057178347147 0 -0.037043057178347147 0.024076199929760733 0 0 0 -0.0032029111212137362 -0.033116318857176474 -0.037946676784380351 0 -0.037946676784380351 0.024978808483013371 0 0 0 -0.0020343775935406372 -0.030479136518325012 -0.030016299226632404 0 -0.030016299226632404 0.046222438474280869 0 0 0 0.0039358254889889643 -0.032316547038399923 -0.032661497705774201 0 -0.032661497705774201 0.039780647096292032 0 0 0 0.0018660250144730828 -0.027548541114750691 -0.031408093647826152 0 -0.031408093647826152 0.039204714214337244 0 0 0 0.0029140432748964162 -0.037031646730823597 -0.036744797711292465 0 -0.036744797711292465 0.026410594845945656 0 0 0 -0.0026552629712194298 -0.028424270418331236 -0.034276865451314364 0 -0.034276865451314364 0.029279720283444322 0 0 0 0.00021386246627846581 -0.03143553028160051 -0.033343767699231364 0 -0.033343767699231364 0.030225502930459669 0 0 0 -0.00030250683778509924 -0.040062331947239072 -0.040066229290814714 0 -0.040066229290814714 0.018166561175787077 0 0 0 -0.0054739426928628321 -0.034780038778312594 -0.037199175253827987 0 -0.037199175253827987 0.024541604641119541 0 0 0 -0.0025596085342982633 -0.040116227442215206 -0.041000860101231718 0 -0.041000860101231718 0.013926458620924148 0 0 0 -0.0065474422053225442 -0.044112608472420156 -0.038885636774453891 0 -0.038885636774453891 0.00680728314378376 0 0 0 -0.0093263313321592101 -0.052971098144916795 -0.038466032515515725 0 -0.038466032515515725 0.0038361683061715682 0 0 0 -0.012283732459686225 -0.041012163422932124 -0.040630119016916877 0 -0.040630119016916877 0.013665229482327845 0 0 0 -0.0068367334851509032 -0.046430425886324067 -0.04336890069824928 0 -0.04336890069824928 0.0098100922352655218 0 0 0 -0.0091550834127647196 -0.04341141610300845 -0.042013175053745022 0 -0.042013175053745022 0.010589411707564403 0 0 0 -0.0082055010988611801 -0.057277780755486396 -0.041230694836770776 0 -0.041230694836770776 0.0066629299475104986 0 0 0 -0.012653712701994002 -0.056054463434754176 -0.044770402240100773 0 -0.044770402240100773 0.012405613341718524 0 0 0 -0.010912212523259024 -0.022149597076370098 -0.043644164588159104 0 -0.043644164588159104 0.021469927053255233 0 0 0 -0.0001699175057786606 -0.016866053169902917 -0.033522060575942092 0 -0.033522060575942092 0.026892182962298561 0 0 0 0.0025065324480989526 -0.025532781515838376 -0.032660407096821477 0 -0.032660407096821477 0.032017135446473777 0 0 0 0.0016210884826588501 -0.041406342524634709 -0.042769226639414959 0 -0.042769226639414959 0.016456570247850855 0 0 0 -0.0062374430691958249 -0.030253448445757503 -0.039378829327720521 0 -0.039378829327720521 0.02066409648281553 0 0 0 -0.002397337990735493 -0.064056940548114949 -0.013443423604908467 0 -0.013443423604908467 0.003965891735398408 0 0 0 -0.015022762203178996 -0.087046340092304247 -0.013494388654132106 0 -0.013494388654132106 -0.0036880593559536629 0 0 0 -0.022683599862064561 -0.061712390364119962 -0.012226679436732057 0 -0.012226679436732057 -0.0038164151705288307 0 0 0 -0.016382201383661921 -0.067190116226508279 -0.011715711444609209 0 -0.011715711444609209 0.00023454789947230381 0 0 0 -0.016738892081759049 -0.058927964517883957 -0.013783771180565244 0 -0.013783771180565244 -0.00033651800374201457 0 0 0 -0.014816120630406271 -0.060931705999362373 -0.030533810328882194 0 -0.030533810328882194 0.0026140780721806145 0 0 0 -0.014579406981795273 -0.061711531527731456 -0.028877856383182743 0 -0.028877856383182743 2.7452094192748078e-05 0 0 0 -0.015421019858384621 -0.048666945504334369 -0.028701770409929939 0 -0.028701770409929939 0.00077692090667458302 0 0 0 -0.011972506149414808 -0.058289471113327274 -0.039305923877090088 0 -0.039305923877090088 0.0058484826303577542 0 0 0 -0.01311024712074238 -0.063837084243984377 -0.035002062238523424 0 -0.035002062238523424 0.0069427799850734218 0 0 0 -0.014223576064727572 -0.06771363090421556 -0.037515497510397511 0 -0.037515497510397511 0.0026423318201929114 0 0 0 -0.016267824771005857 -0.069412019220831636 -0.041934484029501284 0 -0.041934484029501284 0.010842935540109011 0 0 0 -0.01464227092018057 -0.080184551338980461 -0.031639703726089263 0 -0.031639703726089263 0.001766721830514531 0 0 0 -0.019604457377116431 -0.080699542193437446 -0.030807507577998383 0 -0.030807507577998383 0.0070552894162603241 0 0 0 -0.018411063194294308 -0.076564087450157858 -0.02988674647031947 0 -0.02988674647031947 0.00057561254170934717 0 0 0 -0.018997118727112072 -0.06957438893485976 -0.024048352901179793 0 -0.024048352901179793 0.005517258788172108 0 0 0 -0.016014282536672114 -0.10051409316937798 -0.021977596712438041 0 -0.021977596712438041 -0.0015149302543191467 0 0 0 -0.025507255855924393 -0.093005827148397668 -0.01118809447061575 0 -0.01118809447061575 -0.00056040219644659661 0 0 0 -0.023391557336211122 -0.090360125295828375 -0.012942213021319593 0 -0.012942213021319593 0.0018220442380578739 0 0 0 -0.022134520264442514 -0.14553824734647636 -0.01098136972061874 0 -0.01098136972061874 0.0013419924415747353 0 0 0 -0.036049063726225405 -0.11665786561004743 -0.011339256802666732 0 -0.011339256802666732 0.0015002412952498378 0 0 0 -0.028789406078699287 -0.11597958988628654 -0.0093451272994953261 0 -0.0093451272994953261 -0.00069489379437748244 0 0 0 -0.029168620920166144 -0.10314416661039685 -0.025818401290215509 0 -0.025818401290215509 0.0089210861903783745 0 0 0 -0.023555770105004453 -0.10014603696551932 -0.025419869236788906 0 -0.025419869236788906 0.00053353592221760948 0 0 0 -0.024903125260825332 -0.079424350718156789 -0.036143119526663159 0 -0.036143119526663159 0.0061447591974959082 0 0 0 -0.018319897880165192 -0.078934715464771821 -0.037260843795308807 0 -0.037260843795308807 0.013507397701803203 0 0 0 -0.016356829440742127 -0.082380950262455732 -0.037714094470367887 0 -0.037714094470367887 0.02390676526504032 0 0 0 -0.014618546249353659 -0.096513259406534269 -0.027073998188550719 0 -0.027073998188550719 0.0022778475000597154 0 0 0 -0.023558852976618472 -0.097253366452259654 -0.027955943447025233 0 -0.027955943447025233 0.011420984742298135 0 0 0 -0.021458095427490526 -0.11973170994878507 -0.014451989102726187 0 -0.014451989102726187 0.012640737622929499 0 0 0 -0.026772743081463879 -0.10860970713875606 -0.027722385848635123 0 -0.027722385848635123 0.010742819788924773 0 0 0 -0.024466721837457905 -0.12115346729580467 -0.012713048081604061 0 -0.012713048081604061 0.0023796181049458021 0 0 0 -0.029693462297714801 -0.1240081227582861 -0.014703063484795831 0 -0.014703063484795831 0.00010577780354892319 0 0 0 -0.030975586238684349 -0.1555185923551502 -0.0078831029291018418 0 -0.0078831029291018418 0.0034149054968259929 0 0 0 -0.038025921714581024 -0.041279908483062955 -0.04486629496043873 0 -0.04486629496043873 0.022481479633774226 0 0 0 -0.0046996072123222654 -0.0076423909877946783 -0.061873109017418187 0 -0.061873109017418187 0.047145300805651935 0 0 0 0.0098757274544643003 -0.041100177140542607 -0.047065648442169983 0 -0.047065648442169983 0.022981200074861263 0 0 0 -0.0045297442664204018 -0.044958613469138931 -0.043836675912720224 0 -0.043836675912720224 0.013157140538049394 0 0 0 -0.0079503682327724534 -0.066627534056165949 -0.041678191240568124 0 -0.041678191240568124 0.012985143876908634 0 0 0 -0.01341059754481444 -0.065023859917714477 -0.044926370129007021 0 -0.044926370129007021 0.018609478168005067 0 0 0 -0.011603595437427394 -0.048289513373809947 -0.051727918395000572 0 -0.051727918395000572 0.029605375790810129 0 0 0 -0.004671034395749965 -0.072006711265613033 -0.036894967266553336 0 -0.036894967266553336 0.029312694717239962 0 0 0 -0.010673504137093281 -0.096757640639968834 -0.027707281171832215 0 -0.027707281171832215 0.012578617887422539 0 0 0 -0.021044755688136518 -0.092655462705462877 -0.022099149742287549 0 -0.022099149742287549 0.020591418093116515 0 0 0 -0.018016011153086486 -0.074984906462225609 -0.040126535306888089 0 -0.040126535306888089 0.03276244469255718 0 0 0 -0.010555615442417066 -0.047983199035868007 -0.046654739568892663 0 -0.046654739568892663 0.043003467489217462 0 0 0 -0.0012449328866626086 -0.046962650150754959 -0.045415367652987329 0 -0.045415367652987329 0.045031305302344338 0 0 0 -0.00048283621210271077 -0.021393483705107921 -0.056801175491965727 0 -0.056801175491965727 0.065906471548429213 0 0 0 0.011128246960830326 0.0036192436292402271 -0.081833032991710686 0 -0.081833032991710686 0.13296272805082851 0 0 0 0.034145492920017131 -0.17608352265318974 0.0092056501785099942 0 0.0092056501785099942 0.070183621209466529 0 0 0 -0.026474975360930769 0.12696393274239337 -0.079874334175977668 0 -0.079874334175977668 0.063855968312435563 0 0 0 0.047704975263707317 0.0048661376286294328 -0.0029278999746137216 0 -0.0029278999746137216 0.014747442028678458 0 0 0 0.0049033949143269737 0.011648307348497811 -0.039931386295322557 0 -0.039931386295322557 0.011134356862575467 0 0 0 0.0056956660527682779 0.0093197725000540577 -0.037677761039631996 0 -0.037677761039631996 0.027180989040918924 0 0 0 0.0091251903852432315 0.011998025953489387 -0.0073738620161203231 0 -0.0073738620161203231 0.036165434618737856 0 0 0 0.012040865143056814 0.041797604267219124 -0.026106258114579006 0 -0.026106258114579006 0.036025103291327243 0 0 0 0.019455676889636675 0.01614148595031796 -0.0099111449948499249 0 -0.0099111449948499249 0.04861300501276334 0 0 0 0.016188622740770327 0.0048791436619142758 -0.021739821947429183 0 -0.021739821947429183 0.033925230256196537 0 0 0 0.0097010934795276893 -0.0022553937842679783 -0.036703458524527444 0 -0.036703458524527444 0.027578921545011514 0 0 0 0.0063308819401859395 -0.086149891598044287 -0.023692398141364673 0 -0.023692398141364673 0.019494861559652743 0 0 0 -0.016663757509597865 -0.10135729682437883 -0.026047270062765311 0 -0.026047270062765311 0.03478406604737394 0 0 0 -0.016643307694251208 -0.082015410469644834 -0.021963764607225544 0 -0.021963764607225544 0.030210752174870958 0 0 0 -0.012951164573693441 -0.13115847121854662 -0.027503599734307424 0 -0.027503599734307424 0.021849305842508104 0 0 0 -0.02732729134400963 -0.086227846644932049 -0.013478029723118318 0 -0.013478029723118318 0.044936568036604729 0 0 0 -0.010322819652081844 -0.095313831910561406 -0.0092375546525546026 0 -0.0092375546525546026 0.01186229663838162 0 0 0 -0.02086288381804495 -0.12056735871106254 -0.020622773570951131 0 -0.020622773570951131 0.13123711983613817 0 0 0 0.0026674402812688902 -0.090021527448031186 -0.0012341546988730578 0 -0.0012341546988730578 0.046150693880357481 0 0 0 -0.010967708391918428 -0.077275359310992192 -0.016724125328017495 0 -0.016724125328017495 0.014873027517533888 0 0 0 -0.015600582948364583 -0.070149002940799982 -0.018229282780060301 0 -0.018229282780060301 0.04512531525840946 0 0 0 -0.0062559219205975958 -0.083283350262215991 -0.019878047032738308 0 -0.019878047032738308 0.042448664097416058 0 0 0 -0.010208671541199959 -0.0778387853829242 -0.02551887578319622 0 -0.02551887578319622 0.046351664521394387 0 0 0 -0.0078717802153824429 -0.075175044763061527 -0.022541815057541076 0 -0.022541815057541076 0.069289045289569542 0 0 0 -0.0014714998683730473 -0.06110112857988706 -0.036086206235971488 0 -0.036086206235971488 0.048966383396939372 0 0 0 -0.0030336862957369426 -0.05297908261195497 -0.037809065167096229 0 -0.037809065167096229 0.024224220945070457 0 0 0 -0.007188715416721194 -0.064588837770575724 -0.027259984054047726 0 -0.027259984054047726 0.023012524969915571 0 0 0 -0.010394078200164969 -0.060386328002738437 -0.031083831913437457 0 -0.031083831913437457 0.019214633311252338 0 0 0 -0.010292923672871546 -0.066953707778300189 -0.026267005024837781 0 -0.026267005024837781 0.0163982342256353 0 0 0 -0.012638868388166219 -0.063106989647626038 -0.031748471450403465 0 -0.031748471450403465 0.0047176875996343612 0 0 0 -0.014597325511997859 -0.075872954343596352 -0.028433972908353644 0 -0.028433972908353644 0.019839600236843391 0 0 0 -0.014008338526688299 -0.062423733491843991 -0.028543248243990266 0 -0.028543248243990266 0.0096272008300557488 0 0 0 -0.01319913316544713 -0.062908271275880792 -0.029563750126874233 0 -0.029563750126874233 0.0087861124177951444 0 0 0 -0.013530539714521353 -0.069901283402754977 -0.028955810210368083 0 -0.028955810210368083 0.013297188901921553 0 0 0 -0.01415102362520837 -0.05687700954035782 -0.029995064448756242 0 -0.029995064448756242 0.0015800656014770542 0 0 0 -0.013824235984720129 -0.058739819134492555 -0.027574378888016782 0 -0.027574378888016782 0.00656560857002364 0 0 0 -0.01304355264111734 -0.058738492836912515 -0.0275730624304589 0 -0.0275730624304589 0.017259842776950307 0 0 0 -0.010369662514990496 -0.051457825473284924 -0.031390008243141365 0 -0.031390008243141365 -0.0028189051675414634 0 0 0 -0.013569182660206625 -0.054659375107588615 -0.031786128362120011 0 -0.031786128362120011 0.0074849123251583549 0 0 0 -0.011793615695607551 -0.056706214680508515 -0.030885216860945974 0 -0.030885216860945974 0.0022585494302680975 0 0 0 -0.013611916312560118 -0.050494911211621786 -0.028554302328655912 0 -0.028554302328655912 -0.0048659537994739654 0 0 0 -0.013840216252773964 -0.048001101083469888 -0.029990069607593928 0 -0.029990069607593928 -0.0018913270456673015 0 0 0 -0.012473107032284325 -0.046092596539818065 -0.021360598126454855 0 -0.021360598126454855 -0.012822467328856391 0 0 0 -0.0147287659671686 -0.050132777493325009 -0.02411801221260973 0 -0.02411801221260973 -0.0060532271903642743 0 0 0 -0.014046501170922376 -0.044138165831511381 -0.022601115476721889 0 -0.022601115476721889 -0.0081793401254643266 0 0 0 -0.01307937648924375 -0.055674994144643233 -0.02234036345633611 0 -0.02234036345633611 0.018521710737224972 0 0 0 -0.0092883208518545618 -0.049655956925746148 -0.022734618047447586 0 -0.022734618047447586 0.0034210851552773924 0 0 0 -0.011558717942617147 -0.055556079990964118 -0.024944982645726088 0 -0.024944982645726088 0.0064845219867722681 0 0 0 -0.012267889501048006 -0.049161413104231277 -0.01744917339274682 0 -0.01744917339274682 0.00085411754744380008 0 0 0 -0.012076823889196842 -0.052704058197744708 -0.018213573523761142 0 -0.018213573523761142 0.01578478875695799 0 0 0 -0.0092298173601966793 -0.042649275845477397 -0.015094161942478465 0 -0.015094161942478465 0.020870061830923659 0 0 0 -0.0054448035036384068 -0.04562080423486331 -0.017712115435065179 0 -0.017712115435065179 0.039753636501902223 0 0 0 -0.0014667919332404522 -0.05615392784813239 -0.021970606310220631 0 -0.021970606310220631 0.032471424957077444 0 0 0 -0.0059206257227635839 -0.054051327125109239 -0.021308028790375882 0 -0.021308028790375882 0.029159343671249505 0 0 0 -0.0062229958634650306 -0.048273919726396886 -0.015304844469435808 0 -0.015304844469435808 0.056981284615100325 0 0 0 0.0021768412221758737 -0.021375581745758265 -0.019544186662526775 0 -0.019544186662526775 0.055366836611183912 0 0 0 0.0084978137163564393 0.02374019210176628 -0.012077660193329006 0 -0.012077660193329006 0.071372659451700002 0 0 0 0.023778212888366568 -0.041142858695453532 -0.016450744990563065 0 -0.016450744990563065 0.056920105269707699 0 0 0 0.003944311643563625 -0.025522424586132075 -0.02355575430209611 0 -0.02355575430209611 0.060791608210386761 0 0 0 0.0088172959060637268 -0.018707448267951177 -0.022024094813331896 0 -0.022024094813331896 0.052023012118474821 0 0 0 0.0083288909626309526 -0.013436981568359263 -0.018844813904022706 0 -0.018844813904022706 0.047770691512652785 0 0 0 0.008583427486073214 -0.068088256917757162 -0.020168884720883296 0 -0.020168884720883296 0.047980750395946625 0 0 0 -0.0050268766304525925 0.019919370851619017 -0.011375639148688567 0 -0.011375639148688567 0.059931087613101397 0 0 0 0.0199626146161801 -0.0092892955539570776 -0.020205029873926361 0 -0.020205029873926361 0.043698696258338776 0 0 0 0.0086023501760953414 -0.017762595451181029 -0.032600095321203226 0 -0.032600095321203226 0.029172453210219329 0 0 0 0.0028524644397595611 0.0018687150513747031 -0.019482855319882253 0 -0.019482855319882253 0.040579735118470461 0 0 0 0.010612112542461416 -0.078338614246752453 -0.022727896633416511 0 -0.022727896633416511 0.035041768509335935 0 0 0 -0.010824211434354272 -0.06966792282539136 -0.029185481860856954 0 -0.029185481860856954 0.019891546817875416 0 0 0 -0.012444094001878986 -0.070348147916062254 -0.026755386909663226 0 -0.026755386909663226 0.021840557166962538 0 0 0 -0.012126897687274929 -0.060121642416656657 -0.020829095678588899 0 -0.020829095678588899 0.040564338662473332 0 0 0 -0.0048893259385458243 
</DataArray>
<DataArray type="Float64" Name="cross_section_updated" format="ascii">
1 1 1 1 1 1 1 1 1 1 1 1 1 1 1 1 1 1 1 1 1 1 1 1 1 1 1 1 1 1 1 1 1 1 1 1 1 1 1 1 1 1 1 1 1 1 1 1 1 1 1 1 1 1 1 1 1 1 1 1 1 1 1 1 1 1 1 1 1 1 1 1 1 1 1 1 1 1 1 1 1 1 1 1 1 1 1 1 1 1 1 1 1 1 1 1 1 1 1 1 1 1 1 1 1 1 1 1 1 1 1 1 1 1 1 1 1 1 1 1 1 1 1 1 1 1 1 1 1 1 1 1 1 1 1 1 1 1 1 1 1 1 1 1 1 1 1 1 1 1 1 1 1 1 1 1 1 1 1 1 1 1 1 1 1 1 1 1 1 1 1 1 1 1 1 1 1 1 1 1 1 1 1 1 1 1 1 1 1 1 1 1 1 1 1 1 1 1 1 1 1 1 1 1 1 1 1 1 1 1 1 1 1 1 1 1 1 1 1 1 1 1 1 1 1 1 1 1 1 1 1 1 1 1 1 1 1 1 1 1 1 1 1 1 1 1 1 1 1 1 1 1 1 1 1 1 1 1 1 1 1 1 1 1 1 1 1 1 1 1 1 1 1 1 1 1 1 1 1 1 1 1 1 1 1 1 1 1 1 1 1 1 1 1 1 1 1 1 1 1 1 1 1 1 1 1 1 1 1 1 1 1 1 1 1 1 1 1 1 1 1 1 1 1 1 1 1 1 1 1 1 1 1 1 1 1 1 1 1 1 1 1 1 1 1 1 1 1 1 1 1 1 1 1 1 1 1 1 1 1 1 1 1 1 1 1 1 1 1 1 1 1 1 1 1 1 1 1 1 1 1 1 1 1 1 1 1 1 1 1 1 1 1 1 1 1 1 1 1 1 1 1 1 1 1 1 1 1 1 1 1 1 1 1 1 1 1 1 1 1 1 1 1 1 1 1 1 1 1 1 1 1 1 1 1 1 1 1 1 1 1 1 1 1 1 1 1 1 1 1 1 1 1 1 1 1 1 1 1 1 1 1 1 1 1 1 1 1 1 1 1 1 1 1 1 1 1 1 1 1 1 1 1 1 1 1 1 1 1 1 1 1 1 1 1 1 1 1 1 1 1 1 1 1 1 1 1 1 1 1 1 1 1 1 1 1 1 1 1 1 1 1 1 1 1 1 1 1 1 1 1 1 1 1 1 1 1 1 0.0020428259066887144 1 1 0.0021100774582386334 1 1 0.0021545412632017319 1 1 1 1 1 1 1 1 1 1 1 1 1 0.0021935569431825977 1 1 1 1 1 0.002231040198007803 1 1 1 1 1 1 1 1 1 1 1 1 1 1 1 1 1 1 1 1 1 1 1 1 1 1 1 1 1 1 1 1 1 1 1 1 1 1 1 1 1 1 1 1 1 1 1 1 1 1 1 1 1 1 1 1 1 1 1 1 1 1 1 1 1 1 1 1 1 1 1 1 1 1 1 1 1 1 1 1 1 1 1 1 1 1 1 1 1 1 1 1 1 1 1 1 1 1 1 1 1 1 1 1 1 1 1 1 1 1 1 1 1 1 1 1 1 1 1 1 1 1 1 1 1 1 1 1 1 1 1 1 1 1 1 1 1 1 1 1 1 1 1 1 1 1 1 1 1 1 1 1 1 1 1 1 1 1 1 1 1 1 1 1 1 1 1 1 0.0022676069128633042 1 1 1 0.0023037420402400961 1 1 0.0023386596942591149 1 1 1 1 1 1 1 1 1 1 1 0.0023723914753442563 1 1 1 1 0.0024038748505871019 1 1 1 1 1 1 1 1 1 1 1 1 1 1 1 1 1 1 1 1 1 1 1 1 1 1 1 1 1 1 1 1 1 1 1 1 1 1 1 1 1 1 1 1 1 1 1 1 1 1 1 1 1 1 1 1 1 1 0.0010696872946001771 1 1 1 1 1 1 1 1 1 1 1 1 1 1 0.0010917014264879173 1 1 0.0010806499240537245 1 0.0011027395115021535 1 1 1 1 1 1 1 1 1 1 1 1 1 0.0011125672108732287 1 1 1 1 1 1 1 1 1 1 1 1 1 1 1 1 1 1 1 1 1 1 1 1 1 1 1 1 1 1 1 1 1 1 1 1 1 1 1 1 1 1 1 1 1 1 1 1 1 1 1 1 1 1 1 1 1 1 1 1 1 1 1 1 1 1 1 1 1 1 1 1 1 1 1 1 1 1 1 1 1 1 1 1 1 1 1 1 1 1 1 1 1 1 1 1 1 1 1 1 1 1 1 1 1 1 1 1 1 1 1 1 1 1 1 1 1 1 1 1 1 1 1 1 1 1 1 1 1 1 1 1 1 1 1 1 0.0010123050588929394 1 1 0.0010301557118446013 1 0.0010405304778399913 1 1 1 1 1 1 1 1 1 1 1 1 1 1 1 1 1 1 1 1 1 1 1 1 1 1 1 1 1 1 1 1 1 1 1 1 1 1 1 1 1 1 1 1 1 1 1 0.0010594930582041669 1 1 1 1 1 0.0010499605912461516 1 1 1 1 1 1 1 
</DataArray>
<DataArray type="Float64" Name="displacement_divergence" format="ascii">
-0.00012720649992287888 -0.00012811923745336212 -0.00010365902887964217 -0.00010762235983004779 -0.00010026329846401544 -0.00010021986441960455 -9.0129674832082268e-05 -9.9232205842697448e-05 -9.3373795359016876e-05 -8.0777452610701443e-05 -9.1670581849355204e-05 -7.5351317656111136e-05 -9.0363886859085954e-05 -8.3660938564196206e-05 -9.2534457339013969e-05 -9.2267738646181372e-05 -8.8875209275066845e-05 -9.9478459969825831e-05 -7.2146467864993381e-05 -7.1600626802272499e-05 -7.4988622955295253e-05 -8.1096189491884082e-05 -8.2710888010314491e-05 -7.4308568778844668e-05 -8.1155620495949033e-05 -7.762900993401597e-05 -7.9101839843382569e-05 -8.0130433834336504e-05 -6.9791987884573281e-05 -6.8162516279974015e-05 -6.5530870772790087e-05 -6.6101131753073142e-05 -6.107852436587986e-05 -6.1706755622266928e-05 -6.5840260211986689e-05 -7.4958132171152532e-05 -7.4458344091386553e-05 -6.7255712161930385e-05 -7.1987388528022079e-05 -7.4359149947409657e-05 -6.5694075420114908e-05 -6.204496614578488e-05 -6.4390315591124114e-05 -5.922543851169047e-05 -6.4389762039917004e-05 -6.0018345273117626e-05 -5.1675647208544539e-05 -5.7089563610120341e-05 -8.9443998990414159e-05 -8.5341727055989532e-05 -9.5113995470961571e-05 -8.8542591961591148e-05 -8.0144380700590786e-05 -8.4650422426931824e-05 -8.2492804301861639e-05 -8.3362859021424271e-05 -7.3170010662677615e-05 -8.3345717239178418e-05 -7.3929325261885761e-05 -8.0831373347786618e-05 -8.8928902566122155e-05 -8.9720717246606537e-05 -8.7770868125623235e-05 -9.8487750995511459e-05 -0.00010027954891902565 -8.7624484561695659e-05 -9.0907972883328737e-05 -0.00010533697034830841 -9.09729197030104e-05 -8.8009203994746175e-05 -9.2310403752488652e-05 -0.00011120328034047613 -6.8346405512309766e-05 -6.900804495120148e-05 -8.127347914116444e-05 -7.8890847110068424e-05 -7.1450675281386881e-05 -8.6824124488129163e-05 -8.1108466150559623e-05 -8.0869478755994119e-05 -7.3117604481371762e-05 -6.3994305618025988e-05 -6.3922814424229773e-05 -5.8596653330437282e-05 -5.6425897008747719e-05 -7.0767298177955236e-05 -5.1162379016996156e-05 -5.4627541254257848e-05 -5.2629460211354323e-05 -4.1426586092551965e-05 -4.6009071879783063e-05 -4.592680637328792e-05 -3.53260820055903e-05 -3.1471659284754757e-05 -6.1006167663006422e-05 -6.2601032298265807e-05 -4.961681735677156e-05 -4.9271871441494957e-05 -5.5192480165816961e-05 -5.7991126956930341e-05 -4.0722856291586229e-05 -5.2439129468476342e-05 -1.590727385816879e-05 -4.2391691278852284e-05 -3.1193146800312247e-05 -2.2166942166271166e-05 -9.0871158636063505e-06 -1.1445593670092019e-05 -1.3135884350779078e-05 -1.1973379368869735e-05 1.8248207668149176e-05 -3.8030103573282207e-05 -3.2924294707649599e-05 -2.8422917252935017e-05 -5.2575386538733222e-05 -4.7681604458327297e-05 -6.3276275214134382e-05 -7.6397117969302154e-05 -7.2671957098985091e-05 -8.7189000695965253e-05 -0.00010496581826152445 -9.1867561400299925e-05 -8.7105994072794594e-05 -9.492216455531669e-05 -8.7595066649453091e-05 -0.00011155011855239802 -9.5881460048113969e-05 -7.7325781358758019e-05 -6.505568412147779e-05 -7.482102269516875e-05 -5.6548298760997076e-06 -1.2972382418288073e-05 -1.5831266374190464e-05 -1.6972121376876539e-05 -1.1245925492093252e-05 -1.8734440142636538e-07 -8.3054859841166469e-06 -1.0490882450069983e-05 -8.7951210770519214e-06 -1.2285410406029129e-05 -1.7438886578004741e-05 -9.7220986212710476e-06 -1.20347921729925e-05 -6.350694436622076e-06 -1.375076501165882e-06 6.5725389339788055e-05 -6.4616249221557487e-06 2.4304640253410296e-05 -1.2413110111023074e-05 5.9886156494586484e-05 2.3433452720111403e-05 5.485110729735608e-05 8.5572314113649709e-06 5.3910946326111986e-06 1.2857246669593187e-05 -1.1151611505061345e-05 -1.5412910263697772e-05 -3.7867374719220248e-06 -1.4843630299237343e-05 1.9260834358795923e-06 -2.5855232908749391e-05 -9.212306079943867e-06 -1.9274871433032944e-05 -2.3693815210479205e-05 -2.8082686908582498e-05 -2.2967311701441336e-05 -2.714631921563491e-05 -2.7420124919385307e-05 -3.6381357844845494e-05 -3.5040372978716227e-05 -3.8205945052323945e-05 -4.4010596971916643e-05 -4.5948601601441462e-05 -3.2006818964127042e-05 -3.1503546984589539e-05 -3.4084776954004701e-05 -3.6968001329217189e-05 -2.9363396832043039e-05 -3.2872738383376163e-05 -2.4952417929703832e-05 -2.9832780444819032e-05 -2.8396649608287752e-05 -2.0319155301869692e-05 -2.7924872184044936e-05 -1.3368378708105048e-05 -1.9345083816448518e-05 -2.3639162629106547e-05 -8.7511545979367826e-06 -2.3006359084525057e-05 3.2715378330560755e-06 -1.8990608481192867e-05 -4.9972303231966109e-06 -1.9879164899299613e-05 -1.2081282072327049e-05 -8.2571709903031433e-06 -2.303418486556261e-05 -1.7811889209561672e-05 -1.9967446145290346e-05 -2.5922682748373097e-05 -3.5921718460074166e-05 -2.8142782149689714e-05 -2.9053640085024427e-05 -3.4401013041680872e-05 -3.7335309389443096e-05 -3.4547349739272292e-05 -3.0328961731113375e-05 -3.8895491451658678e-05 -3.8482721947256041e-05 -4.3098106375881261e-05 -3.7199196932016051e-05 -4.0344244682636035e-05 -3.3313942555476876e-05 -3.7645706849583717e-05 -3.2892345114648003e-05 -4.661222346569016e-05 -4.6828257649658302e-05 -5.0952360180087987e-05 -4.6625674681384283e-05 -4.1345435949482871e-05 -3.9651244219361026e-05 -4.0351091891684048e-05 -3.6773046360216781e-05 -4.2702721163411647e-05 -4.4931547807162649e-05 -4.3670808184077448e-05 -4.4469172214282288e-05 -4.8861314628702512e-05 -5.4461901117234426e-05 -5.505550851859602e-05 -5.3537898541681746e-05 -5.8045567046867582e-05 -5.8690696371093828e-05 -6.1156034538757253e-05 -6.0208280684353496e-05 -5.1642646382430793e-05 -5.7667490640939479e-05 -5.1544893150529975e-05 -5.1705999929310455e-05 -4.8029129611185185e-05 -4.633443121682907e-05 -5.0951435667826719e-05 -5.1168371697445943e-05 -5.4956934932410259e-05 -5.6992323146399856e-05 -6.3119597467607848e-05 -6.407288826784317e-05 -4.165913566094722e-05 -3.77089720424004e-05 -4.1296850441086862e-05 -4.2089837224392878e-05 -4.5664800330206914e-05 -4.398480764927762e-05 -4.7905679473837455e-05 -4.6446231046973758e-05 -4.3676255201666643e-05 -4.2745371246126266e-05 -4.0630541865832832e-05 -4.1866010108083589e-05 -4.3417404761811099e-05 -4.0822868862681885e-05 -4.1534583681284002e-05 -3.808213311479522e-05 -4.3248298853730327e-05 -4.0005303671846045e-05 -3.9189597927701269e-05 -3.9887961127389047e-05 -4.1570789254965118e-05 -3.8698442493484773e-05 -3.9101114850239051e-05 -4.1755955250693483e-05 -4.5968793084668485e-05 -4.2008911357179598e-05 -4.3356126979875572e-05 -3.938214563652218e-05 -4.1350846919563264e-05 -4.4721472723053391e-05 -4.8868085986797232e-05 -4.6448770631670348e-05 -5.1775618717359185e-05 -6.1839341560376311e-05 -6.084890009416825e-05 -7.154831573052148e-05 -6.3790759289995635e-05 -6.0613078933402075e-05 -5.5685640577893809e-05 -6.5932788618124476e-05 -5.3581960859245963e-05 -4.8840540042022413e-05 -4.4326333793435108e-05 -4.5224076715015375e-05 -4.3410651665385987e-05 -3.6542360132302889e-05 -5.1603709086426729e-05 -5.7630654164588996e-05 -5.4258837079256633e-05 -4.9255151852008204e-05 -6.3356163034146114e-05 -5.0943622462215354e-05 -4.4593736539434631e-05 -4.526718407476428e-05 -2.9577249215756354e-05 -4.044126374155182e-05 -4.077729869509518e-05 -3.6002101488620119e-05 -3.8178925899734683e-05 -3.0777509313280224e-05 -1.8176998500970081e-05 -2.4124194544542136e-05 -2.1989845207545475e-05 -3.1652547734337786e-05 -2.6502925235232605e-05 -1.7346565030138373e-05 -2.7621950233083088e-05 -1.9621950150306159e-05 -2.8917568371738385e-05 -3.2852607460012599e-05 -3.2919937433667666e-05 -3.2236373633099592e-05 -3.7552268050375565e-05 -3.6129071196409187e-05 -3.7875058283122265e-05 -3.8710032412567537e-05 -4.1223284234912342e-05 -3.3658528354149056e-05 -3.4663529801404716e-05 -0.00013148902658355549 -0.00012901336189522907 -0.00012216161117056966 -0.00011454240944104319 -0.00012740425660879662 -0.00015508771952960711 -0.00015923765704218756 -0.00013502475541412966 -0.00012568228029792813 -0.00011404645623511121 -0.00012645732884549065 -0.00012640158322871554 -0.00011876627911883275 -9.8968299396301511e-05 -0.00010719999013282115 -0.00012510779026246173 -9.2617030050310233e-05 -0.00012042751416095958 -9.7347071675051272e-05 -9.8089547795378884e-05 -9.5858861193930366e-05 -9.8235831906563545e-05 -0.00010063484316452149 -9.3272102134157506e-05 -8.7150680555913833e-05 -8.5340993279371072e-05 -8.3287102153951507e-05 -7.6881051368752254e-05 -6.9688816361995637e-05 -7.4007610516768581e-05 -7.7489799071180849e-05 -8.0155804483122284e-05 -6.9238643932173551e-05 -6.225389228253417e-05 -7.7302949444093983e-05 -6.0814283479451126e-05 -6.8422162394910863e-05 -7.7895331609030747e-05 -5.9507282459954079e-05 -7.409118026218584e-05 -6.7824512632909476e-05 -9.7360436110370584e-05 -9.6017261031212676e-05 -9.2432053077802446e-05 -7.6033888767635004e-05 -9.2312466844011453e-05 -0.00011136969756414181 -0.00010109983566018333 -0.00011525932016992286 -0.00010470040344405797 -0.00011416592275749181 -9.1858066231355416e-05 -0.00010788183083226065 -0.00013701612974264613 -0.00013914876323171201 -0.00015353664175596094 -0.00012910745485975717 -0.00014037283964427323 -0.00011592064924112981 -0.00013185727949602228 -0.00011707350277468898 -0.00015272046851192323 -0.0001993526087954899 -0.00014615762468027835 -0.0001452372034195427 -0.00018035732335353971 -0.00016581994318379118 -0.00013285518903457481 -0.00014260513726098954 -0.00013777477186450261 -0.00010719856098531598 -0.00011138393487436988 -0.00010104616140378082 -0.00010159272681246521 -0.00012064791087816379 -0.00010397837827448494 -6.3976940691132559e-05 -4.5808992116597798e-05 -4.560418100998988e-05 -8.9903917204700194e-05 -7.4119228794345367e-05 -9.8332044782037446e-05 -8.3619501507649184e-05 -7.7754073725714215e-05 -5.7545577068664493e-05 -7.3364830944746358e-05 -5.7661503177153063e-05 -3.5621630581113303e-05 -5.0011415532679764e-05 -3.021617981517185e-05 -5.1195179413791075e-05 -3.110005800482376e-05 -7.4284846221733076e-06 -3.7983654025141775e-05 -1.0557473328029672e-05 -4.6881146985221439e-06 3.8116483900054344e-05 3.4260318372622794e-05 -1.3563321367633939e-05 -2.0728744344801855e-05 4.5220418604463813e-05 0.00011682767586698446 9.5066266237365935e-05 0.00011372647274590988 5.3241728312719474e-05 1.7439258162851482e-05 3.3366881659412095e-05 1.4898530229442986e-05 -3.3444584553307764e-05 -3.6853821062794029e-05 -5.5742015244648977e-05 -7.3133767508140883e-05 -7.3644292183597942e-06 -7.0161109857755157e-05 -0.0001145661517353029 -0.00011711079801904204 -8.7185914533192922e-05 -9.7027894465725437e-05 -8.7220471800619564e-05 -0.00012220005767130896 -9.3306527641274942e-05 -0.00011997125262858555 -0.00014388408977092089 -0.00014622943170498415 -0.00019024105276318906 -0.00015998817870602872 -0.00020271201098161153 -0.00016600593458203033 -0.00013996501468243759 -0.00016031966553995802 6.4415190167346347e-06 1.7653300387327061e-05 1.8892467792676992e-05 1.6097150527337358e-05 9.7055875598725644e-06 -5.4751712949171469e-06 -1.1690798062392504e-05 4.815032756503741e-06 -1.8336017423953809e-05 -7.2929180355730648e-06 -2.6327813014720306e-05 -9.110154086664046e-06 -2.0617783256630632e-05 -8.5091484584310438e-06 -3.8817344157825547e-06 -1.3291313627081084e-05 -1.7586042599533487e-05 -2.7662401279029354e-05 -6.5712884776596224e-06 -1.2614103756217131e-05 2.2360415622463714e-06 -2.8774957016342075e-05 -1.6427117537842791e-05 -2.5530471214055739e-06 1.3706164418942105e-05 3.5919082484434247e-05 9.3556045750444133e-06 1.7218205250016707e-05 1.9928270665213342e-05 3.7478837793990293e-05 5.5849228575834381e-05 8.427258821726695e-05 9.7838075860058192e-05 8.1912385240594048e-05 6.1248778634814198e-05 7.3993937808736979e-05 0.00010456977555432334 9.8545046899266276e-05 0.00021939096076603907 0.00029093105082478256 0.00027526040861169238 0.00016380629318230494 5.4858155935096008e-05 9.5820069228874844e-05 0.00014435737044853395 5.501296600479091e-05 6.4011700210863922e-05 6.9658177887144972e-05 2.7654912675714413e-05 5.5438171960806306e-05 1.1072439685285209e-05 3.6427468023008283e-05 8.5735181488763991e-06 4.074600199136632e-05 -3.8199652162295729e-06 1.5276951264814824e-05 2.2546935718837755e-05 9.0576079564007575e-06 -1.6721122482367406e-06 3.5272146934539199e-05 4.444066257630025e-06 -8.8891009035597479e-06 1.3195318387945381e-05 -1.5521681395240365e-05 -2.563857552021012e-05 -7.9739557234472002e-06 -3.5934339655475632e-06 -3.0251051431851147e-05 8.4777923011955785e-07 -1.670520086453068e-05 -7.8229504108380771e-06 3.5144428615107789e-05 1.9987246238748206e-05 1.7033513847998264e-05 2.5499065961089788e-05 5.8454281356074296e-05 6.4777642017379059e-05 9.5674880217132166e-05 0.00031544810475844245 -1.4800218135938275e-05 8.8611078628595696e-05 0.0002850172789998686 0.00014811727264662096 0.021501253519744797 0.00024699109032895743 9.9715818851790116e-05 0.054999215953443245 -1.7591720095036105e-05 7.8635923637544996e-05 0.07722521507894195 -2.44336913796621e-06 3.9094210393776554e-05 -1.3793921202707603e-05 9.0013230216022685e-06 5.7930180974404065e-06 2.2458179468889071e-06 -6.8325493066081935e-06 2.4332847764675419e-05 2.1595346353154123e-05 8.1573373368538276e-06 3.751161344523737e-05 7.0263555501023532e-05 7.6654978072221089e-05 0.096725513971533644 6.1717134486498522e-05 7.0645012209372116e-05 5.0223408589718764e-05 6.5509021422898231e-05 4.5482654239472286e-05 0.11546102621086107 7.4120569875559721e-05 1.2352642260791676e-05 -3.6719862820154894e-06 3.9909112996802101e-05 2.3985419813053808e-05 1.9392557144001202e-05 -1.3321755901629935e-05 -5.1312628344657961e-06 -4.1362847731261573e-06 -2.681542934934045e-05 -1.9636484863189596e-05 -2.941947844487783e-05 -2.9989738477331329e-05 -3.2107956171011369e-05 -2.5831429045378818e-05 -2.3461562659442053e-05 -3.5127155326090129e-05 -2.3217749078912849e-05 -2.655457474789449e-05 -2.4635589187706176e-05 -1.8710656152370707e-05 -1.0953612148514206e-05 -0.00011831149593488524 -0.000117464812124025 -8.9361525987644973e-05 -0.00015626370046243395 -0.00016684304305556743 -0.00012700689154469726 -0.00012148745964857071 -8.9480129537166872e-05 -7.2410502046580923e-05 -3.9214752682320856e-05 -8.3933297712457996e-05 -5.7542260226370562e-05 -9.4414387209303813e-05 -6.5583892986770763e-05 -4.1220660463898865e-06 -3.3429729722918126e-05 2.9981673153791277e-05 -2.9862177630204023e-05 -6.8321242879725973e-05 -5.6138477547763334e-06 -1.7375735480094228e-05 6.1737969245668611e-05 0.00012949191434424205 7.4902220379009267e-05 7.9333349767628984e-05 1.8547866526064279e-05 3.5370637062516735e-05 5.6228468407182146e-05 3.673012961345366e-06 -5.9834201195014571e-06 3.2142597506242161e-05 2.3246911391536663e-05 3.5756205186170207e-05 1.2370030814660548e-05 3.4375988610599317e-06 -6.4720517899690029e-06 -2.0809544678153976e-05 -1.7741387297458798e-05 -2.7745783521922716e-05 -4.6588650023648807e-05 -2.3742329219153448e-05 -1.4156222616221008e-05 -4.3767383131082527e-05 -4.3776776116164103e-05 -7.24421886849143e-05 -6.2788212801165397e-05 -6.4893926803870523e-05 -6.3592478983647135e-05 -4.0544406930180521e-05 -3.7234321939734016e-05 -3.8655283891606256e-05 -6.2006718832606587e-05 -5.5300983267922259e-05 -5.9573768671479163e-05 -4.3403994315094688e-05 -6.5905474969010953e-05 -9.0455065419008454e-05 -9.0980516772907723e-05 -8.3536069214005127e-05 -7.7507035777895337e-06 -2.8038021079593994e-05 -1.6437132405002983e-05 -1.2851729658950803e-05 -3.154435570533725e-05 -3.6763481280758722e-05 -5.6275388930783141e-05 -3.8871336117828233e-05 -3.7672329457559203e-05 -3.0063360657567491e-05 -4.136759260771946e-05 -2.8661908703263815e-05 -2.4312933640217513e-05 -2.701307959560896e-05 -9.8123988285028774e-06 -1.0033146116228062e-05 -2.4698441873716517e-06 -4.2531902824764767e-06 -1.9303793452918848e-05 -2.7770989348013982e-05 -1.8944655701220005e-05 -2.759123022281942e-05 -8.4767884172339968e-06 -1.3368118654320457e-05 1.0151440011002262e-05 1.8461249932321365e-05 -5.6370079054221534e-06 1.1849448217988306e-05 5.0471477591766331e-05 2.103214225472258e-05 3.8808839892049557e-05 7.4784549358589483e-06 2.7347431741418272e-05 4.1913266936214645e-05 4.448285656265781e-05 4.2026529669941771e-05 4.7033982010688188e-05 7.1576448534825879e-05 6.8227208579721768e-05 6.0460655779003617e-05 3.9921575276047339e-05 9.7529144711212476e-06 1.9551321378532757e-05 3.29791318538393e-05 -2.4930041950719205e-06 1.5318391115752908e-05 7.6068810829178421e-06 3.4406638558118555e-06 -1.6671270890055399e-05 -1.8999285883376229e-05 -6.2873540557740679e-06 -3.5413636522057049e-06 -1.7530188081600617e-06 1.2410854926375378e-05 6.7144326093512557e-06 5.8474655927369043e-06 2.693734298979053e-07 -2.2121368186012874e-06 5.6792517408466719e-06 2.0544857483777504e-06 2.762603788975318e-06 1.4906398539012416e-06 5.3780041994223871e-07 -6.8818896122244122e-06 -8.1085228590561248e-06 -1.1649574626756412e-05 1.683591283112686e-05 5.1573241002282003e-06 -1.1989228714128118e-06 -2.1204369569840804e-05 -2.1057343001942006e-05 -2.719775439825932e-05 -2.9107686973276013e-05 -2.9262038524646965e-05 -3.350509627768618e-05 -1.9108972595815728e-05 -2.0408559133958614e-05 -1.5641117627969588e-05 8.5776373375070526e-06 -4.800674453658187e-06 3.2136108154478421e-05 6.1872007109985919e-05 7.9012703383572031e-05 3.2909518422728594e-05 5.1325066827928242e-05 8.2267187033830715e-05 6.5243727463276289e-05 0.13373857171593667 3.7194197510405109e-05 8.7235806532156776e-05 8.0414526754484005e-05 0.15180581096752752 8.1295039822643447e-05 7.5872587633421355e-05 0.16923264647874081 7.392166131314163e-05 4.6688225078410904e-05 9.3391528894101652e-05 3.701369793587643e-05 4.3884501850185867e-05 6.3539809251713563e-05 4.3105734470127825e-05 9.5964177730620726e-05 0.00010864332373089415 6.4294156833036688e-05 9.9797836151782789e-05 0.18621474640194308 0.00011226739080325249 9.6865847169703111e-05 0.00010228635903163086 9.8908788015555568e-05 0.20150392942281897 0.00011390049993427638 0.000114627154068303 4.729973330156519e-05 0.00012407377055389883 0.0001172861553725953 0.00011262948535302009 4.6908755837947588e-05 1.0110326160652655e-05 4.5721161928305052e-05 1.9682928029440854e-05 2.8127881234758177e-05 1.7305534445652675e-06 -1.1981148433928227e-05 1.0699017321380306e-05 1.6251473926771854e-05 -2.5635323855316677e-05 -9.8346688522036904e-06 -1.2617203939302001e-05 1.3517074546321155e-06 -1.100887330950269e-05 1.0986724803395843e-06 1.7743971944590388e-06 -6.8645797997590741e-06 -2.2454555843164915e-06 -7.4789133871908586e-06 -1.1849758536014682e-05 -1.4370640003988269e-05 1.4125991236926673e-05 2.4551134537237947e-06 -3.3538098721419985e-06 9.1300574960647557e-06 -1.1727297431810631e-05 -2.0859265910936091e-05 -2.3216189594122685e-08 -2.8577155938744564e-06 -2.350117279914239e-05 -7.9184719765186193e-06 -1.6737253963335563e-05 -2.8393815413049837e-05 -2.7765390014571328e-05 -3.1056732747359759e-05 -2.1704699440749237e-05 -2.2047631335893165e-05 -2.5900841505344715e-05 -1.6926712492225165e-05 -1.421188874544733e-05 5.4180835653209851e-06 -1.4197547393602966e-05 -2.3485311113920931e-05 -2.4320799842927551e-05 -3.474765728376432e-06 -2.6168647142468693e-05 -3.4330997084490011e-05 -3.2287319369417506e-05 -2.9438630403999495e-05 -3.2802439300772587e-05 -3.1429892836239539e-05 3.253053244622623e-05 0.069642449157981984 2.5113809809058571e-05 2.6185854852653801e-05 1.7345677186159894e-05 -1.1785838556731265e-05 -3.5438931477904841e-06 -6.7275769622709199e-06 3.2927277946275891e-05 1.8903336392856948e-05 1.9164911046840895e-05 9.8968542365763471e-06 5.060793443303999e-05 5.4104886573560574e-05 3.2455725824216512e-05 2.9269598221627312e-05 0.091656496382303138 4.3268513970614068e-05 2.5577213903652755e-05 0.080605293270617995 4.4547807327472919e-05 0.10271057112079714 6.4545493987131419e-05 4.4543012791071042e-05 4.9332887908742212e-05 1.9698915602157311e-05 3.0746429671510726e-05 6.0049506344997568e-05 3.2068539206069678e-05 1.7952588438115732e-05 6.8746743493780765e-05 6.5187207685340684e-05 5.774614748571756e-05 1.8611507039089726e-05 4.9748306389921205e-05 0.11248077224809266 6.1355056105907163e-05 5.9509947349410848e-05 3.432712022109069e-05 3.0404259398113824e-05 2.2866477122645504e-05 3.3614787027709016e-05 1.5982897015538993e-05 5.6085161729397225e-06 4.4402639150517911e-06 1.6244030404547189e-05 4.4290782050811044e-06 -2.0090200935989587e-06 -5.7751235346961086e-06 -6.9749977033369166e-06 1.3094250501119529e-05 1.6948263212332275e-05 1.7210144764097986e-05 9.8285270317506265e-07 1.6740279686630957e-06 1.2155408680305318e-06 3.464250253363936e-06 -2.6715998487107304e-06 -1.4624412267025613e-06 3.0173228035921401e-06 3.2209037905646986e-06 5.0542825140185677e-06 -5.5982795789341101e-06 -1.6644175031864557e-05 -1.5913568087970974e-05 -6.1328240222977178e-06 -3.587394779217554e-06 -6.089068849054525e-06 -6.9035073549513978e-06 -8.0235300827825873e-08 -1.0791816862602745e-05 -6.6698724670855025e-06 -1.2803913722951718e-05 -2.0457628692234974e-05 -2.3884284631674191e-05 -8.4557320891884107e-06 -1.645572788112502e-05 -2.0842861718535152e-05 -3.0218581011943283e-05 -3.1316334186447161e-05 -1.9931923358026916e-05 -2.5559734021328613e-05 -2.2770829002299615e-05 -3.4536961207666354e-05 -2.3195004249623816e-05 -2.9130123541702517e-05 -2.248113761372985e-05 -3.1770576486823097e-06 -9.983025812017321e-07 1.0590931958890694e-05 5.4792618549149956e-06 -9.8606340810988152e-06 -1.159632905270414e-05 -1.1156072866196163e-05 -1.512851949018925e-05 -1.6048448897485975e-05 -1.9321621577599382e-05 -2.0702854615960674e-05 -8.0072778030335946e-06 -5.0859439838521828e-06 9.8395637224721159e-06 4.6650625361828804e-06 7.2851081872400865e-06 -6.6381574280482449e-06 5.3465616569554e-07 -7.5626709446306034e-07 -1.3684856732157358e-05 -6.3990213357459184e-06 -1.6368605513306586e-05 -2.3315828330397644e-05 -3.0709331149215376e-05 -1.7091833712878143e-05 -2.2887708531911608e-05 -2.0513752747152694e-05 -3.163428175498458e-05 -2.7280531308147404e-05 -4.2479376444648671e-07 6.2663311202468871e-06 4.0527212066469691e-06 -1.5593607672989454e-05 -5.993344976838906e-06 -3.7556905507948359e-05 -5.6708999655161546e-05 -4.0955503459155892e-05 -4.1847230204398317e-05 -3.7040301576014498e-05 -3.6448517454489102e-05 -3.8552549645961848e-05 -2.9931265373536698e-05 -3.2775617801856193e-05 -3.555894016181926e-05 -4.0669561927514624e-05 -3.6605677300451421e-05 -4.9011143442790383e-05 -4.6027657985735692e-05 -4.7492796817780267e-05 -4.003570634168003e-05 -6.3768139639811504e-05 -5.8478893340527791e-05 -5.5336300661106268e-05 -9.0122659315563722e-05 -7.1973515196748243e-05 -7.292155230041546e-05 -5.8889425262511225e-05 -6.2257813152063069e-05 -4.5799744700413545e-05 -4.0892073601855351e-05 -3.6546365623384581e-05 -5.8897132441546041e-05 -5.3645238568726303e-05 -6.6931857703659615e-05 -6.1166804593644616e-05 -7.4233655744286933e-05 -7.7438965596710431e-05 -9.5064804286452498e-05 -1.1749018030805499e-05 2.4689318636160799e-05 -1.1324360666050901e-05 -1.9875920581930925e-05 -3.3526493862036204e-05 -2.9008988593568082e-05 -1.167758598937473e-05 -2.6683760342732896e-05 -5.2611889220341608e-05 -4.504002788271628e-05 -2.6389038606042768e-05 -3.1123322166565215e-06 -1.2070905302567162e-06 2.7820617402075877e-05 8.5363732300042954e-05 -6.6187438402326914e-05 0.00011926243815926839 0.012258487285817434 1.4239165131920708e-05 2.2812975963108165e-05 0.030102162857642032 4.8639192224091523e-05 0.040471556851925806 2.4252733698819362e-05 1.5827204850464875e-05 -4.1659393773994628e-05 -4.1608269235628094e-05 -3.237791143423385e-05 -6.8318228360024133e-05 -2.5807049130204766e-05 -5.215720954511235e-05 6.6686007031723014e-06 -2.7419270979795978e-05 -3.9001457370911396e-05 -1.5639804801494047e-05 -2.5521678852999965e-05 -1.9679450538456056e-05 -3.6787496709325409e-06 -7.5842157393422307e-06 -1.7971788541803002e-05 -2.5985195500412425e-05 -2.5732309182178927e-05 -3.1597170970415467e-05 -3.6493313779994871e-05 -3.5020846316720507e-05 -3.2997832913617576e-05 -3.382634928630364e-05 -3.5377559063020985e-05 -3.4560589961800164e-05 -3.2608881602793206e-05 -2.5924156287476373e-05 -3.392295665051654e-05 -2.9484039239019021e-05 -3.4029790781400305e-05 -3.4600540631935e-05 -3.1182767580710683e-05 -3.6821914917921513e-05 -3.5116252927305694e-05 -3.2698441223109512e-05 -2.3220802129636324e-05 -2.889679485654315e-05 -3.0669723752619997e-05 -3.0192059722992134e-05 -2.3074543400491802e-05 -1.3612008759096399e-05 -3.6669798331009831e-06 -1.4801564306909194e-05 -1.5557489658662386e-05 5.442103055439758e-06 2.1244534290890951e-05 0.059445532220916419 9.8607791089088889e-06 2.2043239765159785e-05 2.0822227406577061e-05 2.1458568715183261e-05 -1.256719157613159e-05 0.049906536540450255 2.1505875440238319e-05 7.1311610993990762e-06 2.6530281356153306e-05 -2.7060528585885499e-05 -3.111023500469747e-05 -3.0317244218187314e-05 -1.2223314846364591e-05 
</DataArray>
</CellData>
</Piece>
</UnstructuredGrid>
</VTKFile>
