<?xml version="1.0"?>
<VTKFile type="UnstructuredGrid" version="0.1" byte_order="LittleEndian">
<UnstructuredGrid>
<Piece NumberOfPoints="3142" NumberOfCells="1054">
<Points>
<DataArray type="Float64" NumberOfComponents="3" format="ascii">
0 0 0 0.049999999999899652 0 0 0.02576622439977887 0.024532886826226379 0 0 0 0 0.02576622439977887 0.024532886826226379 0 0 0.050000000000207989 0 0.049999999999899652 0 0 0.053064897599215843 0.048131547304697528 0 0.02576622439977887 0.024532886826226379 0 0 0.050000000000207989 0 0.02576622439977887 0.024532886826226379 0 0.053064897599215843 0.048131547304697528 0 0 0.10000000000041601 0 0 0.050000000000207989 0 0.044310582753132287 0.101412518374475 0 0 0.15000000000062411 0 0 0.10000000000041601 0 0.044310582753132287 0.101412518374475 0 0.083411279318303222 0.089699755330707398 0 0.044310582753132287 0.101412518374475 0 0.053064897599215843 0.048131547304697528 0 0 0.050000000000207989 0 0.053064897599215843 0.048131547304697528 0 0.044310582753132287 0.101412518374475 0 0.083411279318303222 0.089699755330707398 0 0.065374659239632718 0.1448908038746782 0 0.044310582753132287 0.101412518374475 0 0.083411279318303222 0.089699755330707398 0 0.1053400320299198 0.12877248826361379 0 0.065374659239632718 0.1448908038746782 0 0.083411279318303222 0.089699755330707398 0 0.12372429750337779 0.095814237875728972 0 0.1053400320299198 0.12877248826361379 0 0.14332333627550789 0.14578431753966009 0 0.1053400320299198 0.12877248826361379 0 0.12372429750337779 0.095814237875728972 0 0.14618258501891079 0.062070108745602003 0 0.12372429750337779 0.095814237875728972 0 0.10266856499169109 0.044518360900210059 0 0.083411279318303222 0.089699755330707398 0 0.10266856499169109 0.044518360900210059 0 0.12372429750337779 0.095814237875728972 0 0.099999999999814668 0 0 0.14999999999970359 0 0 0.10266856499169109 0.044518360900210059 0 0.049999999999899652 0 0 0.099999999999814668 0 0 0.053064897599215843 0.048131547304697528 0 0.099999999999814668 0 0 0.10266856499169109 0.044518360900210059 0 0.053064897599215843 0.048131547304697528 0 0.083411279318303222 0.089699755330707398 0 0.053064897599215843 0.048131547304697528 0 0.10266856499169109 0.044518360900210059 0 0 0.25000000000104028 0 0 0.20000000000083221 0 0.044081577119474857 0.2271058242433576 0 0 0.20000000000083221 0 0.038512288486115001 0.1844147282893184 0 0.044081577119474857 0.2271058242433576 0 0.083105206071467416 0.20007701332709979 0 0.044081577119474857 0.2271058242433576 0 0.038512288486115001 0.1844147282893184 0 0 0.15000000000062411 0 0.065374659239632718 0.1448908038746782 0 0.038512288486115001 0.1844147282893184 0 0 0.15000000000062411 0 0.044310582753132287 0.101412518374475 0 0.065374659239632718 0.1448908038746782 0 0.083105206071467416 0.20007701332709979 0 0.038512288486115001 0.1844147282893184 0 0.065374659239632718 0.1448908038746782 0 0 0.20000000000083221 0 0 0.15000000000062411 0 0.038512288486115001 0.1844147282893184 0 0.065374659239632718 0.1448908038746782 0 0.1053400320299198 0.12877248826361379 0 0.106902708054812 0.16453234188234539 0 0.14332333627550789 0.14578431753966009 0 0.106902708054812 0.16453234188234539 0 0.1053400320299198 0.12877248826361379 0 0.083105206071467416 0.20007701332709979 0 0.065374659239632718 0.1448908038746782 0 0.106902708054812 0.16453234188234539 0 0.083105206071467416 0.20007701332709979 0 0.13737030665753211 0.20313708640667491 0 0.095326043202144745 0.24554465089224409 0 0.083105206071467416 0.20007701332709979 0 0.106902708054812 0.16453234188234539 0 0.13737030665753211 0.20313708640667491 0 0.083105206071467416 0.20007701332709979 0 0.095326043202144745 0.24554465089224409 0 0.044081577119474857 0.2271058242433576 0 0.049706944316556423 0.27522722923869108 0 0.044081577119474857 0.2271058242433576 0 0.095326043202144745 0.24554465089224409 0 0.13737030665753211 0.20313708640667491 0 0.14377654328998779 0.2442024734791064 0 0.095326043202144745 0.24554465089224409 0 0.17933913398461551 0.2350063570234002 0 0.14377654328998779 0.2442024734791064 0 0.13737030665753211 0.20313708640667491 0 0.17933913398461551 0.2350063570234002 0 0.13737030665753211 0.20313708640667491 0 0.18124454140915969 0.18790916706335251 0 0.14332333627550789 0.14578431753966009 0 0.18652628422869419 0.14162325200928061 0 0.18124454140915969 0.18790916706335251 0 0.14332333627550789 0.14578431753966009 0 0.13737030665753211 0.20313708640667491 0 0.106902708054812 0.16453234188234539 0 0.14332333627550789 0.14578431753966009 0 0.18124454140915969 0.18790916706335251 0 0.13737030665753211 0.20313708640667491 0 0.14332333627550789 0.14578431753966009 0 0.16141998738593399 0.10404039647458049 0 0.18652628422869419 0.14162325200928061 0 0.2185883431182947 0.18019736283949719 0 0.18652628422869419 0.14162325200928061 0 0.22985637510995899 0.1298347970200906 0 0.2185883431182947 0.18019736283949719 0 0.22985637510995899 0.1298347970200906 0 0.25557216766470708 0.15874861286892261 0 0.2185883431182947 0.18019736283949719 0 0.25557216766470708 0.15874861286892261 0 0.26429849586623999 0.19346700179430079 0 0.2185883431182947 0.18019736283949719 0 0.18124454140915969 0.18790916706335251 0 0.18652628422869419 0.14162325200928061 0 0.17933913398461551 0.2350063570234002 0 0.18124454140915969 0.18790916706335251 0 0.224700362040408 0.22206622194729711 0 0.2185883431182947 0.18019736283949719 0 0.224700362040408 0.22206622194729711 0 0.18124454140915969 0.18790916706335251 0 0.2185883431182947 0.18019736283949719 0 0.26429849586623999 0.19346700179430079 0 0.224700362040408 0.22206622194729711 0 0.25195515620380449 0.25883339815888678 0 0.21049769590865089 0.26857363548218488 0 0.224700362040408 0.22206622194729711 0 0.17933913398461551 0.2350063570234002 0 0.224700362040408 0.22206622194729711 0 0.21049769590865089 0.26857363548218488 0 0.14999999999970359 0 0 0.184418230509967 0.038773194583122873 0 0.14618258501891079 0.062070108745602003 0 0.19922788606653311 0.085920220746880993 0 0.14618258501891079 0.062070108745602003 0 0.184418230509967 0.038773194583122873 0 0.14999999999970359 0 0 0.19999999999955789 0 0 0.184418230509967 0.038773194583122873 0 0.14999999999970359 0 0 0.14618258501891079 0.062070108745602003 0 0.10266856499169109 0.044518360900210059 0 0.14618258501891079 0.062070108745602003 0 0.16141998738593399 0.10404039647458049 0 0.12372429750337779 0.095814237875728972 0 0.14332333627550789 0.14578431753966009 0 0.12372429750337779 0.095814237875728972 0 0.16141998738593399 0.10404039647458049 0 0.19922788606653311 0.085920220746880993 0 0.18652628422869419 0.14162325200928061 0 0.16141998738593399 0.10404039647458049 0 0.19922788606653311 0.085920220746880993 0 0.16141998738593399 0.10404039647458049 0 0.14618258501891079 0.062070108745602003 0 0.19922788606653311 0.085920220746880993 0 0.22985637510995899 0.1298347970200906 0 0.18652628422869419 0.14162325200928061 0 0.19922788606653311 0.085920220746880993 0 0.24218496799700481 0.089025544070598317 0 0.22985637510995899 0.1298347970200906 0 0.27474541102162192 0.11822029332053539 0 0.22985637510995899 0.1298347970200906 0 0.24218496799700481 0.089025544070598317 0 0.19922788606653311 0.085920220746880993 0 0.22668068146512929 0.045875643423131329 0 0.24218496799700481 0.089025544070598317 0 0.27499999999933927 0.060310814194988557 0 0.24218496799700481 0.089025544070598317 0 0.22668068146512929 0.045875643423131329 0 0.19922788606653311 0.085920220746880993 0 0.184418230509967 0.038773194583122873 0 0.22668068146512929 0.045875643423131329 0 0.19999999999955789 0 0 0.22668068146512929 0.045875643423131329 0 0.184418230509967 0.038773194583122873 0 0.19999999999955789 0 0 0.24999999999941211 0 0 0.22668068146512929 0.045875643423131329 0 0.24999999999941211 0 0 0.29999999999926641 0 0 0.27499999999933927 0.060310814194988557 0 0.24999999999941211 0 0 0.27499999999933927 0.060310814194988557 0 0.22668068146512929 0.045875643423131329 0 0.29999999999926641 0 0 0.32541448401678508 0.046215317981507749 0 0.27499999999933927 0.060310814194988557 0 0.29999999999926641 0 0 0.34999999999912063 0 0 0.32541448401678508 0.046215317981507749 0 0.35312867752657662 0.084946736076730367 0 0.32541448401678508 0.046215317981507749 0 0.3615861437013822 0.03582617922508851 0 0.35312867752657662 0.084946736076730367 0 0.3615861437013822 0.03582617922508851 0 0.39591832466117061 0.056982757562006353 0 0.34999999999912063 0 0 0.3615861437013822 0.03582617922508851 0 0.32541448401678508 0.046215317981507749 0 0.34999999999912063 0 0 0.3999999999989749 0 0 0.3615861437013822 0.03582617922508851 0 0.35312867752657662 0.084946736076730367 0 0.39823268594401579 0.1116623613130045 0 0.36246644853392812 0.1399454205365751 0 0.35312867752657662 0.084946736076730367 0 0.36246644853392812 0.1399454205365751 0 0.32215584939770009 0.1218492143506909 0 0.35312867752657662 0.084946736076730367 0 0.3096713403101819 0.085471541595262421 0 0.32541448401678508 0.046215317981507749 0 0.35312867752657662 0.084946736076730367 0 0.32215584939770009 0.1218492143506909 0 0.3096713403101819 0.085471541595262421 0 0.27474541102162192 0.11822029332053539 0 0.3096713403101819 0.085471541595262421 0 0.32215584939770009 0.1218492143506909 0 0.27499999999933927 0.060310814194988557 0 0.32541448401678508 0.046215317981507749 0 0.3096713403101819 0.085471541595262421 0 0.3096713403101819 0.085471541595262421 0 0.27474541102162192 0.11822029332053539 0 0.27499999999933927 0.060310814194988557 0 0.27499999999933927 0.060310814194988557 0 0.27474541102162192 0.11822029332053539 0 0.24218496799700481 0.089025544070598317 0 0.27474541102162192 0.11822029332053539 0 0.25557216766470708 0.15874861286892261 0 0.22985637510995899 0.1298347970200906 0 0.27474541102162192 0.11822029332053539 0 0.29336099386129338 0.15892013001050981 0 0.25557216766470708 0.15874861286892261 0 0.26429849586623999 0.19346700179430079 0 0.25557216766470708 0.15874861286892261 0 0.29336099386129338 0.15892013001050981 0 0.33084213324567391 0.16272720141332131 0 0.31255190597181792 0.19850845631528771 0 0.29336099386129338 0.15892013001050981 0 0.26429849586623999 0.19346700179430079 0 0.29336099386129338 0.15892013001050981 0 0.31255190597181792 0.19850845631528771 0 0.27474541102162192 0.11822029332053539 0 0.32215584939770009 0.1218492143506909 0 0.29336099386129338 0.15892013001050981 0 0.28040350263641872 0.23054717217092141 0 0.25195515620380449 0.25883339815888678 0 0.224700362040408 0.22206622194729711 0 0.26429849586623999 0.19346700179430079 0 0.28040350263641872 0.23054717217092141 0 0.224700362040408 0.22206622194729711 0 0.26429849586623999 0.19346700179430079 0 0.31255190597181792 0.19850845631528771 0 0.28040350263641872 0.23054717217092141 0 0.33758650185219202 0.23837101504325639 0 0.29132859388405002 0.27203693976649962 0 0.28040350263641872 0.23054717217092141 0 0.33758650185219202 0.23837101504325639 0 0.28040350263641872 0.23054717217092141 0 0.31255190597181792 0.19850845631528771 0 0.33758650185219202 0.23837101504325639 0 0.31255190597181792 0.19850845631528771 0 0.3572130504031617 0.1874703368446563 0 0.33758650185219202 0.23837101504325639 0 0.3572130504031617 0.1874703368446563 0 0.38831533174504851 0.2189834941785925 0 0.33758650185219202 0.23837101504325639 0 0.38831533174504851 0.2189834941785925 0 0.3786248352540974 0.27082301512024259 0 0.33084213324567391 0.16272720141332131 0 0.29336099386129338 0.15892013001050981 0 0.32215584939770009 0.1218492143506909 0 0.33084213324567391 0.16272720141332131 0 0.32215584939770009 0.1218492143506909 0 0.36246644853392812 0.1399454205365751 0 0.33084213324567391 0.16272720141332131 0 0.3572130504031617 0.1874703368446563 0 0.31255190597181792 0.19850845631528771 0 0.39801143831225599 0.16651381068160659 0 0.3572130504031617 0.1874703368446563 0 0.36246644853392812 0.1399454205365751 0 0.33084213324567391 0.16272720141332131 0 0.36246644853392812 0.1399454205365751 0 0.3572130504031617 0.1874703368446563 0 0.39801143831225599 0.16651381068160659 0 0.36246644853392812 0.1399454205365751 0 0.39823268594401579 0.1116623613130045 0 0.39801143831225599 0.16651381068160659 0 0.44288491854585582 0.14116182884956319 0 0.42905200079338551 0.19982395548231649 0 0.39801143831225599 0.16651381068160659 0 0.39823268594401579 0.1116623613130045 0 0.44288491854585582 0.14116182884956319 0 0.42377727103934271 0.25099357235810238 0 0.3786248352540974 0.27082301512024259 0 0.38831533174504851 0.2189834941785925 0 0.39801143831225599 0.16651381068160659 0 0.38831533174504851 0.2189834941785925 0 0.3572130504031617 0.1874703368446563 0 0.39801143831225599 0.16651381068160659 0 0.42905200079338551 0.19982395548231649 0 0.38831533174504851 0.2189834941785925 0 0.42377727103934271 0.25099357235810238 0 0.38831533174504851 0.2189834941785925 0 0.42905200079338551 0.19982395548231649 0 0.42377727103934271 0.25099357235810238 0 0.42905200079338551 0.19982395548231649 0 0.46429753744194407 0.22870891180733599 0 0.47357141910802508 0.1873585799078378 0 0.46429753744194407 0.22870891180733599 0 0.42905200079338551 0.19982395548231649 0 0.47357141910802508 0.1873585799078378 0 0.51729576145820033 0.1683240575987815 0 0.50760557329222289 0.20700468884612061 0 0.47357141910802508 0.1873585799078378 0 0.50760557329222289 0.20700468884612061 0 0.46429753744194407 0.22870891180733599 0 0.49695729691142171 0.25014895411178018 0 0.46429753744194407 0.22870891180733599 0 0.50760557329222289 0.20700468884612061 0 0.47357141910802508 0.1873585799078378 0 0.44288491854585582 0.14116182884956319 0 0.48466639505193998 0.1421439844745814 0 0.47357141910802508 0.1873585799078378 0 0.42905200079338551 0.19982395548231649 0 0.44288491854585582 0.14116182884956319 0 0.47357141910802508 0.1873585799078378 0 0.48466639505193998 0.1421439844745814 0 0.51729576145820033 0.1683240575987815 0 0.44288491854585582 0.14116182884956319 0 0.47881186583059909 0.093591717165689425 0 0.48466639505193998 0.1421439844745814 0 0.51076801031701946 0.1202837388510348 0 0.48466639505193998 0.1421439844745814 0 0.47881186583059909 0.093591717165689425 0 0.43698630808430822 0.080423614171545449 0 0.47881186583059909 0.093591717165689425 0 0.44288491854585582 0.14116182884956319 0 0.43698630808430822 0.080423614171545449 0 0.47040171442036788 0.044141676406503738 0 0.47881186583059909 0.093591717165689425 0 0.52375890611712683 0.059318771819432882 0 0.47881186583059909 0.093591717165689425 0 0.47040171442036788 0.044141676406503738 0 0.49999999999869432 0 0 0.52375890611712683 0.059318771819432882 0 0.47040171442036788 0.044141676406503738 0 0.44999999999882923 0 0 0.49999999999869432 0 0 0.47040171442036788 0.044141676406503738 0 0.44999999999882923 0 0 0.47040171442036788 0.044141676406503738 0 0.4320097814748517 0.037406712692169303 0 0.43698630808430822 0.080423614171545449 0 0.4320097814748517 0.037406712692169303 0 0.47040171442036788 0.044141676406503738 0 0.3999999999989749 0 0 0.4320097814748517 0.037406712692169303 0 0.39591832466117061 0.056982757562006353 0 0.43698630808430822 0.080423614171545449 0 0.39591832466117061 0.056982757562006353 0 0.4320097814748517 0.037406712692169303 0 0.3999999999989749 0 0 0.44999999999882923 0 0 0.4320097814748517 0.037406712692169303 0 0.3999999999989749 0 0 0.39591832466117061 0.056982757562006353 0 0.3615861437013822 0.03582617922508851 0 0.35312867752657662 0.084946736076730367 0 0.39591832466117061 0.056982757562006353 0 0.39823268594401579 0.1116623613130045 0 0.43698630808430822 0.080423614171545449 0 0.44288491854585582 0.14116182884956319 0 0.39823268594401579 0.1116623613130045 0 0.43698630808430822 0.080423614171545449 0 0.39823268594401579 0.1116623613130045 0 0.39591832466117061 0.056982757562006353 0 0.43249999999999988 0.43937499999999979 0 0.38707855792647411 0.42299362914874578 0 0.42161023666869668 0.39493916313643851 0 0.38083244760691543 0.38531983672244652 0 0.42161023666869668 0.39493916313643851 0 0.38707855792647411 0.42299362914874578 0 0.38083244760691543 0.38531983672244652 0 0.40076539126862748 0.34589349467022118 0 0.42161023666869668 0.39493916313643851 0 0.43249999999999988 0.43937499999999979 0 0.3908716102680424 0.47010282357248828 0 0.38707855792647411 0.42299362914874578 0 0.38244435121258652 0.51653317813019495 0 0.3908716102680424 0.47010282357248828 0 0.43507373378304309 0.49699695397193322 0 0.43249999999999988 0.43937499999999979 0 0.43507373378304309 0.49699695397193322 0 0.3908716102680424 0.47010282357248828 0 0.43249999999999988 0.43937499999999979 0 0.46111841286828259 0.46690301029591341 0 0.43507373378304309 0.49699695397193322 0 0.43249999999999988 0.43937499999999979 0 0.48858720058566618 0.43964267759203868 0 0.46111841286828259 0.46690301029591341 0 0.49102375406324739 0.49123754822244059 0 0.43507373378304309 0.49699695397193322 0 0.46111841286828259 0.46690301029591341 0 0.49102375406324739 0.49123754822244059 0 0.46111841286828259 0.46690301029591341 0 0.48858720058566618 0.43964267759203868 0 0.52289427570932567 0.3932284363388488 0 0.48858720058566618 0.43964267759203868 0 0.46655310992796922 0.39650496622958609 0 0.43249999999999988 0.43937499999999979 0 0.46655310992796922 0.39650496622958609 0 0.48858720058566618 0.43964267759203868 0 0.43249999999999988 0.43937499999999979 0 0.42161023666869668 0.39493916313643851 0 0.46655310992796922 0.39650496622958609 0 0.4409427642593301 0.35743108089689513 0 0.46655310992796922 0.39650496622958609 0 0.42161023666869668 0.39493916313643851 0 0.52289427570932567 0.3932284363388488 0 0.46655310992796922 0.39650496622958609 0 0.49077833859261139 0.35229981449445641 0 0.5 0.29999999999999999 0 0.49077833859261139 0.35229981449445641 0 0.46226845272279993 0.31901800744800313 0 0.4409427642593301 0.35743108089689513 0 0.46226845272279993 0.31901800744800313 0 0.49077833859261139 0.35229981449445641 0 0.4409427642593301 0.35743108089689513 0 0.41914690343363781 0.30688979866601612 0 0.46226845272279993 0.31901800744800313 0 0.4409427642593301 0.35743108089689513 0 0.49077833859261139 0.35229981449445641 0 0.46655310992796922 0.39650496622958609 0 0.5 0.29999999999999999 0 0.4604742573284204 0.27846934318264788 0 0.49695729691142171 0.25014895411178018 0 0.49695729691142171 0.25014895411178018 0 0.4604742573284204 0.27846934318264788 0 0.46429753744194407 0.22870891180733599 0 0.5 0.29999999999999999 0 0.46226845272279993 0.31901800744800313 0 0.4604742573284204 0.27846934318264788 0 0.41914690343363781 0.30688979866601612 0 0.4604742573284204 0.27846934318264788 0 0.46226845272279993 0.31901800744800313 0 0.42377727103934271 0.25099357235810238 0 0.46429753744194407 0.22870891180733599 0 0.4604742573284204 0.27846934318264788 0 0.42377727103934271 0.25099357235810238 0 0.4604742573284204 0.27846934318264788 0 0.41914690343363781 0.30688979866601612 0 0.42377727103934271 0.25099357235810238 0 0.41914690343363781 0.30688979866601612 0 0.3786248352540974 0.27082301512024259 0 0.36575549820117997 0.31677992835137742 0 0.3786248352540974 0.27082301512024259 0 0.41914690343363781 0.30688979866601612 0 0.4409427642593301 0.35743108089689513 0 0.42161023666869668 0.39493916313643851 0 0.40076539126862748 0.34589349467022118 0 0.4409427642593301 0.35743108089689513 0 0.40076539126862748 0.34589349467022118 0 0.41914690343363781 0.30688979866601612 0 0.36575549820117997 0.31677992835137742 0 0.41914690343363781 0.30688979866601612 0 0.40076539126862748 0.34589349467022118 0 0.40076539126862748 0.34589349467022118 0 0.33277555741076909 0.36432196682010132 0 0.36575549820117997 0.31677992835137742 0 0.38083244760691543 0.38531983672244652 0 0.33277555741076909 0.36432196682010132 0 0.40076539126862748 0.34589349467022118 0 0.36575549820117997 0.31677992835137742 0 0.33277555741076909 0.36432196682010132 0 0.32752639306529541 0.32610012995269699 0 0.33277555741076909 0.36432196682010132 0 0.29644548887253103 0.34914008784168082 0 0.32752639306529541 0.32610012995269699 0 0.33758650185219202 0.23837101504325639 0 0.3786248352540974 0.27082301512024259 0 0.33402499257867951 0.28911035184473982 0 0.36575549820117997 0.31677992835137742 0 0.33402499257867951 0.28911035184473982 0 0.3786248352540974 0.27082301512024259 0 0.36575549820117997 0.31677992835137742 0 0.32752639306529541 0.32610012995269699 0 0.33402499257867951 0.28911035184473982 0 0.29348325746214782 0.31350119524708198 0 0.33402499257867951 0.28911035184473982 0 0.32752639306529541 0.32610012995269699 0 0.33758650185219202 0.23837101504325639 0 0.33402499257867951 0.28911035184473982 0 0.29132859388405002 0.27203693976649962 0 0.29348325746214782 0.31350119524708198 0 0.29132859388405002 0.27203693976649962 0 0.33402499257867951 0.28911035184473982 0 0.29348325746214782 0.31350119524708198 0 0.24432083401701241 0.3006253385567515 0 0.29132859388405002 0.27203693976649962 0 0.25195515620380449 0.25883339815888678 0 0.29132859388405002 0.27203693976649962 0 0.24432083401701241 0.3006253385567515 0 0.25195515620380449 0.25883339815888678 0 0.28040350263641872 0.23054717217092141 0 0.29132859388405002 0.27203693976649962 0 0.27866744612395528 0.38416094670951489 0 0.29644548887253103 0.34914008784168082 0 0.33277555741076909 0.36432196682010132 0 0.29348325746214782 0.31350119524708198 0 0.32752639306529541 0.32610012995269699 0 0.29644548887253103 0.34914008784168082 0 0.29348325746214782 0.31350119524708198 0 0.29644548887253103 0.34914008784168082 0 0.25966125648670141 0.34351016742083729 0 0.29348325746214782 0.31350119524708198 0 0.25966125648670141 0.34351016742083729 0 0.24432083401701241 0.3006253385567515 0 0.27866744612395528 0.38416094670951489 0 0.25966125648670141 0.34351016742083729 0 0.29644548887253103 0.34914008784168082 0 0.27866744612395528 0.38416094670951489 0 0.22033343844674469 0.36963382230740238 0 0.25966125648670141 0.34351016742083729 0 0.27866744612395528 0.38416094670951489 0 0.29124338931648802 0.43334555462578611 0 0.24049127783545701 0.41270748208749802 0 0.29124338931648802 0.43334555462578611 0 0.25982634974572738 0.46097799597715272 0 0.24049127783545701 0.41270748208749802 0 0.27866744612395528 0.38416094670951489 0 0.31778888742534622 0.40581751814196781 0 0.29124338931648802 0.43334555462578611 0 0.27866744612395528 0.38416094670951489 0 0.33277555741076909 0.36432196682010132 0 0.31778888742534622 0.40581751814196781 0 0.33277555741076909 0.36432196682010132 0 0.35221190152536241 0.40457127605439203 0 0.31778888742534622 0.40581751814196781 0 0.34258405725730701 0.4444034294386992 0 0.31778888742534622 0.40581751814196781 0 0.35221190152536241 0.40457127605439203 0 0.34258405725730701 0.4444034294386992 0 0.29124338931648802 0.43334555462578611 0 0.31778888742534622 0.40581751814196781 0 0.34258405725730701 0.4444034294386992 0 0.35221190152536241 0.40457127605439203 0 0.38707855792647411 0.42299362914874578 0 0.38083244760691543 0.38531983672244652 0 0.38707855792647411 0.42299362914874578 0 0.35221190152536241 0.40457127605439203 0 0.38083244760691543 0.38531983672244652 0 0.35221190152536241 0.40457127605439203 0 0.33277555741076909 0.36432196682010132 0 0.38244435121258652 0.51653317813019495 0 0.35024835142131061 0.48654922671676981 0 0.3908716102680424 0.47010282357248828 0 0.34258405725730701 0.4444034294386992 0 0.3908716102680424 0.47010282357248828 0 0.35024835142131061 0.48654922671676981 0 0.34258405725730701 0.4444034294386992 0 0.38707855792647411 0.42299362914874578 0 0.3908716102680424 0.47010282357248828 0 0.34258405725730701 0.4444034294386992 0 0.31068898841644388 0.47541502461811092 0 0.29124338931648802 0.43334555462578611 0 0.35024835142131061 0.48654922671676981 0 0.33190227185843768 0.52715113583864037 0 0.31068898841644388 0.47541502461811092 0 0.34258405725730701 0.4444034294386992 0 0.35024835142131061 0.48654922671676981 0 0.31068898841644388 0.47541502461811092 0 0.28307294598219601 0.50789252727458634 0 0.25982634974572738 0.46097799597715272 0 0.31068898841644388 0.47541502461811092 0 0.29124338931648802 0.43334555462578611 0 0.31068898841644388 0.47541502461811092 0 0.25982634974572738 0.46097799597715272 0 0.28307294598219601 0.50789252727458634 0 0.23975172658309729 0.49475499200540818 0 0.25982634974572738 0.46097799597715272 0 0.22278230690790279 0.44824268025881547 0 0.23975172658309729 0.49475499200540818 0 0.19604738184454831 0.47787523520405789 0 0.22278230690790279 0.44824268025881547 0 0.19604738184454831 0.47787523520405789 0 0.191953871957803 0.42546416763755879 0 0.22278230690790279 0.44824268025881547 0 0.24049127783545701 0.41270748208749802 0 0.25982634974572738 0.46097799597715272 0 0.22278230690790279 0.44824268025881547 0 0.25982634974572738 0.46097799597715272 0 0.23975172658309729 0.49475499200540818 0 0.27866744612395528 0.38416094670951489 0 0.24049127783545701 0.41270748208749802 0 0.22033343844674469 0.36963382230740238 0 0.1650278706801647 0.38791388161335733 0 0.22033343844674469 0.36963382230740238 0 0.191953871957803 0.42546416763755879 0 0.22033343844674469 0.36963382230740238 0 0.24049127783545701 0.41270748208749802 0 0.191953871957803 0.42546416763755879 0 0.22278230690790279 0.44824268025881547 0 0.191953871957803 0.42546416763755879 0 0.24049127783545701 0.41270748208749802 0 0.15801167086041079 0.46008690540259539 0 0.13773355295499351 0.42497777642586831 0 0.191953871957803 0.42546416763755879 0 0.1650278706801647 0.38791388161335733 0 0.191953871957803 0.42546416763755879 0 0.13773355295499351 0.42497777642586831 0 0.1650278706801647 0.38791388161335733 0 0.13773355295499351 0.42497777642586831 0 0.1117088112799664 0.38831403004970022 0 0.15801167086041079 0.46008690540259539 0 0.113541300460994 0.46208784312094731 0 0.13773355295499351 0.42497777642586831 0 0.1216098864341134 0.50637075089503902 0 0.113541300460994 0.46208784312094731 0 0.15801167086041079 0.46008690540259539 0 0.1216098864341134 0.50637075089503902 0 0.15801167086041079 0.46008690540259539 0 0.16618607197337229 0.50652878253548905 0 0.15801167086041079 0.46008690540259539 0 0.19604738184454831 0.47787523520405789 0 0.16618607197337229 0.50652878253548905 0 0.15801167086041079 0.46008690540259539 0 0.191953871957803 0.42546416763755879 0 0.19604738184454831 0.47787523520405789 0 0.25195515620380449 0.25883339815888678 0 0.24432083401701241 0.3006253385567515 0 0.21049769590865089 0.26857363548218488 0 0.19670163708476801 0.31472518408333222 0 0.21049769590865089 0.26857363548218488 0 0.24432083401701241 0.3006253385567515 0 0.19670163708476801 0.31472518408333222 0 0.168349569971391 0.28054490850913671 0 0.21049769590865089 0.26857363548218488 0 0.19670163708476801 0.31472518408333222 0 0.22615676742807109 0.33458786033114157 0 0.18434624290945251 0.35208838264196463 0 0.19670163708476801 0.31472518408333222 0 0.24432083401701241 0.3006253385567515 0 0.22615676742807109 0.33458786033114157 0 0.24432083401701241 0.3006253385567515 0 0.25966125648670141 0.34351016742083729 0 0.22615676742807109 0.33458786033114157 0 0.22033343844674469 0.36963382230740238 0 0.22615676742807109 0.33458786033114157 0 0.25966125648670141 0.34351016742083729 0 0.22033343844674469 0.36963382230740238 0 0.18434624290945251 0.35208838264196463 0 0.22615676742807109 0.33458786033114157 0 0.1650278706801647 0.38791388161335733 0 0.18434624290945251 0.35208838264196463 0 0.22033343844674469 0.36963382230740238 0 0.1650278706801647 0.38791388161335733 0 0.14223753364722069 0.3341983344262433 0 0.18434624290945251 0.35208838264196463 0 0.1650278706801647 0.38791388161335733 0 0.1117088112799664 0.38831403004970022 0 0.14223753364722069 0.3341983344262433 0 0.19670163708476801 0.31472518408333222 0 0.18434624290945251 0.35208838264196463 0 0.14223753364722069 0.3341983344262433 0 0.19670163708476801 0.31472518408333222 0 0.14223753364722069 0.3341983344262433 0 0.168349569971391 0.28054490850913671 0 0.1247745017231483 0.27198077544791172 0 0.168349569971391 0.28054490850913671 0 0.14223753364722069 0.3341983344262433 0 0.1247745017231483 0.27198077544791172 0 0.14377654328998779 0.2442024734791064 0 0.168349569971391 0.28054490850913671 0 0.17933913398461551 0.2350063570234002 0 0.21049769590865089 0.26857363548218488 0 0.168349569971391 0.28054490850913671 0 0.17933913398461551 0.2350063570234002 0 0.168349569971391 0.28054490850913671 0 0.14377654328998779 0.2442024734791064 0 0.049706944316556423 0.27522722923869108 0 0.095326043202144745 0.24554465089224409 0 0.093851963071650835 0.30582068233324772 0 0.1247745017231483 0.27198077544791172 0 0.095326043202144745 0.24554465089224409 0 0.14377654328998779 0.2442024734791064 0 0.1247745017231483 0.27198077544791172 0 0.093851963071650835 0.30582068233324772 0 0.095326043202144745 0.24554465089224409 0 0.1247745017231483 0.27198077544791172 0 0.14223753364722069 0.3341983344262433 0 0.093851963071650835 0.30582068233324772 0 0.049706944316556423 0.27522722923869108 0 0.093851963071650835 0.30582068233324772 0 0.046389130980076937 0.32668781832131749 0 0.087545339447545459 0.35122518864182262 0 0.046389130980076937 0.32668781832131749 0 0.093851963071650835 0.30582068233324772 0 0.087545339447545459 0.35122518864182262 0 0.093851963071650835 0.30582068233324772 0 0.14223753364722069 0.3341983344262433 0 0.087545339447545459 0.35122518864182262 0 0.14223753364722069 0.3341983344262433 0 0.1117088112799664 0.38831403004970022 0 0.087545339447545459 0.35122518864182262 0 0.1117088112799664 0.38831403004970022 0 0.050583896093752537 0.38543522283434112 0 0.087545339447545459 0.35122518864182262 0 0.050583896093752537 0.38543522283434112 0 0.046389130980076937 0.32668781832131749 0 0 0.35000000000145642 0 0.046389130980076937 0.32668781832131749 0 0.050583896093752537 0.38543522283434112 0 0 0.35000000000145642 0 0 0.30000000000124832 0 0.046389130980076937 0.32668781832131749 0 0 0.30000000000124832 0 0.049706944316556423 0.27522722923869108 0 0.046389130980076937 0.32668781832131749 0 0 0.30000000000124832 0 0 0.25000000000104028 0 0.049706944316556423 0.27522722923869108 0 0 0.25000000000104028 0 0.044081577119474857 0.2271058242433576 0 0.049706944316556423 0.27522722923869108 0 0.078358742472063481 0.43365249433908948 0 0.113541300460994 0.46208784312094731 0 0.068743045408989428 0.48853989837882689 0 0.1216098864341134 0.50637075089503902 0 0.068743045408989428 0.48853989837882689 0 0.113541300460994 0.46208784312094731 0 0.113541300460994 0.46208784312094731 0 0.078358742472063481 0.43365249433908948 0 0.13773355295499351 0.42497777642586831 0 0.078358742472063481 0.43365249433908948 0 0.1117088112799664 0.38831403004970022 0 0.13773355295499351 0.42497777642586831 0 0.078358742472063481 0.43365249433908948 0 0.050583896093752537 0.38543522283434112 0 0.1117088112799664 0.38831403004970022 0 0.078358742472063481 0.43365249433908948 0 0.035463093262830522 0.42673416072819947 0 0.050583896093752537 0.38543522283434112 0 0 0.40000000000166441 0 0 0.35000000000145642 0 0.050583896093752537 0.38543522283434112 0 0 0.40000000000166441 0 0.050583896093752537 0.38543522283434112 0 0.035463093262830522 0.42673416072819947 0 0 0.45000000000187229 0 0 0.40000000000166441 0 0.035463093262830522 0.42673416072819947 0 0 0.45000000000187229 0 0.035463093262830522 0.42673416072819947 0 0.033550201249889847 0.46247875832467239 0 0 0.50000000000205869 0 0.033550201249889847 0.46247875832467239 0 0.068743045408989428 0.48853989837882689 0 0.078358742472063481 0.43365249433908948 0 0.068743045408989428 0.48853989837882689 0 0.033550201249889847 0.46247875832467239 0 0.078358742472063481 0.43365249433908948 0 0.033550201249889847 0.46247875832467239 0 0.035463093262830522 0.42673416072819947 0 0 0.50000000000205869 0 0 0.45000000000187229 0 0.033550201249889847 0.46247875832467239 0 0 0.50000000000205869 0 0.068743045408989428 0.48853989837882689 0 0.044576108720083309 0.53509043209532614 0 0 0.55000000000173355 0 0 0.50000000000205869 0 0.044576108720083309 0.53509043209532614 0 0 0.55000000000173355 0 0.044576108720083309 0.53509043209532614 0 0.034381862692950467 0.57372682250960894 0 0.077693244765132896 0.56932317963405099 0 0.034381862692950467 0.57372682250960894 0 0.044576108720083309 0.53509043209532614 0 0.068743045408989428 0.48853989837882689 0 0.085622222639554768 0.53333248912060549 0 0.044576108720083309 0.53509043209532614 0 0.1216098864341134 0.50637075089503902 0 0.085622222639554768 0.53333248912060549 0 0.068743045408989428 0.48853989837882689 0 0.077693244765132896 0.56932317963405099 0 0.044576108720083309 0.53509043209532614 0 0.085622222639554768 0.53333248912060549 0 0.077693244765132896 0.56932317963405099 0 0.085622222639554768 0.53333248912060549 0 0.1154888278694548 0.56733818459978413 0 0.085622222639554768 0.53333248912060549 0 0.1216098864341134 0.50637075089503902 0 0.1154888278694548 0.56733818459978413 0 0.077693244765132896 0.56932317963405099 0 0.1154888278694548 0.56733818459978413 0 0.1024350934457823 0.60772393977513839 0 0.086179601630648681 0.64647209519980475 0 0.050069554451969707 0.61308520079857043 0 0.1024350934457823 0.60772393977513839 0 0.077693244765132896 0.56932317963405099 0 0.1024350934457823 0.60772393977513839 0 0.050069554451969707 0.61308520079857043 0 0.077693244765132896 0.56932317963405099 0 0.050069554451969707 0.61308520079857043 0 0.034381862692950467 0.57372682250960894 0 0 0.60000000000138687 0 0 0.55000000000173355 0 0.034381862692950467 0.57372682250960894 0 0 0.65000000000104008 0 0 0.60000000000138687 0 0.050069554451969707 0.61308520079857043 0 0 0.60000000000138687 0 0.034381862692950467 0.57372682250960894 0 0.050069554451969707 0.61308520079857043 0 0 0.7000000000006934 0 0 0.65000000000104008 0 0.046634677244967337 0.671418230738282 0 0.086179601630648681 0.64647209519980475 0 0.046634677244967337 0.671418230738282 0 0.050069554451969707 0.61308520079857043 0 0 0.65000000000104008 0 0.050069554451969707 0.61308520079857043 0 0.046634677244967337 0.671418230738282 0 0 0.75000000000034661 0 0 0.7000000000006934 0 0.049706944316475897 0.72477277076253799 0 0 0.7000000000006934 0 0.046634677244967337 0.671418230738282 0 0.049706944316475897 0.72477277076253799 0 0 0.75000000000034661 0 0.049706944316475897 0.72477277076253799 0 0.04408157711937423 0.7728941757575627 0 0.049706944316475897 0.72477277076253799 0 0.1020579365089687 0.69352219419301997 0 0.090953281884486245 0.7564451946902494 0 0.1215415378367805 0.72939333680004137 0 0.090953281884486245 0.7564451946902494 0 0.1020579365089687 0.69352219419301997 0 0.049706944316475897 0.72477277076253799 0 0.046634677244967337 0.671418230738282 0 0.1020579365089687 0.69352219419301997 0 0.1215415378367805 0.72939333680004137 0 0.14335651144331049 0.75565258250209677 0 0.090953281884486245 0.7564451946902494 0 0.086179601630648681 0.64647209519980475 0 0.1020579365089687 0.69352219419301997 0 0.046634677244967337 0.671418230738282 0 0.086179601630648681 0.64647209519980475 0 0.1241190223511371 0.64391885572885044 0 0.1020579365089687 0.69352219419301997 0 0.086179601630648681 0.64647209519980475 0 0.1024350934457823 0.60772393977513839 0 0.1241190223511371 0.64391885572885044 0 0.16500388252850301 0.66612077714085194 0 0.1020579365089687 0.69352219419301997 0 0.1241190223511371 0.64391885572885044 0 0.15720202157091859 0.60665697304410315 0 0.16500388252850301 0.66612077714085194 0 0.1241190223511371 0.64391885572885044 0 0.15720202157091859 0.60665697304410315 0 0.19914261668318661 0.62286739485272158 0 0.16500388252850301 0.66612077714085194 0 0.16500388252850301 0.66612077714085194 0 0.15332765547575641 0.71200081858233666 0 0.1020579365089687 0.69352219419301997 0 0.1215415378367805 0.72939333680004137 0 0.15332765547575641 0.71200081858233666 0 0.14335651144331049 0.75565258250209677 0 0.1215415378367805 0.72939333680004137 0 0.1020579365089687 0.69352219419301997 0 0.15332765547575641 0.71200081858233666 0 0.16500388252850301 0.66612077714085194 0 0.19068556247388771 0.71028988922845504 0 0.15332765547575641 0.71200081858233666 0 0.18269480424590959 0.75905448272264375 0 0.14335651144331049 0.75565258250209677 0 0.15332765547575641 0.71200081858233666 0 0.18269480424590959 0.75905448272264375 0 0.15332765547575641 0.71200081858233666 0 0.19068556247388771 0.71028988922845504 0 0.18269480424590959 0.75905448272264375 0 0.19068556247388771 0.71028988922845504 0 0.2248999640082178 0.72584299459689172 0 0.2236846579037573 0.67380363126050236 0 0.2248999640082178 0.72584299459689172 0 0.19068556247388771 0.71028988922845504 0 0.2236846579037573 0.67380363126050236 0 0.26439878998046262 0.7048065392091396 0 0.2248999640082178 0.72584299459689172 0 0.25676291524611189 0.7436741304886243 0 0.22556077506376701 0.77837424984191617 0 0.2248999640082178 0.72584299459689172 0 0.25676291524611189 0.7436741304886243 0 0.2248999640082178 0.72584299459689172 0 0.26439878998046262 0.7048065392091396 0 0.2236846579037573 0.67380363126050236 0 0.16500388252850301 0.66612077714085194 0 0.19914261668318661 0.62286739485272158 0 0.2236846579037573 0.67380363126050236 0 0.19068556247388771 0.71028988922845504 0 0.16500388252850301 0.66612077714085194 0 0.2236846579037573 0.67380363126050236 0 0.19914261668318661 0.62286739485272158 0 0.2459498854893499 0.63248470766216769 0 0.2236846579037573 0.67380363126050236 0 0.2459498854893499 0.63248470766216769 0 0.27820712747429932 0.65530134213254643 0 0.22549374774072969 0.58452645269293457 0 0.2459498854893499 0.63248470766216769 0 0.19914261668318661 0.62286739485272158 0 0.26573297623774761 0.59828298563722948 0 0.2459498854893499 0.63248470766216769 0 0.22549374774072969 0.58452645269293457 0 0.22549374774072969 0.58452645269293457 0 0.19914261668318661 0.62286739485272158 0 0.18381867841758909 0.57774125163628387 0 0.20050006573841939 0.53248514016039872 0 0.22549374774072969 0.58452645269293457 0 0.18381867841758909 0.57774125163628387 0 0.26573297623774761 0.59828298563722948 0 0.22549374774072969 0.58452645269293457 0 0.25115337790845271 0.54719303014923271 0 0.20050006573841939 0.53248514016039872 0 0.25115337790845271 0.54719303014923271 0 0.22549374774072969 0.58452645269293457 0 0.20050006573841939 0.53248514016039872 0 0.23975172658309729 0.49475499200540818 0 0.25115337790845271 0.54719303014923271 0 0.20050006573841939 0.53248514016039872 0 0.16618607197337229 0.50652878253548905 0 0.19604738184454831 0.47787523520405789 0 0.20050006573841939 0.53248514016039872 0 0.19604738184454831 0.47787523520405789 0 0.23975172658309729 0.49475499200540818 0 0.20050006573841939 0.53248514016039872 0 0.18381867841758909 0.57774125163628387 0 0.14934928745814749 0.55042914607228977 0 0.20050006573841939 0.53248514016039872 0 0.14934928745814749 0.55042914607228977 0 0.16618607197337229 0.50652878253548905 0 0.1216098864341134 0.50637075089503902 0 0.16618607197337229 0.50652878253548905 0 0.14934928745814749 0.55042914607228977 0 0.1154888278694548 0.56733818459978413 0 0.1216098864341134 0.50637075089503902 0 0.14934928745814749 0.55042914607228977 0 0.15720202157091859 0.60665697304410315 0 0.1154888278694548 0.56733818459978413 0 0.14934928745814749 0.55042914607228977 0 0.15720202157091859 0.60665697304410315 0 0.1024350934457823 0.60772393977513839 0 0.1154888278694548 0.56733818459978413 0 0.15720202157091859 0.60665697304410315 0 0.1241190223511371 0.64391885572885044 0 0.1024350934457823 0.60772393977513839 0 0.18381867841758909 0.57774125163628387 0 0.19914261668318661 0.62286739485272158 0 0.15720202157091859 0.60665697304410315 0 0.15720202157091859 0.60665697304410315 0 0.14934928745814749 0.55042914607228977 0 0.18381867841758909 0.57774125163628387 0 0.15000000000062411 1 0 0.10000000000041601 1 0 0.10266856499240549 0.95548163909968886 0 0.083411279318375747 0.91030024466934134 0 0.10266856499240549 0.95548163909968886 0 0.053064897599294662 0.95186845269532028 0 0.050000000000207989 1 0 0.053064897599294662 0.95186845269532028 0 0.10000000000041601 1 0 0.10000000000041601 1 0 0.053064897599294662 0.95186845269532028 0 0.10266856499240549 0.95548163909968886 0 0.050000000000207989 1 0 0.025766224399875661 0.97546711317377799 0 0.053064897599294662 0.95186845269532028 0 0 1 0 0.025766224399875661 0.97546711317377799 0 0.050000000000207989 1 0 0 1 0 0 0.94999999999979179 0 0.025766224399875661 0.97546711317377799 0 0 0.94999999999979179 0 0.053064897599294662 0.95186845269532028 0 0.025766224399875661 0.97546711317377799 0 0 0.94999999999979179 0 0.0443105827531413 0.89858748162559932 0 0.053064897599294662 0.95186845269532028 0 0.083411279318375747 0.91030024466934134 0 0.053064897599294662 0.95186845269532028 0 0.0443105827531413 0.89858748162559932 0 0 0.94999999999979179 0 0 0.89999999999958358 0 0.0443105827531413 0.89858748162559932 0 0 0.89999999999958358 0 0 0.84999999999965292 0 0.0443105827531413 0.89858748162559932 0 0.083411279318375747 0.91030024466934134 0 0.0443105827531413 0.89858748162559932 0 0.065374659239661639 0.8551091961254178 0 0.083411279318375747 0.91030024466934134 0 0.065374659239661639 0.8551091961254178 0 0.10562472963403439 0.87143394428979881 0 0.083411279318375747 0.91030024466934134 0 0.1241151115713819 0.9045666525468371 0 0.10266856499240549 0.95548163909968886 0 0.14617343800780541 0.93808063414349496 0 0.10266856499240549 0.95548163909968886 0 0.1241151115713819 0.9045666525468371 0 0.14474682429600511 0.85524784522713515 0 0.1241151115713819 0.9045666525468371 0 0.10562472963403439 0.87143394428979881 0 0.083411279318375747 0.91030024466934134 0 0.10562472963403439 0.87143394428979881 0 0.1241151115713819 0.9045666525468371 0 0.14474682429600511 0.85524784522713515 0 0.10562472963403439 0.87143394428979881 0 0.1074251789111534 0.83564394292147814 0 0.083105206071452636 0.79992298667296435 0 0.1074251789111534 0.83564394292147814 0 0.065374659239661639 0.8551091961254178 0 0.065374659239661639 0.8551091961254178 0 0.1074251789111534 0.83564394292147814 0 0.10562472963403439 0.87143394428979881 0 0 0.84999999999965292 0 0.038512288486097702 0.8155852717111195 0 0.065374659239661639 0.8551091961254178 0 0 0.84999999999965292 0 0.065374659239661639 0.8551091961254178 0 0.0443105827531413 0.89858748162559932 0 0 0.84999999999965292 0 0 0.79999999999999982 0 0.038512288486097702 0.8155852717111195 0 0.083105206071452636 0.79992298667296435 0 0.065374659239661639 0.8551091961254178 0 0.038512288486097702 0.8155852717111195 0 0.083105206071452636 0.79992298667296435 0 0.038512288486097702 0.8155852717111195 0 0.04408157711937423 0.7728941757575627 0 0 0.79999999999999982 0 0.04408157711937423 0.7728941757575627 0 0.038512288486097702 0.8155852717111195 0 0 0.79999999999999982 0 0 0.75000000000034661 0 0.04408157711937423 0.7728941757575627 0 0.049706944316475897 0.72477277076253799 0 0.090953281884486245 0.7564451946902494 0 0.04408157711937423 0.7728941757575627 0 0.083105206071452636 0.79992298667296435 0 0.04408157711937423 0.7728941757575627 0 0.090953281884486245 0.7564451946902494 0 0.083105206071452636 0.79992298667296435 0 0.1382744753146134 0.79650574229207483 0 0.1074251789111534 0.83564394292147814 0 0.083105206071452636 0.79992298667296435 0 0.090953281884486245 0.7564451946902494 0 0.1382744753146134 0.79650574229207483 0 0.1382744753146134 0.79650574229207483 0 0.090953281884486245 0.7564451946902494 0 0.14335651144331049 0.75565258250209677 0 0.18269480424590959 0.75905448272264375 0 0.1382744753146134 0.79650574229207483 0 0.14335651144331049 0.75565258250209677 0 0.18269480424590959 0.75905448272264375 0 0.17777405986036951 0.81832336108265358 0 0.1382744753146134 0.79650574229207483 0 0.18269480424590959 0.75905448272264375 0 0.2248999640082178 0.72584299459689172 0 0.22556077506376701 0.77837424984191617 0 0.21858834311891909 0.81980263716112767 0 0.22556077506376701 0.77837424984191617 0 0.26104540868854792 0.81401944968719064 0 0.21858834311891909 0.81980263716112767 0 0.17777405986036951 0.81832336108265358 0 0.22556077506376701 0.77837424984191617 0 0.18269480424590959 0.75905448272264375 0 0.22556077506376701 0.77837424984191617 0 0.17777405986036951 0.81832336108265358 0 0.21858834311891909 0.81980263716112767 0 0.19741632902693801 0.86755867406447229 0 0.17777405986036951 0.81832336108265358 0 0.21858834311891909 0.81980263716112767 0 0.26104540868854792 0.81401944968719064 0 0.2401283238295133 0.85648409884788523 0 0.21858834311891909 0.81980263716112767 0 0.2401283238295133 0.85648409884788523 0 0.19741632902693801 0.86755867406447229 0 0.14474682429600511 0.85524784522713515 0 0.17777405986036951 0.81832336108265358 0 0.19741632902693801 0.86755867406447229 0 0.14474682429600511 0.85524784522713515 0 0.19741632902693801 0.86755867406447229 0 0.16206583317966519 0.89685560785156404 0 0.14474682429600511 0.85524784522713515 0 0.1382744753146134 0.79650574229207483 0 0.17777405986036951 0.81832336108265358 0 0.14474682429600511 0.85524784522713515 0 0.1074251789111534 0.83564394292147814 0 0.1382744753146134 0.79650574229207483 0 0.14474682429600511 0.85524784522713515 0 0.16206583317966519 0.89685560785156404 0 0.1241151115713819 0.9045666525468371 0 0.14617343800780541 0.93808063414349496 0 0.1241151115713819 0.9045666525468371 0 0.16206583317966519 0.89685560785156404 0 0.19901705110390991 0.9175543425573498 0 0.14617343800780541 0.93808063414349496 0 0.16206583317966519 0.89685560785156404 0 0.19901705110390991 0.9175543425573498 0 0.16206583317966519 0.89685560785156404 0 0.19741632902693801 0.86755867406447229 0 0.19901705110390991 0.9175543425573498 0 0.19741632902693801 0.86755867406447229 0 0.24536017905392571 0.90704567837671446 0 0.19741632902693801 0.86755867406447229 0 0.2401283238295133 0.85648409884788523 0 0.24536017905392571 0.90704567837671446 0 0.19901705110390991 0.9175543425573498 0 0.24536017905392571 0.90704567837671446 0 0.22850979588452081 0.95594428570238643 0 0.19901705110390991 0.9175543425573498 0 0.22850979588452081 0.95594428570238643 0 0.18474005699953849 0.96231585248064622 0 0.27609987656793722 0.94991445621608572 0 0.22850979588452081 0.95594428570238643 0 0.24536017905392571 0.90704567837671446 0 0.25000000000104028 1 0 0.20000000000083221 1 0 0.22850979588452081 0.95594428570238643 0 0.20000000000083221 1 0 0.18474005699953849 0.96231585248064622 0 0.22850979588452081 0.95594428570238643 0 0.20000000000083221 1 0 0.15000000000062411 1 0 0.18474005699953849 0.96231585248064622 0 0.19901705110390991 0.9175543425573498 0 0.18474005699953849 0.96231585248064622 0 0.14617343800780541 0.93808063414349496 0 0.15000000000062411 1 0 0.14617343800780541 0.93808063414349496 0 0.18474005699953849 0.96231585248064622 0 0.15000000000062411 1 0 0.10266856499240549 0.95548163909968886 0 0.14617343800780541 0.93808063414349496 0 0.35000000000145642 1 0 0.32544832635163229 0.95485394099568932 0 0.36184234618600131 0.96443954459096326 0 0.40000000000166441 1 0 0.35000000000145642 1 0 0.36184234618600131 0.96443954459096326 0 0.35752321586431363 0.9185439911803448 0 0.36184234618600131 0.96443954459096326 0 0.32544832635163229 0.95485394099568932 0 0.35752321586431363 0.9185439911803448 0 0.39641108128798319 0.94356127926187128 0 0.36184234618600131 0.96443954459096326 0 0.35000000000145642 1 0 0.30000000000124832 1 0 0.32544832635163229 0.95485394099568932 0 0.30000000000124832 1 0 0.25000000000104028 1 0 0.27609987656793722 0.94991445621608572 0 0.25000000000104028 1 0 0.22850979588452081 0.95594428570238643 0 0.27609987656793722 0.94991445621608572 0 0.30000000000124832 1 0 0.27609987656793722 0.94991445621608572 0 0.32544832635163229 0.95485394099568932 0 0.27609987656793722 0.94991445621608572 0 0.30864387279288652 0.89906554525974958 0 0.32544832635163229 0.95485394099568932 0 0.27270076654418179 0.87751467830216623 0 0.30864387279288652 0.89906554525974958 0 0.24536017905392571 0.90704567837671446 0 0.27609987656793722 0.94991445621608572 0 0.24536017905392571 0.90704567837671446 0 0.30864387279288652 0.89906554525974958 0 0.27270076654418179 0.87751467830216623 0 0.24536017905392571 0.90704567837671446 0 0.2401283238295133 0.85648409884788523 0 0.35752321586431363 0.9185439911803448 0 0.30864387279288652 0.89906554525974958 0 0.35864759629805099 0.87963482415279515 0 0.35752321586431363 0.9185439911803448 0 0.32544832635163229 0.95485394099568932 0 0.30864387279288652 0.89906554525974958 0 0.35752321586431363 0.9185439911803448 0 0.35864759629805099 0.87963482415279515 0 0.39767323751400468 0.89584229130535065 0 0.35864759629805099 0.87963482415279515 0 0.33403534827021109 0.84402799729020661 0 0.39536230704883951 0.84069429572832477 0 0.33403534827021109 0.84402799729020661 0 0.35642984951668422 0.80994399665655703 0 0.39536230704883951 0.84069429572832477 0 0.33403534827021109 0.84402799729020661 0 0.30857225866488791 0.81101973481716805 0 0.35642984951668422 0.80994399665655703 0 0.33403534827021109 0.84402799729020661 0 0.35864759629805099 0.87963482415279515 0 0.30864387279288652 0.89906554525974958 0 0.33403534827021109 0.84402799729020661 0 0.30864387279288652 0.89906554525974958 0 0.29209212897034281 0.84715728365233667 0 0.27270076654418179 0.87751467830216623 0 0.29209212897034281 0.84715728365233667 0 0.30864387279288652 0.89906554525974958 0 0.27270076654418179 0.87751467830216623 0 0.2401283238295133 0.85648409884788523 0 0.29209212897034281 0.84715728365233667 0 0.26104540868854792 0.81401944968719064 0 0.29209212897034281 0.84715728365233667 0 0.2401283238295133 0.85648409884788523 0 0.26104540868854792 0.81401944968719064 0 0.30857225866488791 0.81101973481716805 0 0.29209212897034281 0.84715728365233667 0 0.33403534827021109 0.84402799729020661 0 0.29209212897034281 0.84715728365233667 0 0.30857225866488791 0.81101973481716805 0 0.26104540868854792 0.81401944968719064 0 0.2792923945214143 0.77665808831789485 0 0.30857225866488791 0.81101973481716805 0 0.33123028043633618 0.77629643437932982 0 0.30857225866488791 0.81101973481716805 0 0.2792923945214143 0.77665808831789485 0 0.26104540868854792 0.81401944968719064 0 0.22556077506376701 0.77837424984191617 0 0.2792923945214143 0.77665808831789485 0 0.25676291524611189 0.7436741304886243 0 0.29904318922293632 0.74132814928635593 0 0.2792923945214143 0.77665808831789485 0 0.25676291524611189 0.7436741304886243 0 0.2792923945214143 0.77665808831789485 0 0.22556077506376701 0.77837424984191617 0 0.33123028043633618 0.77629643437932982 0 0.2792923945214143 0.77665808831789485 0 0.29904318922293632 0.74132814928635593 0 0.33123028043633618 0.77629643437932982 0 0.29904318922293632 0.74132814928635593 0 0.35415581127540569 0.73730480045900215 0 0.33123028043633618 0.77629643437932982 0 0.35642984951668422 0.80994399665655703 0 0.30857225866488791 0.81101973481716805 0 0.33123028043633618 0.77629643437932982 0 0.38586766253264881 0.78219501014812498 0 0.35642984951668422 0.80994399665655703 0 0.33123028043633618 0.77629643437932982 0 0.35415581127540569 0.73730480045900215 0 0.38586766253264881 0.78219501014812498 0 0.40326160981139969 0.73346192995102844 0 0.42676259796334498 0.76772545931379299 0 0.38586766253264881 0.78219501014812498 0 0.40326160981139969 0.73346192995102844 0 0.38586766253264881 0.78219501014812498 0 0.35415581127540569 0.73730480045900215 0 0.39536230704883951 0.84069429572832477 0 0.38586766253264881 0.78219501014812498 0 0.42609163930740518 0.80361684430568059 0 0.39536230704883951 0.84069429572832477 0 0.35642984951668422 0.80994399665655703 0 0.38586766253264881 0.78219501014812498 0 0.38586766253264881 0.78219501014812498 0 0.42676259796334498 0.76772545931379299 0 0.42609163930740518 0.80361684430568059 0 0.4656888918609538 0.78493261229743638 0 0.42676259796334498 0.76772545931379299 0 0.45582236402875981 0.73896743678908217 0 0.4656888918609538 0.78493261229743638 0 0.45582236402875981 0.73896743678908217 0 0.50945740445113552 0.75476055527778108 0 0.4656888918609538 0.78493261229743638 0 0.50945740445113552 0.75476055527778108 0 0.50731287292894423 0.78963574450233831 0 0.4656888918609538 0.78493261229743638 0 0.50731287292894423 0.78963574450233831 0 0.50627822638148745 0.8263979829520941 0 0.4656888918609538 0.78493261229743638 0 0.45677673713123867 0.84253684404072415 0 0.42609163930740518 0.80361684430568059 0 0.4656888918609538 0.78493261229743638 0 0.42609163930740518 0.80361684430568059 0 0.42676259796334498 0.76772545931379299 0 0.4656888918609538 0.78493261229743638 0 0.50627822638148745 0.8263979829520941 0 0.45677673713123867 0.84253684404072415 0 0.50202631463681879 0.87892870825713787 0 0.45677673713123867 0.84253684404072415 0 0.50627822638148745 0.8263979829520941 0 0.50202631463681879 0.87892870825713787 0 0.44003836461056539 0.88093474584252718 0 0.45677673713123867 0.84253684404072415 0 0.39536230704883951 0.84069429572832477 0 0.45677673713123867 0.84253684404072415 0 0.44003836461056539 0.88093474584252718 0 0.39536230704883951 0.84069429572832477 0 0.44003836461056539 0.88093474584252718 0 0.39767323751400468 0.89584229130535065 0 0.39536230704883951 0.84069429572832477 0 0.42609163930740518 0.80361684430568059 0 0.45677673713123867 0.84253684404072415 0 0.39536230704883951 0.84069429572832477 0 0.39767323751400468 0.89584229130535065 0 0.35864759629805099 0.87963482415279515 0 0.35752321586431363 0.9185439911803448 0 0.39767323751400468 0.89584229130535065 0 0.39641108128798319 0.94356127926187128 0 0.4367309254023824 0.92065556789053882 0 0.39641108128798319 0.94356127926187128 0 0.39767323751400468 0.89584229130535065 0 0.4367309254023824 0.92065556789053882 0 0.39767323751400468 0.89584229130535065 0 0.44003836461056539 0.88093474584252718 0 0.4367309254023824 0.92065556789053882 0 0.44003836461056539 0.88093474584252718 0 0.47401147028110507 0.91529957330468115 0 0.50202631463681879 0.87892870825713787 0 0.47401147028110507 0.91529957330468115 0 0.44003836461056539 0.88093474584252718 0 0.52122150208832174 0.94089974453840242 0 0.47135117303824892 0.95556877749289892 0 0.47401147028110507 0.91529957330468115 0 0.50202631463681879 0.87892870825713787 0 0.52122150208832174 0.94089974453840242 0 0.47401147028110507 0.91529957330468115 0 0.4367309254023824 0.92065556789053882 0 0.47401147028110507 0.91529957330468115 0 0.47135117303824892 0.95556877749289892 0 0.4367309254023824 0.92065556789053882 0 0.47135117303824892 0.95556877749289892 0 0.4308986359464303 0.96395712492906194 0 0.50000000000205869 1 0 0.47135117303824892 0.95556877749289892 0 0.52122150208832174 0.94089974453840242 0 0.50000000000205869 1 0 0.45000000000187229 1 0 0.47135117303824892 0.95556877749289892 0 0.45000000000187229 1 0 0.4308986359464303 0.96395712492906194 0 0.47135117303824892 0.95556877749289892 0 0.45000000000187229 1 0 0.40000000000166441 1 0 0.4308986359464303 0.96395712492906194 0 0.40000000000166441 1 0 0.39641108128798319 0.94356127926187128 0 0.4308986359464303 0.96395712492906194 0 0.4367309254023824 0.92065556789053882 0 0.4308986359464303 0.96395712492906194 0 0.39641108128798319 0.94356127926187128 0 0.40000000000166441 1 0 0.36184234618600131 0.96443954459096326 0 0.39641108128798319 0.94356127926187128 0 0.33122374654748771 0.57588941099433744 0 0.35765792684946668 0.6000687869219653 0 0.31502927232353312 0.6134992213375432 0 0.35864735590330371 0.63903383440414463 0 0.31502927232353312 0.6134992213375432 0 0.35765792684946668 0.6000687869219653 0 0.35864735590330371 0.63903383440414463 0 0.35765792684946668 0.6000687869219653 0 0.39743091024207589 0.6239520004230239 0 0.33122374654748771 0.57588941099433744 0 0.37272913873093971 0.56192925302619479 0 0.35765792684946668 0.6000687869219653 0 0.38244435121258652 0.51653317813019495 0 0.37272913873093971 0.56192925302619479 0 0.33190227185843768 0.52715113583864037 0 0.33122374654748771 0.57588941099433744 0 0.33190227185843768 0.52715113583864037 0 0.37272913873093971 0.56192925302619479 0 0.38244435121258652 0.51653317813019495 0 0.33190227185843768 0.52715113583864037 0 0.35024835142131061 0.48654922671676981 0 0.33122374654748771 0.57588941099433744 0 0.29110487519241501 0.56588143995431495 0 0.33190227185843768 0.52715113583864037 0 0.28307294598219601 0.50789252727458634 0 0.33190227185843768 0.52715113583864037 0 0.29110487519241501 0.56588143995431495 0 0.31068898841644388 0.47541502461811092 0 0.33190227185843768 0.52715113583864037 0 0.28307294598219601 0.50789252727458634 0 0.28307294598219601 0.50789252727458634 0 0.25115337790845271 0.54719303014923271 0 0.23975172658309729 0.49475499200540818 0 0.28307294598219601 0.50789252727458634 0 0.29110487519241501 0.56588143995431495 0 0.25115337790845271 0.54719303014923271 0 0.26573297623774761 0.59828298563722948 0 0.25115337790845271 0.54719303014923271 0 0.29110487519241501 0.56588143995431495 0 0.33122374654748771 0.57588941099433744 0 0.31502927232353312 0.6134992213375432 0 0.29110487519241501 0.56588143995431495 0 0.26573297623774761 0.59828298563722948 0 0.29110487519241501 0.56588143995431495 0 0.31502927232353312 0.6134992213375432 0 0.26573297623774761 0.59828298563722948 0 0.31502927232353312 0.6134992213375432 0 0.27820712747429932 0.65530134213254643 0 0.26573297623774761 0.59828298563722948 0 0.27820712747429932 0.65530134213254643 0 0.2459498854893499 0.63248470766216769 0 0.2236846579037573 0.67380363126050236 0 0.27820712747429932 0.65530134213254643 0 0.26439878998046262 0.7048065392091396 0 0.31378396441836959 0.70157213313026345 0 0.27820712747429932 0.65530134213254643 0 0.32263089806001177 0.66003674931826484 0 0.31378396441836959 0.70157213313026345 0 0.26439878998046262 0.7048065392091396 0 0.27820712747429932 0.65530134213254643 0 0.27820712747429932 0.65530134213254643 0 0.31502927232353312 0.6134992213375432 0 0.32263089806001177 0.66003674931826484 0 0.25676291524611189 0.7436741304886243 0 0.26439878998046262 0.7048065392091396 0 0.29904318922293632 0.74132814928635593 0 0.31378396441836959 0.70157213313026345 0 0.29904318922293632 0.74132814928635593 0 0.26439878998046262 0.7048065392091396 0 0.31378396441836959 0.70157213313026345 0 0.35415581127540569 0.73730480045900215 0 0.29904318922293632 0.74132814928635593 0 0.31378396441836959 0.70157213313026345 0 0.36622285152418499 0.69092437780804039 0 0.35415581127540569 0.73730480045900215 0 0.40326160981139969 0.73346192995102844 0 0.35415581127540569 0.73730480045900215 0 0.36622285152418499 0.69092437780804039 0 0.35864735590330371 0.63903383440414463 0 0.32263089806001177 0.66003674931826484 0 0.31502927232353312 0.6134992213375432 0 0.31378396441836959 0.70157213313026345 0 0.32263089806001177 0.66003674931826484 0 0.36622285152418499 0.69092437780804039 0 0.35864735590330371 0.63903383440414463 0 0.36622285152418499 0.69092437780804039 0 0.32263089806001177 0.66003674931826484 0 0.35864735590330371 0.63903383440414463 0 0.3977710372045391 0.65868194622830212 0 0.36622285152418499 0.69092437780804039 0 0.35864735590330371 0.63903383440414463 0 0.39743091024207589 0.6239520004230239 0 0.3977710372045391 0.65868194622830212 0 0.36622285152418499 0.69092437780804039 0 0.3977710372045391 0.65868194622830212 0 0.43323420005758778 0.6913544522562407 0 0.43846182030517877 0.64845797726506715 0 0.43323420005758778 0.6913544522562407 0 0.3977710372045391 0.65868194622830212 0 0.43846182030517877 0.64845797726506715 0 0.39743091024207589 0.6239520004230239 0 0.43545892161006339 0.61093128915313821 0 0.43846182030517877 0.64845797726506715 0 0.3977710372045391 0.65868194622830212 0 0.39743091024207589 0.6239520004230239 0 0.40326160981139969 0.73346192995102844 0 0.36622285152418499 0.69092437780804039 0 0.43323420005758778 0.6913544522562407 0 0.40326160981139969 0.73346192995102844 0 0.43323420005758778 0.6913544522562407 0 0.45582236402875981 0.73896743678908217 0 0.40326160981139969 0.73346192995102844 0 0.45582236402875981 0.73896743678908217 0 0.42676259796334498 0.76772545931379299 0 0.5 0.69999999999999996 0 0.45582236402875981 0.73896743678908217 0 0.43323420005758778 0.6913544522562407 0 0.5 0.69999999999999996 0 0.50945740445113552 0.75476055527778108 0 0.45582236402875981 0.73896743678908217 0 0.5 0.69999999999999996 0 0.43323420005758778 0.6913544522562407 0 0.47913475093885149 0.66010775372412711 0 0.43846182030517877 0.64845797726506715 0 0.47095389620662098 0.61892551373708504 0 0.47913475093885149 0.66010775372412711 0 0.43846182030517877 0.64845797726506715 0 0.43545892161006339 0.61093128915313821 0 0.47095389620662098 0.61892551373708504 0 0.43846182030517877 0.64845797726506715 0 0.47913475093885149 0.66010775372412711 0 0.43323420005758778 0.6913544522562407 0 0.50715858906372158 0.63295939104129484 0 0.47913475093885149 0.66010775372412711 0 0.47095389620662098 0.61892551373708504 0 0.50715858906372158 0.63295939104129484 0 0.47095389620662098 0.61892551373708504 0 0.5166924242153631 0.59825134841919447 0 0.46666084890304671 0.57634471035397938 0 0.5166924242153631 0.59825134841919447 0 0.47095389620662098 0.61892551373708504 0 0.46666084890304671 0.57634471035397938 0 0.47095389620662098 0.61892551373708504 0 0.43545892161006339 0.61093128915313821 0 0.4089290844030305 0.58728915500154233 0 0.43545892161006339 0.61093128915313821 0 0.39743091024207589 0.6239520004230239 0 0.43545892161006339 0.61093128915313821 0 0.4089290844030305 0.58728915500154233 0 0.46666084890304671 0.57634471035397938 0 0.4089290844030305 0.58728915500154233 0 0.42644501560315817 0.54603747078095544 0 0.46666084890304671 0.57634471035397938 0 0.4089290844030305 0.58728915500154233 0 0.37272913873093971 0.56192925302619479 0 0.42644501560315817 0.54603747078095544 0 0.4089290844030305 0.58728915500154233 0 0.35765792684946668 0.6000687869219653 0 0.37272913873093971 0.56192925302619479 0 0.4089290844030305 0.58728915500154233 0 0.39743091024207589 0.6239520004230239 0 0.35765792684946668 0.6000687869219653 0 0.38244435121258652 0.51653317813019495 0 0.42644501560315817 0.54603747078095544 0 0.37272913873093971 0.56192925302619479 0 0.38244435121258652 0.51653317813019495 0 0.43507373378304309 0.49699695397193322 0 0.42644501560315817 0.54603747078095544 0 0.46666084890304671 0.57634471035397938 0 0.47793794143994173 0.52940715638744962 0 0.53245488764484505 0.55078124999999989 0 0.49102375406324739 0.49123754822244059 0 0.47793794143994173 0.52940715638744962 0 0.43507373378304309 0.49699695397193322 0 0.43507373378304309 0.49699695397193322 0 0.47793794143994173 0.52940715638744962 0 0.42644501560315817 0.54603747078095544 0 0.46666084890304671 0.57634471035397938 0 0.42644501560315817 0.54603747078095544 0 0.47793794143994173 0.52940715638744962 0 0.49102375406324739 0.49123754822244059 0 0.53330375813596242 0.50827942741749099 0 0.47793794143994173 0.52940715638744962 0 0.53245488764484505 0.55078124999999989 0 0.47793794143994173 0.52940715638744962 0 0.53330375813596242 0.50827942741749099 0 0.53245488764484505 0.55078124999999989 0 0.53330375813596242 0.50827942741749099 0 0.57435499076887508 0.54267261987897775 0 0.57412547362576272 0.58273804879550706 0 0.53245488764484505 0.55078124999999989 0 0.57435499076887508 0.54267261987897775 0 0.57611405284611883 0.50165903596042916 0 0.57435499076887508 0.54267261987897775 0 0.53330375813596242 0.50827942741749099 0 0.57611405284611883 0.50165903596042916 0 0.62042975506801734 0.54295974692364424 0 0.57435499076887508 0.54267261987897775 0 0.57412547362576272 0.58273804879550706 0 0.57435499076887508 0.54267261987897775 0 0.62042975506801734 0.54295974692364424 0 0.57611405284611883 0.50165903596042916 0 0.61547661924074692 0.48539576058873962 0 0.62042975506801734 0.54295974692364424 0 0.6405463747586706 0.63290524857395714 0 0.5991018319127801 0.62925360607495295 0 0.63065402604362242 0.59661356661633302 0 0.57412547362576272 0.58273804879550706 0 0.63065402604362242 0.59661356661633302 0 0.5991018319127801 0.62925360607495295 0 0.57412547362576272 0.58273804879550706 0 0.62042975506801734 0.54295974692364424 0 0.63065402604362242 0.59661356661633302 0 0.57412547362576272 0.58273804879550706 0 0.5991018319127801 0.62925360607495295 0 0.5498280205245758 0.6290146943450976 0 0.46666084890304671 0.57634471035397938 0 0.53245488764484505 0.55078124999999989 0 0.5166924242153631 0.59825134841919447 0 0.57412547362576272 0.58273804879550706 0 0.5498280205245758 0.6290146943450976 0 0.5166924242153631 0.59825134841919447 0 0.57412547362576272 0.58273804879550706 0 0.5166924242153631 0.59825134841919447 0 0.53245488764484505 0.55078124999999989 0 0.50715858906372158 0.63295939104129484 0 0.5166924242153631 0.59825134841919447 0 0.5498280205245758 0.6290146943450976 0 0.50715858906372158 0.63295939104129484 0 0.52584555706968406 0.66664215091846768 0 0.47913475093885149 0.66010775372412711 0 0.50715858906372158 0.63295939104129484 0 0.5498280205245758 0.6290146943450976 0 0.52584555706968406 0.66664215091846768 0 0.5 0.69999999999999996 0 0.47913475093885149 0.66010775372412711 0 0.52584555706968406 0.66664215091846768 0 0.54999999999999993 0.69999999999999996 0 0.52584555706968406 0.66664215091846768 0 0.57484956128872922 0.66573805030881994 0 0.57484956128872922 0.66573805030881994 0 0.52584555706968406 0.66664215091846768 0 0.5498280205245758 0.6290146943450976 0 0.50945740445113552 0.75476055527778108 0 0.5 0.69999999999999996 0 0.55363780716230748 0.74348740161571747 0 0.5 0.69999999999999996 0 0.52584555706968406 0.66664215091846768 0 0.54999999999999993 0.69999999999999996 0 0.5 0.69999999999999996 0 0.54999999999999993 0.69999999999999996 0 0.5 0.69999999999999996 0 0.54999999999999993 0.69999999999999996 0 0.55363780716230748 0.74348740161571747 0 0.59999999999999976 0.69999999999999996 0 0.59636844454254345 0.75937156204589151 0 0.55363780716230748 0.74348740161571747 0 0.54999999999999993 0.69999999999999996 0 0.59999999999999976 0.69999999999999996 0 0.54999999999999993 0.69999999999999996 0 0.57484956128872922 0.66573805030881994 0 0.59999999999999976 0.69999999999999996 0 0.54999999999999993 0.69999999999999996 0 0.59999999999999976 0.69999999999999996 0 0.55363780716230748 0.74348740161571747 0 0.59999999999999976 0.69999999999999996 0 0.6499999999999998 0.69999999999999996 0 0.59999999999999976 0.69999999999999996 0 0.62460753523532009 0.66851202781000296 0 0.6499999999999998 0.69999999999999996 0 0.59999999999999976 0.69999999999999996 0 0.63221990677827677 0.73442891067859706 0 0.59636844454254345 0.75937156204589151 0 0.57484956128872922 0.66573805030881994 0 0.5498280205245758 0.6290146943450976 0 0.5991018319127801 0.62925360607495295 0 0.59999999999999976 0.69999999999999996 0 0.57484956128872922 0.66573805030881994 0 0.62460753523532009 0.66851202781000296 0 0.57484956128872922 0.66573805030881994 0 0.5991018319127801 0.62925360607495295 0 0.62460753523532009 0.66851202781000296 0 0.6405463747586706 0.63290524857395714 0 0.62460753523532009 0.66851202781000296 0 0.5991018319127801 0.62925360607495295 0 0.6405463747586706 0.63290524857395714 0 0.675261390228442 0.65996937624687813 0 0.62460753523532009 0.66851202781000296 0 0.6499999999999998 0.69999999999999996 0 0.62460753523532009 0.66851202781000296 0 0.675261390228442 0.65996937624687813 0 0.6499999999999998 0.69999999999999996 0 0.675261390228442 0.65996937624687813 0 0.69999999999999984 0.69999999999999996 0 0.6405463747586706 0.63290524857395714 0 0.67529834988829951 0.61613270668143583 0 0.675261390228442 0.65996937624687813 0 0.64753070846764316 0.77332939069435502 0 0.63221990677827677 0.73442891067859706 0 0.66427993341343905 0.73232764502436276 0 0.6499999999999998 0.69999999999999996 0 0.66427993341343905 0.73232764502436276 0 0.63221990677827677 0.73442891067859706 0 0.59999999999999976 0.69999999999999996 0 0.6499999999999998 0.69999999999999996 0 0.63221990677827677 0.73442891067859706 0 0.6499999999999998 0.69999999999999996 0 0.69999999999999984 0.69999999999999996 0 0.6499999999999998 0.69999999999999996 0 0.69999999999999984 0.69999999999999996 0 0.66427993341343905 0.73232764502436276 0 0.69999999999999984 0.69999999999999996 0 0.6916490518212759 0.75387992374886192 0 0.66427993341343905 0.73232764502436276 0 0.69999999999999984 0.69999999999999996 0 0.72501250972655151 0.74067302935308721 0 0.6916490518212759 0.75387992374886192 0 0.69999999999999984 0.69999999999999996 0 0.74999999999999989 0.69999999999999996 0 0.72501250972655151 0.74067302935308721 0 0.69999999999999984 0.69999999999999996 0 0.72500000000000064 0.67022701834392062 0 0.74999999999999989 0.69999999999999996 0 0.69999999999999984 0.69999999999999996 0 0.74999999999999989 0.69999999999999996 0 0.74999999999999989 0.69999999999999996 0 0.75841349681148107 0.75422312624214749 0 0.72501250972655151 0.74067302935308721 0 0.71406021706547751 0.63292083137662503 0 0.72500000000000064 0.67022701834392062 0 0.675261390228442 0.65996937624687813 0 0.71406021706547751 0.63292083137662503 0 0.675261390228442 0.65996937624687813 0 0.67529834988829951 0.61613270668143583 0 0.69999999999999984 0.69999999999999996 0 0.675261390228442 0.65996937624687813 0 0.72500000000000064 0.67022701834392062 0 0.71406021706547751 0.63292083137662503 0 0.74994237037456724 0.62775548192980357 0 0.72500000000000064 0.67022701834392062 0 0.7750489929959945 0.66593931409600093 0 0.72500000000000064 0.67022701834392062 0 0.74994237037456724 0.62775548192980357 0 0.71406021706547751 0.63292083137662503 0 0.71809016091162536 0.58185040402320831 0 0.74994237037456724 0.62775548192980357 0 0.77293540622714185 0.59448302402785813 0 0.74994237037456724 0.62775548192980357 0 0.71809016091162536 0.58185040402320831 0 0.71406021706547751 0.63292083137662503 0 0.67529834988829951 0.61613270668143583 0 0.71809016091162536 0.58185040402320831 0 0.67323294229744413 0.57556450033612505 0 0.67569444444444449 0.53500863336860327 0 0.71809016091162536 0.58185040402320831 0 0.67323294229744413 0.57556450033612505 0 0.71809016091162536 0.58185040402320831 0 0.67529834988829951 0.61613270668143583 0 0.7152569930854884 0.5237994455134295 0 0.77151014687832564 0.54436834383023036 0 0.71809016091162536 0.58185040402320831 0 0.7152569930854884 0.5237994455134295 0 0.73947346780852752 0.49062440112282169 0 0.77151014687832564 0.54436834383023036 0 0.7152569930854884 0.5237994455134295 0 0.67569444444444449 0.53500863336860327 0 0.69385896817107129 0.48377516041410151 0 0.7152569930854884 0.5237994455134295 0 0.71809016091162536 0.58185040402320831 0 0.67569444444444449 0.53500863336860327 0 0.67323294229744413 0.57556450033612505 0 0.62042975506801734 0.54295974692364424 0 0.67569444444444449 0.53500863336860327 0 0.6541250972820879 0.49999999999999989 0 0.69385896817107129 0.48377516041410151 0 0.67569444444444449 0.53500863336860327 0 0.6541250972820879 0.49999999999999989 0 0.67569444444444449 0.53500863336860327 0 0.62042975506801734 0.54295974692364424 0 0.6541250972820879 0.49999999999999989 0 0.62042975506801734 0.54295974692364424 0 0.61547661924074692 0.48539576058873962 0 0.67323294229744413 0.57556450033612505 0 0.63065402604362242 0.59661356661633302 0 0.62042975506801734 0.54295974692364424 0 0.6405463747586706 0.63290524857395714 0 0.63065402604362242 0.59661356661633302 0 0.67529834988829951 0.61613270668143583 0 0.67323294229744413 0.57556450033612505 0 0.67529834988829951 0.61613270668143583 0 0.63065402604362242 0.59661356661633302 0 0.60000000000138687 1 0 0.57382506491224949 0.9629411906298494 0 0.62065498684670595 0.95224934003983619 0 0.65000000000104008 1 0 0.60000000000138687 1 0 0.62065498684670595 0.95224934003983619 0 0.57724883562309992 0.92155686857100794 0 0.62065498684670595 0.95224934003983619 0 0.57382506491224949 0.9629411906298494 0 0.60000000000138687 1 0 0.55000000000173355 1 0 0.57382506491224949 0.9629411906298494 0 0.55000000000173355 1 0 0.50000000000205869 1 0 0.52122150208832174 0.94089974453840242 0 0.57724883562309992 0.92155686857100794 0 0.57382506491224949 0.9629411906298494 0 0.52122150208832174 0.94089974453840242 0 0.55000000000173355 1 0 0.52122150208832174 0.94089974453840242 0 0.57382506491224949 0.9629411906298494 0 0.57724883562309992 0.92155686857100794 0 0.52122150208832174 0.94089974453840242 0 0.54783390826260769 0.89287767010860219 0 0.50202631463681879 0.87892870825713787 0 0.54783390826260769 0.89287767010860219 0 0.52122150208832174 0.94089974453840242 0 0.55899371797446828 0.85003102233514438 0 0.5832743223239254 0.88483152652961872 0 0.54783390826260769 0.89287767010860219 0 0.57724883562309992 0.92155686857100794 0 0.54783390826260769 0.89287767010860219 0 0.5832743223239254 0.88483152652961872 0 0.57724883562309992 0.92155686857100794 0 0.5832743223239254 0.88483152652961872 0 0.61885627562261258 0.90282959257498208 0 0.57724883562309992 0.92155686857100794 0 0.61885627562261258 0.90282959257498208 0 0.62065498684670595 0.95224934003983619 0 0.61343887413683884 0.856862479058357 0 0.61885627562261258 0.90282959257498208 0 0.5832743223239254 0.88483152652961872 0 0.61343887413683884 0.856862479058357 0 0.60294066490120068 0.80851322453934582 0 0.65005442820240822 0.82644988530054031 0 0.61343887413683884 0.856862479058357 0 0.55899371797446828 0.85003102233514438 0 0.60294066490120068 0.80851322453934582 0 0.54782696902220018 0.79245182748204157 0 0.60294066490120068 0.80851322453934582 0 0.55899371797446828 0.85003102233514438 0 0.61343887413683884 0.856862479058357 0 0.5832743223239254 0.88483152652961872 0 0.55899371797446828 0.85003102233514438 0 0.50202631463681879 0.87892870825713787 0 0.55899371797446828 0.85003102233514438 0 0.54783390826260769 0.89287767010860219 0 0.50202631463681879 0.87892870825713787 0 0.50627822638148745 0.8263979829520941 0 0.55899371797446828 0.85003102233514438 0 0.54782696902220018 0.79245182748204157 0 0.55899371797446828 0.85003102233514438 0 0.50627822638148745 0.8263979829520941 0 0.54782696902220018 0.79245182748204157 0 0.50627822638148745 0.8263979829520941 0 0.50731287292894423 0.78963574450233831 0 0.54782696902220018 0.79245182748204157 0 0.50731287292894423 0.78963574450233831 0 0.50945740445113552 0.75476055527778108 0 0.54782696902220018 0.79245182748204157 0 0.50945740445113552 0.75476055527778108 0 0.55363780716230748 0.74348740161571747 0 0.54782696902220018 0.79245182748204157 0 0.55363780716230748 0.74348740161571747 0 0.59636844454254345 0.75937156204589151 0 0.54782696902220018 0.79245182748204157 0 0.59636844454254345 0.75937156204589151 0 0.60294066490120068 0.80851322453934582 0 0.64753070846764316 0.77332939069435502 0 0.60294066490120068 0.80851322453934582 0 0.59636844454254345 0.75937156204589151 0 0.64753070846764316 0.77332939069435502 0 0.59636844454254345 0.75937156204589151 0 0.63221990677827677 0.73442891067859706 0 0.64753070846764316 0.77332939069435502 0 0.65005442820240822 0.82644988530054031 0 0.60294066490120068 0.80851322453934582 0 0.64753070846764316 0.77332939069435502 0 0.68024162096458085 0.79868546898116533 0 0.65005442820240822 0.82644988530054031 0 0.64753070846764316 0.77332939069435502 0 0.6916490518212759 0.75387992374886192 0 0.68024162096458085 0.79868546898116533 0 0.64753070846764316 0.77332939069435502 0 0.66427993341343905 0.73232764502436276 0 0.6916490518212759 0.75387992374886192 0 0.6916490518212759 0.75387992374886192 0 0.72501250972655151 0.74067302935308721 0 0.72500000000000064 0.7952620967744265 0 0.72501250972655151 0.74067302935308721 0 0.75841349681148107 0.75422312624214749 0 0.72500000000000064 0.7952620967744265 0 0.72500000000000064 0.7952620967744265 0 0.68024162096458085 0.79868546898116533 0 0.6916490518212759 0.75387992374886192 0 0.72500000000000064 0.7952620967744265 0 0.68697391633157634 0.84450604838764298 0 0.68024162096458085 0.79868546898116533 0 0.72500000000000064 0.7952620967744265 0 0.72863726579783861 0.85390518901155588 0 0.68697391633157634 0.84450604838764298 0 0.72500000000000064 0.7952620967744265 0 0.76901770135486491 0.84293557325473656 0 0.72863726579783861 0.85390518901155588 0 0.7250000000005199 0.89375000000045834 0 0.68697391633157634 0.84450604838764298 0 0.72863726579783861 0.85390518901155588 0 0.7250000000005199 0.89375000000045834 0 0.66412543161245952 0.88015090885499059 0 0.68697391633157634 0.84450604838764298 0 0.68697391633157634 0.84450604838764298 0 0.66412543161245952 0.88015090885499059 0 0.65005442820240822 0.82644988530054031 0 0.68697391633157634 0.84450604838764298 0 0.65005442820240822 0.82644988530054031 0 0.68024162096458085 0.79868546898116533 0 0.61343887413683884 0.856862479058357 0 0.65005442820240822 0.82644988530054031 0 0.66412543161245952 0.88015090885499059 0 0.61343887413683884 0.856862479058357 0 0.66412543161245952 0.88015090885499059 0 0.61885627562261258 0.90282959257498208 0 0.65507451745379841 0.92229208810758578 0 0.61885627562261258 0.90282959257498208 0 0.66412543161245952 0.88015090885499059 0 0.65507451745379841 0.92229208810758578 0 0.62065498684670595 0.95224934003983619 0 0.61885627562261258 0.90282959257498208 0 0.65507451745379841 0.92229208810758578 0 0.68987011941058407 0.92105047536677087 0 0.68015064798562208 0.95924320340003011 0 0.65507451745379841 0.92229208810758578 0 0.66412543161245952 0.88015090885499059 0 0.68987011941058407 0.92105047536677087 0 0.7250000000005199 0.89375000000045834 0 0.68987011941058407 0.92105047536677087 0 0.66412543161245952 0.88015090885499059 0 0.7250000000005199 0.89375000000045834 0 0.72863726579783861 0.85390518901155588 0 0.76891166905518427 0.88835469571185499 0 0.7250000000005199 0.89375000000045834 0 0.75729602384198635 0.92353652857884294 0 0.7250000000005199 0.94981617647078953 0 0.7250000000005199 0.89375000000045834 0 0.7250000000005199 0.94981617647078953 0 0.68987011941058407 0.92105047536677087 0 0.7250000000005199 0.94981617647078953 0 0.68015064798562208 0.95924320340003011 0 0.68987011941058407 0.92105047536677087 0 0.75000000000034661 1 0 0.7000000000006934 1 0 0.7250000000005199 0.94981617647078953 0 0.75000000000034661 1 0 0.7250000000005199 0.94981617647078953 0 0.770759834363826 0.95919399014344442 0 0.7000000000006934 1 0 0.68015064798562208 0.95924320340003011 0 0.7250000000005199 0.94981617647078953 0 0.7000000000006934 1 0 0.65000000000104008 1 0 0.68015064798562208 0.95924320340003011 0 0.65507451745379841 0.92229208810758578 0 0.68015064798562208 0.95924320340003011 0 0.62065498684670595 0.95224934003983619 0 0.65000000000104008 1 0 0.62065498684670595 0.95224934003983619 0 0.68015064798562208 0.95924320340003011 0 0.84999999999965292 1 0 0.85170973911348691 0.93569607295217616 0 0.89898474358632463 0.95391965591118966 0 0.84999999999965292 1 0 0.81486180804382891 0.96321394949790495 0 0.85170973911348691 0.93569607295217616 0 0.79680861578988083 0.92656778056766709 0 0.85170973911348691 0.93569607295217616 0 0.81486180804382891 0.96321394949790495 0 0.84999999999965292 1 0 0.79999999999999982 1 0 0.81486180804382891 0.96321394949790495 0 0.79999999999999982 1 0 0.770759834363826 0.95919399014344442 0 0.81486180804382891 0.96321394949790495 0 0.79999999999999982 1 0 0.75000000000034661 1 0 0.770759834363826 0.95919399014344442 0 0.7250000000005199 0.94981617647078953 0 0.75729602384198635 0.92353652857884294 0 0.770759834363826 0.95919399014344442 0 0.79680861578988083 0.92656778056766709 0 0.81486180804382891 0.96321394949790495 0 0.770759834363826 0.95919399014344442 0 0.79680861578988083 0.92656778056766709 0 0.75729602384198635 0.92353652857884294 0 0.76891166905518427 0.88835469571185499 0 0.79680861578988083 0.92656778056766709 0 0.770759834363826 0.95919399014344442 0 0.75729602384198635 0.92353652857884294 0 0.7250000000005199 0.89375000000045834 0 0.76891166905518427 0.88835469571185499 0 0.75729602384198635 0.92353652857884294 0 0.79680861578988083 0.92656778056766709 0 0.76891166905518427 0.88835469571185499 0 0.81159157511211755 0.88795995483179491 0 0.85170973911348691 0.93569607295217616 0 0.81159157511211755 0.88795995483179491 0 0.85600844944837662 0.88483418979512773 0 0.79680861578988083 0.92656778056766709 0 0.81159157511211755 0.88795995483179491 0 0.85170973911348691 0.93569607295217616 0 0.90416666666660628 0.9041666666666166 0 0.85170973911348691 0.93569607295217616 0 0.85600844944837662 0.88483418979512773 0 0.82709327591091286 0.84937141670920724 0 0.88088768115933802 0.84674609810493673 0 0.85600844944837662 0.88483418979512773 0 0.82709327591091286 0.84937141670920724 0 0.84725310900444062 0.80779732082917555 0 0.88088768115933802 0.84674609810493673 0 0.82709327591091286 0.84937141670920724 0 0.80041942726660109 0.81543261647703358 0 0.84725310900444062 0.80779732082917555 0 0.82709327591091286 0.84937141670920724 0 0.85600844944837662 0.88483418979512773 0 0.81159157511211755 0.88795995483179491 0 0.76901770135486491 0.84293557325473656 0 0.81159157511211755 0.88795995483179491 0 0.76891166905518427 0.88835469571185499 0 0.82709327591091286 0.84937141670920724 0 0.81159157511211755 0.88795995483179491 0 0.76901770135486491 0.84293557325473656 0 0.76901770135486491 0.84293557325473656 0 0.76891166905518427 0.88835469571185499 0 0.72863726579783861 0.85390518901155588 0 0.76901770135486491 0.84293557325473656 0 0.77094201086366854 0.79647480515688507 0 0.80041942726660109 0.81543261647703358 0 0.82709327591091286 0.84937141670920724 0 0.76901770135486491 0.84293557325473656 0 0.80041942726660109 0.81543261647703358 0 0.80185942888539485 0.77452061303608133 0 0.80041942726660109 0.81543261647703358 0 0.77094201086366854 0.79647480515688507 0 0.72500000000000064 0.7952620967744265 0 0.75841349681148107 0.75422312624214749 0 0.77094201086366854 0.79647480515688507 0 0.72500000000000064 0.7952620967744265 0 0.77094201086366854 0.79647480515688507 0 0.76901770135486491 0.84293557325473656 0 0.80185942888539485 0.77452061303608133 0 0.77094201086366854 0.79647480515688507 0 0.75841349681148107 0.75422312624214749 0 0.80185942888539485 0.77452061303608133 0 0.75841349681148107 0.75422312624214749 0 0.78578450296893509 0.73292684821144505 0 0.80185942888539485 0.77452061303608133 0 0.85491058998424563 0.76004753345552634 0 0.84725310900444062 0.80779732082917555 0 0.80185942888539485 0.77452061303608133 0 0.81864958914779962 0.73589050177899629 0 0.85491058998424563 0.76004753345552634 0 0.80185942888539485 0.77452061303608133 0 0.84725310900444062 0.80779732082917555 0 0.80041942726660109 0.81543261647703358 0 0.90299850604011456 0.79563452813489832 0 0.84725310900444062 0.80779732082917555 0 0.85491058998424563 0.76004753345552634 0 0.90299850604011456 0.79563452813489832 0 0.85491058998424563 0.76004753345552634 0 0.89999166460796554 0.74528934923809909 0 0.90299850604011456 0.79563452813489832 0 0.94399509803918602 0.75600490196082126 0 0.95386563387742829 0.80414874155775029 0 0.90299850604011456 0.79563452813489832 0 0.89999166460796554 0.74528934923809909 0 0.94399509803918602 0.75600490196082126 0 0.94399509803918602 0.75600490196082126 0 0.97435614836745565 0.77499999999987745 0 0.95386563387742829 0.80414874155775029 0 0.94399509803918602 0.75600490196082126 0 0.97166519676947294 0.73337114490064459 0 0.97435614836745565 0.77499999999987745 0 1 0.74999999999993494 0 0.97435614836745565 0.77499999999987745 0 0.97166519676947294 0.73337114490064459 0 1 0.74999999999993494 0 1 0.7999999999998193 0 0.97435614836745565 0.77499999999987745 0 1 0.7999999999998193 0 0.95386563387742829 0.80414874155775029 0 0.97435614836745565 0.77499999999987745 0 1 0.84999999999982645 0 0.95391631417670719 0.89584263333814784 0 0.93677536231884972 0.85000000000000286 0 1 0.84999999999982645 0 0.93677536231884972 0.85000000000000286 0 0.95386563387742829 0.80414874155775029 0 1 0.7999999999998193 0 1 0.84999999999982645 0 0.95386563387742829 0.80414874155775029 0 0.90416666666660628 0.9041666666666166 0 0.88088768115933802 0.84674609810493673 0 0.93677536231884972 0.85000000000000286 0 0.90299850604011456 0.79563452813489832 0 0.95386563387742829 0.80414874155775029 0 0.93677536231884972 0.85000000000000286 0 0.90299850604011456 0.79563452813489832 0 0.93677536231884972 0.85000000000000286 0 0.88088768115933802 0.84674609810493673 0 0.90299850604011456 0.79563452813489832 0 0.88088768115933802 0.84674609810493673 0 0.84725310900444062 0.80779732082917555 0 0.90416666666660628 0.9041666666666166 0 0.85600844944837662 0.88483418979512773 0 0.88088768115933802 0.84674609810493673 0 0.90416666666660628 0.9041666666666166 0 0.89898474358632463 0.95391965591118966 0 0.85170973911348691 0.93569607295217616 0 0.90416666666660628 0.9041666666666166 0 0.95391631417670719 0.89584263333814784 0 0.94399509803919068 0.9439950980391687 0 0.90416666666660628 0.9041666666666166 0 0.94399509803919068 0.9439950980391687 0 0.89898474358632463 0.95391965591118966 0 0.90416666666660628 0.9041666666666166 0 0.93677536231884972 0.85000000000000286 0 0.95391631417670719 0.89584263333814784 0 1 0.84999999999982645 0 1 0.8999999999998336 0 0.95391631417670719 0.89584263333814784 0 1 0.8999999999998336 0 1 0.94999999999997109 0 0.97435614836744289 0.92499999999990257 0 1 0.8999999999998336 0 0.97435614836744289 0.92499999999990257 0 0.95391631417670719 0.89584263333814784 0 0.94399509803919068 0.9439950980391687 0 0.95391631417670719 0.89584263333814784 0 0.97435614836744289 0.92499999999990257 0 0.94399509803919068 0.9439950980391687 0 0.97435614836744289 0.92499999999990257 0 0.97166519676946206 0.96662885509935492 0 1 0.94999999999997109 0 0.97166519676946206 0.96662885509935492 0 0.97435614836744289 0.92499999999990257 0 1 1 0 0.97166519676946206 0.96662885509935492 0 1 0.94999999999997109 0 1 1 0 0.94999999999979179 1 0 0.97166519676946206 0.96662885509935492 0 0.94999999999979179 1 0 0.94399509803919068 0.9439950980391687 0 0.97166519676946206 0.96662885509935492 0 0.94999999999979179 1 0 0.89999999999958358 1 0 0.89898474358632463 0.95391965591118966 0 0.94999999999979179 1 0 0.89898474358632463 0.95391965591118966 0 0.94399509803919068 0.9439950980391687 0 0.89999999999958358 1 0 0.84999999999965292 1 0 0.89898474358632463 0.95391965591118966 0 0.86956835336234861 0.571283299838105 0 0.81723410853263523 0.59419663659258926 0 0.82862096804812391 0.55037090955459045 0 0.83758014339878906 0.63222013025741819 0 0.81723410853263523 0.59419663659258926 0 0.87159648282691515 0.61285406320581504 0 0.83758014339878906 0.63222013025741819 0 0.79884539758237771 0.62875045078114233 0 0.81723410853263523 0.59419663659258926 0 0.86956835336234861 0.571283299838105 0 0.87159648282691515 0.61285406320581504 0 0.81723410853263523 0.59419663659258926 0 0.86956835336234861 0.571283299838105 0 0.82862096804812391 0.55037090955459045 0 0.86907294890112186 0.52008116128001669 0 0.82862096804812391 0.55037090955459045 0 0.81441713509985358 0.51161854125224959 0 0.86907294890112186 0.52008116128001669 0 0.84723782639812573 0.48638347960178252 0 0.86907294890112186 0.52008116128001669 0 0.81441713509985358 0.51161854125224959 0 0.82862096804812391 0.55037090955459045 0 0.77151014687832564 0.54436834383023036 0 0.81441713509985358 0.51161854125224959 0 0.77846603114747959 0.49850927265137401 0 0.81441713509985358 0.51161854125224959 0 0.77151014687832564 0.54436834383023036 0 0.77846603114747959 0.49850927265137401 0 0.77151014687832564 0.54436834383023036 0 0.73947346780852752 0.49062440112282169 0 0.77293540622714185 0.59448302402785813 0 0.71809016091162536 0.58185040402320831 0 0.77151014687832564 0.54436834383023036 0 0.81723410853263523 0.59419663659258926 0 0.77293540622714185 0.59448302402785813 0 0.77151014687832564 0.54436834383023036 0 0.82862096804812391 0.55037090955459045 0 0.81723410853263523 0.59419663659258926 0 0.77151014687832564 0.54436834383023036 0 0.77293540622714185 0.59448302402785813 0 0.81723410853263523 0.59419663659258926 0 0.79884539758237771 0.62875045078114233 0 0.77293540622714185 0.59448302402785813 0 0.79884539758237771 0.62875045078114233 0 0.74994237037456724 0.62775548192980357 0 0.7750489929959945 0.66593931409600093 0 0.74994237037456724 0.62775548192980357 0 0.79884539758237771 0.62875045078114233 0 0.74999999999999989 0.69999999999999996 0 0.72500000000000064 0.67022701834392062 0 0.7750489929959945 0.66593931409600093 0 0.79999999999999982 0.69999999999999996 0 0.7750489929959945 0.66593931409600093 0 0.82457059160610424 0.66831947184359608 0 0.7750489929959945 0.66593931409600093 0 0.79884539758237771 0.62875045078114233 0 0.82457059160610424 0.66831947184359608 0 0.74999999999999989 0.69999999999999996 0 0.78578450296893509 0.73292684821144505 0 0.75841349681148107 0.75422312624214749 0 0.74999999999999989 0.69999999999999996 0 0.79999999999999982 0.69999999999999996 0 0.78578450296893509 0.73292684821144505 0 0.74999999999999989 0.69999999999999996 0 0.7750489929959945 0.66593931409600093 0 0.79999999999999982 0.69999999999999996 0 0.74999999999999989 0.69999999999999996 0 0.79999999999999982 0.69999999999999996 0 0.80185942888539485 0.77452061303608133 0 0.78578450296893509 0.73292684821144505 0 0.81864958914779962 0.73589050177899629 0 0.79999999999999982 0.69999999999999996 0 0.81864958914779962 0.73589050177899629 0 0.78578450296893509 0.73292684821144505 0 0.84999999999999987 0.69999999999999996 0 0.85491058998424563 0.76004753345552634 0 0.81864958914779962 0.73589050177899629 0 0.79999999999999982 0.69999999999999996 0 0.84999999999999987 0.69999999999999996 0 0.79999999999999982 0.69999999999999996 0 0.82457059160610424 0.66831947184359608 0 0.84999999999999987 0.69999999999999996 0 0.79999999999999982 0.69999999999999996 0 0.84999999999999987 0.69999999999999996 0 0.81864958914779962 0.73589050177899629 0 0.84999999999999987 0.69999999999999996 0 0.89999999999999991 0.69999999999999996 0 0.84999999999999987 0.69999999999999996 0 0.89999166460796554 0.74528934923809909 0 0.85491058998424563 0.76004753345552634 0 0.83758014339878906 0.63222013025741819 0 0.82457059160610424 0.66831947184359608 0 0.79884539758237771 0.62875045078114233 0 0.84999999999999987 0.69999999999999996 0 0.82457059160610424 0.66831947184359608 0 0.87712158428786946 0.65709029563313581 0 0.83758014339878906 0.63222013025741819 0 0.87159648282691515 0.61285406320581504 0 0.87712158428786946 0.65709029563313581 0 0.83758014339878906 0.63222013025741819 0 0.87712158428786946 0.65709029563313581 0 0.82457059160610424 0.66831947184359608 0 0.91750694127105259 0.63017627779935648 0 0.92057473616084773 0.66770436535372446 0 0.87712158428786946 0.65709029563313581 0 0.91750694127105259 0.63017627779935648 0 0.87712158428786946 0.65709029563313581 0 0.87159648282691515 0.61285406320581504 0 0.84999999999999987 0.69999999999999996 0 0.87712158428786946 0.65709029563313581 0 0.89999999999999991 0.69999999999999996 0 0.89999999999999991 0.69999999999999996 0 0.87712158428786946 0.65709029563313581 0 0.92057473616084773 0.66770436535372446 0 0.91750694127105259 0.63017627779935648 0 0.9578014258160763 0.65787212321113708 0 0.92057473616084773 0.66770436535372446 0 0.84999999999999987 0.69999999999999996 0 0.89999999999999991 0.69999999999999996 0 0.89999166460796554 0.74528934923809909 0 0.89999999999999991 0.69999999999999996 0 0.94999999999999996 0.69999999999999996 0 0.89999999999999991 0.69999999999999996 0 0.92057473616084773 0.66770436535372446 0 0.94999999999999996 0.69999999999999996 0 0.89999999999999991 0.69999999999999996 0 0.94999999999999996 0.69999999999999996 0 0.89999166460796554 0.74528934923809909 0 0.94999999999999996 0.69999999999999996 0 0.94399509803918602 0.75600490196082126 0 0.89999166460796554 0.74528934923809909 0 0.94999999999999996 0.69999999999999996 0 0.97166519676947294 0.73337114490064459 0 0.94399509803918602 0.75600490196082126 0 0.94999999999999996 0.69999999999999996 0 1 0.69999999999999996 0 1 0.69999999999999996 0 0.97166519676947294 0.73337114490064459 0 0.94999999999999996 0.69999999999999996 0 1 0.69999999999999996 0 1 0.74999999999993494 0 0.97166519676947294 0.73337114490064459 0 0.91750694127105259 0.63017627779935648 0 0.95867599106212187 0.60011091146651041 0 0.9578014258160763 0.65787212321113708 0 0.94999999999999996 0.69999999999999996 0 0.92057473616084773 0.66770436535372446 0 0.9578014258160763 0.65787212321113708 0 1 0.69999999999999996 0 0.94999999999999996 0.69999999999999996 0 0.9578014258160763 0.65787212321113708 0 1 0.69999999999999996 0 0.9578014258160763 0.65787212321113708 0 1 0.64999999999986979 0 1 0.64999999999986979 0 0.9578014258160763 0.65787212321113708 0 0.95867599106212187 0.60011091146651041 0 1 0.54999999999963112 0 0.95867599106212187 0.60011091146651041 0 0.93732437411268477 0.55911392101136159 0 1 0.59999999999973963 0 1 0.64999999999986979 0 0.95867599106212187 0.60011091146651041 0 1 0.54999999999963112 0 1 0.59999999999973963 0 0.95867599106212187 0.60011091146651041 0 0.91750694127105259 0.63017627779935648 0 0.91143117093204207 0.58709913730335972 0 0.95867599106212187 0.60011091146651041 0 0.93732437411268477 0.55911392101136159 0 0.95867599106212187 0.60011091146651041 0 0.91143117093204207 0.58709913730335972 0 0.86956835336234861 0.571283299838105 0 0.90900154012161016 0.53607784105648792 0 0.91143117093204207 0.58709913730335972 0 0.86956835336234861 0.571283299838105 0 0.91143117093204207 0.58709913730335972 0 0.87159648282691515 0.61285406320581504 0 0.91750694127105259 0.63017627779935648 0 0.87159648282691515 0.61285406320581504 0 0.91143117093204207 0.58709913730335972 0 0.91696753777131557 0.497780560203536 0 0.90900154012161016 0.53607784105648792 0 0.86907294890112186 0.52008116128001669 0 0.86956835336234861 0.571283299838105 0 0.86907294890112186 0.52008116128001669 0 0.90900154012161016 0.53607784105648792 0 0.93732437411268477 0.55911392101136159 0 0.90900154012161016 0.53607784105648792 0 0.95631871884947484 0.51827533208233789 0 0.93732437411268477 0.55911392101136159 0 0.91143117093204207 0.58709913730335972 0 0.90900154012161016 0.53607784105648792 0 0.91696753777131557 0.497780560203536 0 0.95631871884947484 0.51827533208233789 0 0.90900154012161016 0.53607784105648792 0 1 0.54999999999963112 0 0.93732437411268477 0.55911392101136159 0 0.95631871884947484 0.51827533208233789 0 1 0.49999999999950101 0 1 0.54999999999963112 0 0.95631871884947484 0.51827533208233789 0 1 0.49999999999950101 0 0.95631871884947484 0.51827533208233789 0 0.96228564064454991 0.48206450662049471 0 1 0.44999999999963131 0 1 0.49999999999950101 0 0.96228564064454991 0.48206450662049471 0 1 0.44999999999963131 0 0.96228564064454991 0.48206450662049471 0 0.93814194660195893 0.44426664081746747 0 0.91696753777131557 0.497780560203536 0 0.93814194660195893 0.44426664081746747 0 0.96228564064454991 0.48206450662049471 0 0.91696753777131557 0.497780560203536 0 0.96228564064454991 0.48206450662049471 0 0.95631871884947484 0.51827533208233789 0 1 0.34999999999993492 0 1 0.39999999999978308 0 0.95871855522754235 0.40006508612975411 0 1 0.39999999999978308 0 1 0.44999999999963131 0 0.95871855522754235 0.40006508612975411 0 1 0.44999999999963131 0 0.93814194660195893 0.44426664081746747 0 0.95871855522754235 0.40006508612975411 0 0.91750694127107502 0.36982372220068471 0 0.95871855522754235 0.40006508612975411 0 0.90594285160987287 0.4141265964174129 0 0.93814194660195893 0.44426664081746747 0 0.90594285160987287 0.4141265964174129 0 0.95871855522754235 0.40006508612975411 0 0.90594285160987287 0.4141265964174129 0 0.88594198078881503 0.46167788676578442 0 0.86411095495256451 0.42388805655111889 0 0.86411095495256451 0.42388805655111889 0 0.86844634540301924 0.38530937474099819 0 0.90594285160987287 0.4141265964174129 0 0.91750694127107502 0.36982372220068471 0 0.90594285160987287 0.4141265964174129 0 0.86844634540301924 0.38530937474099819 0 0.91696753777131557 0.497780560203536 0 0.88594198078881503 0.46167788676578442 0 0.93814194660195893 0.44426664081746747 0 0.93814194660195893 0.44426664081746747 0 0.88594198078881503 0.46167788676578442 0 0.90594285160987287 0.4141265964174129 0 0.91696753777131557 0.497780560203536 0 0.86907294890112186 0.52008116128001669 0 0.88594198078881503 0.46167788676578442 0 0.84723782639812573 0.48638347960178252 0 0.88594198078881503 0.46167788676578442 0 0.86907294890112186 0.52008116128001669 0 0.84723782639812573 0.48638347960178252 0 0.81441713509985358 0.51161854125224959 0 0.81400510706333218 0.47357325943904899 0 0.84723782639812573 0.48638347960178252 0 0.81400510706333218 0.47357325943904899 0 0.84925632466077294 0.45359738909549091 0 0.81973119833356312 0.43505687159469048 0 0.84925632466077294 0.45359738909549091 0 0.81400510706333218 0.47357325943904899 0 0.84723782639812573 0.48638347960178252 0 0.84925632466077294 0.45359738909549091 0 0.88594198078881503 0.46167788676578442 0 0.86411095495256451 0.42388805655111889 0 0.84925632466077294 0.45359738909549091 0 0.81973119833356312 0.43505687159469048 0 0.86411095495256451 0.42388805655111889 0 0.88594198078881503 0.46167788676578442 0 0.84925632466077294 0.45359738909549091 0 0.86411095495256451 0.42388805655111889 0 0.81308179852519835 0.39754945808726527 0 0.86844634540301924 0.38530937474099819 0 0.83573492347052902 0.36590755630746369 0 0.86844634540301924 0.38530937474099819 0 0.81308179852519835 0.39754945808726527 0 0.86411095495256451 0.42388805655111889 0 0.81973119833356312 0.43505687159469048 0 0.81308179852519835 0.39754945808726527 0 0.77354604466818633 0.40378688774472771 0 0.81973119833356312 0.43505687159469048 0 0.77972660463949339 0.45529290596363098 0 0.77354604466818633 0.40378688774472771 0 0.81308179852519835 0.39754945808726527 0 0.81973119833356312 0.43505687159469048 0 0.77354604466818633 0.40378688774472771 0 0.78145581580700685 0.34881365920033602 0 0.81308179852519835 0.39754945808726527 0 0.77354604466818633 0.40378688774472771 0 0.77972660463949339 0.45529290596363098 0 0.73483647259922602 0.44789725365921768 0 0.73483647259922602 0.44789725365921768 0 0.77972660463949339 0.45529290596363098 0 0.73947346780852752 0.49062440112282169 0 0.77846603114747959 0.49850927265137401 0 0.73947346780852752 0.49062440112282169 0 0.77972660463949339 0.45529290596363098 0 0.77846603114747959 0.49850927265137401 0 0.77972660463949339 0.45529290596363098 0 0.81400510706333218 0.47357325943904899 0 0.77846603114747959 0.49850927265137401 0 0.81400510706333218 0.47357325943904899 0 0.81441713509985358 0.51161854125224959 0 0.81973119833356312 0.43505687159469048 0 0.81400510706333218 0.47357325943904899 0 0.77972660463949339 0.45529290596363098 0 0.79999999999999982 0.29999999999999999 0 0.77075983436335049 0.25919399014334171 0 0.81486180804364938 0.26321394949780091 0 0.74999999999999989 0.29999999999999999 0 0.79999999999999982 0.29999999999999999 0 0.74999999999999989 0.29999999999999999 0 0.77075983436335049 0.25919399014334171 0 0.79999999999999982 0.29999999999999999 0 0.74999999999999989 0.29999999999999999 0 0.79999999999999982 0.29999999999999999 0 0.78145581580700685 0.34881365920033602 0 0.74999999999999989 0.29999999999999999 0 0.78145581580700685 0.34881365920033602 0 0.73090396928863699 0.33699297293167962 0 0.77354604466818633 0.40378688774472771 0 0.74764719760526988 0.3719647154012321 0 0.78145581580700685 0.34881365920033602 0 0.78145581580700685 0.34881365920033602 0 0.74764719760526988 0.3719647154012321 0 0.73090396928863699 0.33699297293167962 0 0.83573492347052902 0.36590755630746369 0 0.81308179852519835 0.39754945808726527 0 0.78145581580700685 0.34881365920033602 0 0.79999999999999982 0.29999999999999999 0 0.82500000000000062 0.33010209762754811 0 0.78145581580700685 0.34881365920033602 0 0.83573492347052902 0.36590755630746369 0 0.78145581580700685 0.34881365920033602 0 0.82500000000000062 0.33010209762754811 0 0.83573492347052902 0.36590755630746369 0 0.82500000000000062 0.33010209762754811 0 0.87430060258887643 0.34056085888204451 0 0.83573492347052902 0.36590755630746369 0 0.87430060258887643 0.34056085888204451 0 0.86844634540301924 0.38530937474099819 0 0.84999999999999987 0.29999999999999999 0 0.87430060258887643 0.34056085888204451 0 0.82500000000000062 0.33010209762754811 0 0.84999999999999987 0.29999999999999999 0 0.89999999999999991 0.29999999999999999 0 0.87430060258887643 0.34056085888204451 0 0.84999999999999987 0.29999999999999999 0 0.81486180804364938 0.26321394949780091 0 0.8517097391133297 0.2356960729520409 0 0.84999999999999987 0.29999999999999999 0 0.8517097391133297 0.2356960729520409 0 0.89898474358614167 0.25391965591104898 0 0.84999999999999987 0.29999999999999999 0 0.89999999999999991 0.29999999999999999 0 0.79999999999999982 0.29999999999999999 0 0.84999999999999987 0.29999999999999999 0 0.82500000000000062 0.33010209762754811 0 0.79999999999999982 0.29999999999999999 0 0.81486180804364938 0.26321394949780091 0 0.84999999999999987 0.29999999999999999 0 0.79999999999999982 0.29999999999999999 0 0.84999999999999987 0.29999999999999999 0 0.84999999999999987 0.29999999999999999 0 0.89898474358614167 0.25391965591104898 0 0.89999999999999991 0.29999999999999999 0 0.89999999999999991 0.29999999999999999 0 0.94999999999999996 0.29999999999999999 0 0.89999999999999991 0.29999999999999999 0 0.94999999999999996 0.29999999999999999 0 0.92012390126144183 0.33123581297173937 0 0.89999999999999991 0.29999999999999999 0 0.89898474358614167 0.25391965591104898 0 0.94999999999999996 0.29999999999999999 0 0.94999999999999996 0.29999999999999999 0 0.89898474358614167 0.25391965591104898 0 0.94399509803921056 0.24399509803922639 0 0.91750694127107502 0.36982372220068471 0 0.86844634540301924 0.38530937474099819 0 0.87430060258887643 0.34056085888204451 0 0.91750694127107502 0.36982372220068471 0 0.87430060258887643 0.34056085888204451 0 0.92012390126144183 0.33123581297173937 0 0.89999999999999991 0.29999999999999999 0 0.92012390126144183 0.33123581297173937 0 0.87430060258887643 0.34056085888204451 0 0.91750694127107502 0.36982372220068471 0 0.92012390126144183 0.33123581297173937 0 0.95780851984364423 0.34215720972155339 0 0.91750694127107502 0.36982372220068471 0 0.95780851984364423 0.34215720972155339 0 0.95871855522754235 0.40006508612975411 0 0.94999999999999996 0.29999999999999999 0 0.95780851984364423 0.34215720972155339 0 0.92012390126144183 0.33123581297173937 0 1 0.29999999999999999 0 0.95780851984364423 0.34215720972155339 0 0.94999999999999996 0.29999999999999999 0 1 0.29999999999999999 0 1 0.34999999999993492 0 0.95780851984364423 0.34215720972155339 0 1 0.34999999999993492 0 0.95871855522754235 0.40006508612975411 0 0.95780851984364423 0.34215720972155339 0 0.94999999999999996 0.29999999999999999 0 0.94399509803921056 0.24399509803922639 0 0.97166519676951801 0.26662885509932011 0 0.94999999999999996 0.29999999999999999 0 1 0.29999999999999999 0 1 0.29999999999999999 0 0.94999999999999996 0.29999999999999999 0 0.97166519676951801 0.26662885509932011 0 1 0.29999999999999999 0 0.97166519676951801 0.26662885509932011 0 1 0.24999999999987299 0 1 0.24999999999987299 0 0.97166519676951801 0.26662885509932011 0 0.97435614836740092 0.22499999999981049 0 1 0.19999999999974799 0 1 0.24999999999987299 0 0.97435614836740092 0.22499999999981049 0 0.94399509803921056 0.24399509803922639 0 0.95391631417672862 0.19584263333809451 0 0.97435614836740092 0.22499999999981049 0 0.94399509803921056 0.24399509803922639 0 0.97435614836740092 0.22499999999981049 0 0.97166519676951801 0.26662885509932011 0 1 0.19999999999974799 0 0.97435614836740092 0.22499999999981049 0 0.95391631417672862 0.19584263333809451 0 1 0.14999999999961891 0 0.95391631417672862 0.19584263333809451 0 0.93677536231883773 0.14999999999999089 0 1 0.14999999999961891 0 0.93677536231883773 0.14999999999999089 0 0.95386563387744361 0.1041487415577465 0 1 0.14999999999961891 0 1 0.19999999999974799 0 0.95391631417672862 0.19584263333809451 0 0.90416666666668166 0.20416666666667119 0 0.93677536231883773 0.14999999999999089 0 0.95391631417672862 0.19584263333809451 0 0.90416666666668166 0.20416666666667119 0 0.88088768115941807 0.14674609810479519 0 0.93677536231883773 0.14999999999999089 0 0.90299850604006393 0.09563452813493091 0 0.93677536231883773 0.14999999999999089 0 0.88088768115941807 0.14674609810479519 0 0.90416666666668166 0.20416666666667119 0 0.85600844944842547 0.1848341897950983 0 0.88088768115941807 0.14674609810479519 0 0.90416666666668166 0.20416666666667119 0 0.89898474358614167 0.25391965591104898 0 0.8517097391133297 0.2356960729520409 0 0.90416666666668166 0.20416666666667119 0 0.94399509803921056 0.24399509803922639 0 0.89898474358614167 0.25391965591104898 0 0.90416666666668166 0.20416666666667119 0 0.95391631417672862 0.19584263333809451 0 0.94399509803921056 0.24399509803922639 0 0.94999999999986839 0 0 0.97166519676946894 0.033371144900598393 0 0.94399509803922566 0.056004901960802607 0 1 0 0 0.97166519676946894 0.033371144900598393 0 0.94999999999986839 0 0 1 0 0 1 0.049999999999896842 0 0.97166519676946894 0.033371144900598393 0 1 0.049999999999896842 0 0.97435614836748241 0.074999999999825387 0 0.97166519676946894 0.033371144900598393 0 0.94399509803922566 0.056004901960802607 0 0.97166519676946894 0.033371144900598393 0 0.97435614836748241 0.074999999999825387 0 0.94399509803922566 0.056004901960802607 0 0.97435614836748241 0.074999999999825387 0 0.95386563387744361 0.1041487415577465 0 1 0.099999999999753911 0 0.95386563387744361 0.1041487415577465 0 0.97435614836748241 0.074999999999825387 0 1 0.049999999999896842 0 1 0.099999999999753911 0 0.97435614836748241 0.074999999999825387 0 1 0.099999999999753911 0 1 0.14999999999961891 0 0.95386563387744361 0.1041487415577465 0 0.90299850604006393 0.09563452813493091 0 0.95386563387744361 0.1041487415577465 0 0.93677536231883773 0.14999999999999089 0 0.90299850604006393 0.09563452813493091 0 0.88088768115941807 0.14674609810479519 0 0.84725310900442086 0.10779732082922661 0 0.90299850604006393 0.09563452813493091 0 0.85491058998398861 0.060047533455626502 0 0.899991664607802 0.045289349238254978 0 0.90299850604006393 0.09563452813493091 0 0.94399509803922566 0.056004901960802607 0 0.95386563387744361 0.1041487415577465 0 0.90299850604006393 0.09563452813493091 0 0.899991664607802 0.045289349238254978 0 0.94399509803922566 0.056004901960802607 0 0.94999999999986839 0 0 0.94399509803922566 0.056004901960802607 0 0.899991664607802 0.045289349238254978 0 0.84999999999960507 0 0 0.89999999999973679 0 0 0.899991664607802 0.045289349238254978 0 0.89999999999973679 0 0 0.94999999999986839 0 0 0.899991664607802 0.045289349238254978 0 0.79999999999947335 0 0 0.84999999999960507 0 0 0.81864958914740749 0.035890501779055867 0 0.84999999999960507 0 0 0.899991664607802 0.045289349238254978 0 0.85491058998398861 0.060047533455626502 0 0.80185942888501827 0.074520613036224564 0 0.81864958914740749 0.035890501779055867 0 0.85491058998398861 0.060047533455626502 0 0.84999999999960507 0 0 0.85491058998398861 0.060047533455626502 0 0.81864958914740749 0.035890501779055867 0 0.80185942888501827 0.074520613036224564 0 0.85491058998398861 0.060047533455626502 0 0.84725310900442086 0.10779732082922661 0 0.90299850604006393 0.09563452813493091 0 0.84725310900442086 0.10779732082922661 0 0.85491058998398861 0.060047533455626502 0 0.80185942888501827 0.074520613036224564 0 0.84725310900442086 0.10779732082922661 0 0.80076557130237269 0.1154587552654202 0 0.82709327591102189 0.14937141670914489 0 0.80076557130237269 0.1154587552654202 0 0.84725310900442086 0.10779732082922661 0 0.80185942888501827 0.074520613036224564 0 0.80076557130237269 0.1154587552654202 0 0.76878382444651716 0.097147941686331368 0 0.72525833953073282 0.1032114801687094 0 0.76878382444651716 0.097147941686331368 0 0.77144070960558853 0.14311854477243749 0 0.77144070960558853 0.14311854477243749 0 0.76878382444651716 0.097147941686331368 0 0.80076557130237269 0.1154587552654202 0 0.80185942888501827 0.074520613036224564 0 0.76878382444651716 0.097147941686331368 0 0.7527966693318906 0.053051678021508272 0 0.80185942888501827 0.074520613036224564 0 0.78393852574753176 0.032039079577822822 0 0.81864958914740749 0.035890501779055867 0 0.80185942888501827 0.074520613036224564 0 0.7527966693318906 0.053051678021508272 0 0.78393852574753176 0.032039079577822822 0 0.74999999999934175 0 0 0.78393852574753176 0.032039079577822822 0 0.7527966693318906 0.053051678021508272 0 0.74999999999934175 0 0 0.79999999999947335 0 0 0.78393852574753176 0.032039079577822822 0 0.79999999999947335 0 0 0.81864958914740749 0.035890501779055867 0 0.78393852574753176 0.032039079577822822 0 0.79680861578956375 0.22656778056752541 0 0.81283102246527783 0.1881007222486438 0 0.8517097391133297 0.2356960729520409 0 0.8517097391133297 0.2356960729520409 0 0.81283102246527783 0.1881007222486438 0 0.85600844944842547 0.1848341897950983 0 0.79680861578956375 0.22656778056752541 0 0.8517097391133297 0.2356960729520409 0 0.81486180804364938 0.26321394949780091 0 0.90416666666668166 0.20416666666667119 0 0.8517097391133297 0.2356960729520409 0 0.85600844944842547 0.1848341897950983 0 0.82709327591102189 0.14937141670914489 0 0.88088768115941807 0.14674609810479519 0 0.85600844944842547 0.1848341897950983 0 0.82709327591102189 0.14937141670914489 0 0.84725310900442086 0.10779732082922661 0 0.88088768115941807 0.14674609810479519 0 0.82709327591102189 0.14937141670914489 0 0.85600844944842547 0.1848341897950983 0 0.81283102246527783 0.1881007222486438 0 0.77144070960558853 0.14311854477243749 0 0.81283102246527783 0.1881007222486438 0 0.76587607630038135 0.18880039518954719 0 0.82709327591102189 0.14937141670914489 0 0.81283102246527783 0.1881007222486438 0 0.77144070960558853 0.14311854477243749 0 0.82709327591102189 0.14937141670914489 0 0.77144070960558853 0.14311854477243749 0 0.80076557130237269 0.1154587552654202 0 0.77144070960558853 0.14311854477243749 0 0.76587607630038135 0.18880039518954719 0 0.72634814642510737 0.16106886917518889 0 0.79680861578956375 0.22656778056752541 0 0.75668890529066124 0.2244279804069782 0 0.76587607630038135 0.18880039518954719 0 0.79680861578956375 0.22656778056752541 0 0.76587607630038135 0.18880039518954719 0 0.81283102246527783 0.1881007222486438 0 0.79680861578956375 0.22656778056752541 0 0.81486180804364938 0.26321394949780091 0 0.77075983436335049 0.25919399014334171 0 0.79680861578956375 0.22656778056752541 0 0.77075983436335049 0.25919399014334171 0 0.75668890529066124 0.2244279804069782 0 0.72500000000000064 0.2498161764706 0 0.75668890529066124 0.2244279804069782 0 0.77075983436335049 0.25919399014334171 0 0.72500000000001008 0.19776155966387679 0 0.75668890529066124 0.2244279804069782 0 0.72500000000000064 0.2498161764706 0 0.72500000000001008 0.19776155966387679 0 0.72500000000000064 0.2498161764706 0 0.69397719155551807 0.2245125647000914 0 0.72500000000000064 0.2498161764706 0 0.67933712972090698 0.25920070958121938 0 0.69397719155551807 0.2245125647000914 0 0.72500000000001008 0.19776155966387679 0 0.69397719155551807 0.2245125647000914 0 0.6865991819015953 0.189116534044597 0 0.72500000000001008 0.19776155966387679 0 0.76587607630038135 0.18880039518954719 0 0.75668890529066124 0.2244279804069782 0 0.72500000000001008 0.19776155966387679 0 0.72634814642510737 0.16106886917518889 0 0.76587607630038135 0.18880039518954719 0 0.72525833953073282 0.1032114801687094 0 0.77144070960558853 0.14311854477243749 0 0.72634814642510737 0.16106886917518889 0 0.72525833953073282 0.1032114801687094 0 0.72634814642510737 0.16106886917518889 0 0.68391457121233579 0.14440470121196541 0 0.72500000000001008 0.19776155966387679 0 0.6865991819015953 0.189116534044597 0 0.72634814642510737 0.16106886917518889 0 0.68391457121233579 0.14440470121196541 0 0.72634814642510737 0.16106886917518889 0 0.6865991819015953 0.189116534044597 0 0.68391457121233579 0.14440470121196541 0 0.6865991819015953 0.189116534044597 0 0.64011864159029941 0.18789607982138171 0 0.6236733212988993 0.14864538214901801 0 0.65290632656860115 0.11434202593454081 0 0.68391457121233579 0.14440470121196541 0 0.6236733212988993 0.14864538214901801 0 0.68391457121233579 0.14440470121196541 0 0.64011864159029941 0.18789607982138171 0 0.65394964615507722 0.22666784374016369 0 0.59814117807200873 0.23398510860739519 0 0.64011864159029941 0.18789607982138171 0 0.65394964615507722 0.22666784374016369 0 0.62657463266645097 0.26524202571255862 0 0.59814117807200873 0.23398510860739519 0 0.65394964615507722 0.22666784374016369 0 0.69397719155551807 0.2245125647000914 0 0.67933712972090698 0.25920070958121938 0 0.65394964615507722 0.22666784374016369 0 0.64011864159029941 0.18789607982138171 0 0.6865991819015953 0.189116534044597 0 0.65394964615507722 0.22666784374016369 0 0.6865991819015953 0.189116534044597 0 0.69397719155551807 0.2245125647000914 0 0.69999999999921003 0 0 0.72683645290270404 0.027797073151180601 0 0.7010294155333181 0.056779085686491267 0 0.69999999999921003 0 0 0.7010294155333181 0.056779085686491267 0 0.66369801598854572 0.036327466368102787 0 0.74999999999934175 0 0 0.7527966693318906 0.053051678021508272 0 0.72683645290270404 0.027797073151180601 0 0.69999999999921003 0 0 0.74999999999934175 0 0 0.72683645290270404 0.027797073151180601 0 0.7527966693318906 0.053051678021508272 0 0.7010294155333181 0.056779085686491267 0 0.72683645290270404 0.027797073151180601 0 0.72525833953073282 0.1032114801687094 0 0.68330259535470161 0.10038702501083881 0 0.7010294155333181 0.056779085686491267 0 0.72525833953073282 0.1032114801687094 0 0.7010294155333181 0.056779085686491267 0 0.7527966693318906 0.053051678021508272 0 0.72525833953073282 0.1032114801687094 0 0.7527966693318906 0.053051678021508272 0 0.76878382444651716 0.097147941686331368 0 0.72525833953073282 0.1032114801687094 0 0.68391457121233579 0.14440470121196541 0 0.68330259535470161 0.10038702501083881 0 0.65408113592120842 0.073941773121567966 0 0.68330259535470161 0.10038702501083881 0 0.65290632656860115 0.11434202593454081 0 0.68391457121233579 0.14440470121196541 0 0.65290632656860115 0.11434202593454081 0 0.68330259535470161 0.10038702501083881 0 0.6236733212988993 0.14864538214901801 0 0.61956000905586006 0.1043312481793135 0 0.65290632656860115 0.11434202593454081 0 0.65408113592120842 0.073941773121567966 0 0.65290632656860115 0.11434202593454081 0 0.61956000905586006 0.1043312481793135 0 0.65408113592120842 0.073941773121567966 0 0.61956000905586006 0.1043312481793135 0 0.61940220174112337 0.047251958781050582 0 0.65408113592120842 0.073941773121567966 0 0.7010294155333181 0.056779085686491267 0 0.68330259535470161 0.10038702501083881 0 0.65408113592120842 0.073941773121567966 0 0.66369801598854572 0.036327466368102787 0 0.7010294155333181 0.056779085686491267 0 0.65408113592120842 0.073941773121567966 0 0.61940220174112337 0.047251958781050582 0 0.66369801598854572 0.036327466368102787 0 0.64999999999907843 0 0 0.66369801598854572 0.036327466368102787 0 0.61940220174112337 0.047251958781050582 0 0.64999999999907843 0 0 0.69999999999921003 0 0 0.66369801598854572 0.036327466368102787 0 0.5499999999988151 0 0 0.59999999999894682 0 0 0.57396793757665954 0.037011367187645222 0 0.59999999999894682 0 0 0.64999999999907843 0 0 0.61940220174112337 0.047251958781050582 0 0.59999999999894682 0 0 0.61940220174112337 0.047251958781050582 0 0.57396793757665954 0.037011367187645222 0 0.57667858002728545 0.078486105337742612 0 0.57396793757665954 0.037011367187645222 0 0.61940220174112337 0.047251958781050582 0 0.57667858002728545 0.078486105337742612 0 0.61940220174112337 0.047251958781050582 0 0.61956000905586006 0.1043312481793135 0 0.6236733212988993 0.14864538214901801 0 0.58516465772821369 0.11653801664834119 0 0.61956000905586006 0.1043312481793135 0 0.57667858002728545 0.078486105337742612 0 0.61956000905586006 0.1043312481793135 0 0.58516465772821369 0.11653801664834119 0 0.56202748619534593 0.15054058349222879 0 0.54979595918804436 0.1060565713905809 0 0.58516465772821369 0.11653801664834119 0 0.57667858002728545 0.078486105337742612 0 0.58516465772821369 0.11653801664834119 0 0.54979595918804436 0.1060565713905809 0 0.51076801031701946 0.1202837388510348 0 0.52375890611712683 0.059318771819432882 0 0.54979595918804436 0.1060565713905809 0 0.51076801031701946 0.1202837388510348 0 0.47881186583059909 0.093591717165689425 0 0.52375890611712683 0.059318771819432882 0 0.57667858002728545 0.078486105337742612 0 0.54979595918804436 0.1060565713905809 0 0.52375890611712683 0.059318771819432882 0 0.5499999999988151 0 0 0.57396793757665954 0.037011367187645222 0 0.52375890611712683 0.059318771819432882 0 0.57667858002728545 0.078486105337742612 0 0.52375890611712683 0.059318771819432882 0 0.57396793757665954 0.037011367187645222 0 0.49999999999869432 0 0 0.5499999999988151 0 0 0.52375890611712683 0.059318771819432882 0 0.55306006949600994 0.20198184231352201 0 0.59443395090188023 0.18455690917515069 0 0.59814117807200873 0.23398510860739519 0 0.55306006949600994 0.20198184231352201 0 0.59814117807200873 0.23398510860739519 0 0.54248833945060504 0.2520322959927106 0 0.59814117807200873 0.23398510860739519 0 0.59443395090188023 0.18455690917515069 0 0.64011864159029941 0.18789607982138171 0 0.6236733212988993 0.14864538214901801 0 0.64011864159029941 0.18789607982138171 0 0.59443395090188023 0.18455690917515069 0 0.6236733212988993 0.14864538214901801 0 0.56202748619534593 0.15054058349222879 0 0.58516465772821369 0.11653801664834119 0 0.6236733212988993 0.14864538214901801 0 0.59443395090188023 0.18455690917515069 0 0.56202748619534593 0.15054058349222879 0 0.55306006949600994 0.20198184231352201 0 0.56202748619534593 0.15054058349222879 0 0.59443395090188023 0.18455690917515069 0 0.55306006949600994 0.20198184231352201 0 0.51729576145820033 0.1683240575987815 0 0.56202748619534593 0.15054058349222879 0 0.51076801031701946 0.1202837388510348 0 0.54979595918804436 0.1060565713905809 0 0.56202748619534593 0.15054058349222879 0 0.51076801031701946 0.1202837388510348 0 0.51729576145820033 0.1683240575987815 0 0.48466639505193998 0.1421439844745814 0 0.51076801031701946 0.1202837388510348 0 0.56202748619534593 0.15054058349222879 0 0.51729576145820033 0.1683240575987815 0 0.55306006949600994 0.20198184231352201 0 0.50760557329222289 0.20700468884612061 0 0.51729576145820033 0.1683240575987815 0 0.50760557329222289 0.20700468884612061 0 0.55306006949600994 0.20198184231352201 0 0.54248833945060504 0.2520322959927106 0 0.49695729691142171 0.25014895411178018 0 0.50760557329222289 0.20700468884612061 0 0.54248833945060504 0.2520322959927106 0 0.5 0.29999999999999999 0 0.49695729691142171 0.25014895411178018 0 0.54248833945060504 0.2520322959927106 0 0.5 0.29999999999999999 0 0.54999999999999993 0.29999999999999999 0 0.52752007115234678 0.33170632466418198 0 0.5 0.29999999999999999 0 0.54248833945060504 0.2520322959927106 0 0.54999999999999993 0.29999999999999999 0 0.5 0.29999999999999999 0 0.54999999999999993 0.29999999999999999 0 0.54999999999999993 0.29999999999999999 0 0.54248833945060504 0.2520322959927106 0 0.5794309697024993 0.27124795968204829 0 0.59814117807200873 0.23398510860739519 0 0.5794309697024993 0.27124795968204829 0 0.54248833945060504 0.2520322959927106 0 0.54999999999999993 0.29999999999999999 0 0.59999999999999976 0.29999999999999999 0 0.54999999999999993 0.29999999999999999 0 0.5794309697024993 0.27124795968204829 0 0.59999999999999976 0.29999999999999999 0 0.59999999999999976 0.29999999999999999 0 0.6499999999999998 0.29999999999999999 0 0.59999999999999976 0.29999999999999999 0 0.5794309697024993 0.27124795968204829 0 0.62657463266645097 0.26524202571255862 0 0.59814117807200873 0.23398510860739519 0 0.62657463266645097 0.26524202571255862 0 0.5794309697024993 0.27124795968204829 0 0.6084546825910605 0.37989672713932537 0 0.56836770495988642 0.3523062350852913 0 0.61959173890754571 0.33832250091341232 0 0.59999999999999976 0.29999999999999999 0 0.6499999999999998 0.29999999999999999 0 0.61959173890754571 0.33832250091341232 0 0.59999999999999976 0.29999999999999999 0 0.61959173890754571 0.33832250091341232 0 0.56836770495988642 0.3523062350852913 0 0.54999999999999993 0.29999999999999999 0 0.59999999999999976 0.29999999999999999 0 0.56836770495988642 0.3523062350852913 0 0.56836770495988642 0.3523062350852913 0 0.52289427570932567 0.3932284363388488 0 0.52752007115234678 0.33170632466418198 0 0.54999999999999993 0.29999999999999999 0 0.56836770495988642 0.3523062350852913 0 0.52752007115234678 0.33170632466418198 0 0.5 0.29999999999999999 0 0.52752007115234678 0.33170632466418198 0 0.49077833859261139 0.35229981449445641 0 0.52752007115234678 0.33170632466418198 0 0.52289427570932567 0.3932284363388488 0 0.49077833859261139 0.35229981449445641 0 0.52289427570932567 0.3932284363388488 0 0.56836770495988642 0.3523062350852913 0 0.57744073070774993 0.41535148636609359 0 0.52289427570932567 0.3932284363388488 0 0.57744073070774993 0.41535148636609359 0 0.53823865529665704 0.45873898050322898 0 0.52289427570932567 0.3932284363388488 0 0.53823865529665704 0.45873898050322898 0 0.48858720058566618 0.43964267759203868 0 0.49102375406324739 0.49123754822244059 0 0.53823865529665704 0.45873898050322898 0 0.53330375813596242 0.50827942741749099 0 0.49102375406324739 0.49123754822244059 0 0.48858720058566618 0.43964267759203868 0 0.53823865529665704 0.45873898050322898 0 0.57611405284611883 0.50165903596042916 0 0.53330375813596242 0.50827942741749099 0 0.53823865529665704 0.45873898050322898 0 0.57611405284611883 0.50165903596042916 0 0.57975577671020095 0.46172033326338591 0 0.61547661924074692 0.48539576058873962 0 0.57611405284611883 0.50165903596042916 0 0.53823865529665704 0.45873898050322898 0 0.57975577671020095 0.46172033326338591 0 0.61209567303293111 0.44669033081290321 0 0.57975577671020095 0.46172033326338591 0 0.57744073070774993 0.41535148636609359 0 0.53823865529665704 0.45873898050322898 0 0.57744073070774993 0.41535148636609359 0 0.57975577671020095 0.46172033326338591 0 0.61209567303293111 0.44669033081290321 0 0.61547661924074692 0.48539576058873962 0 0.57975577671020095 0.46172033326338591 0 0.6084546825910605 0.37989672713932537 0 0.57744073070774993 0.41535148636609359 0 0.56836770495988642 0.3523062350852913 0 0.61209567303293111 0.44669033081290321 0 0.57744073070774993 0.41535148636609359 0 0.63912439215427275 0.41063340167983359 0 0.6084546825910605 0.37989672713932537 0 0.63912439215427275 0.41063340167983359 0 0.57744073070774993 0.41535148636609359 0 0.6084546825910605 0.37989672713932537 0 0.65481233915350323 0.35652751921065562 0 0.63912439215427275 0.41063340167983359 0 0.6879972333610942 0.43038561374960838 0 0.65178832218679827 0.45929119821019959 0 0.63912439215427275 0.41063340167983359 0 0.6879972333610942 0.43038561374960838 0 0.63912439215427275 0.41063340167983359 0 0.68128176404677243 0.38629093627004979 0 0.65481233915350323 0.35652751921065562 0 0.68128176404677243 0.38629093627004979 0 0.63912439215427275 0.41063340167983359 0 0.6541250972820879 0.49999999999999989 0 0.61547661924074692 0.48539576058873962 0 0.65178832218679827 0.45929119821019959 0 0.61209567303293111 0.44669033081290321 0 0.65178832218679827 0.45929119821019959 0 0.61547661924074692 0.48539576058873962 0 0.61209567303293111 0.44669033081290321 0 0.63912439215427275 0.41063340167983359 0 0.65178832218679827 0.45929119821019959 0 0.6879972333610942 0.43038561374960838 0 0.69385896817107129 0.48377516041410151 0 0.65178832218679827 0.45929119821019959 0 0.6541250972820879 0.49999999999999989 0 0.65178832218679827 0.45929119821019959 0 0.69385896817107129 0.48377516041410151 0 0.7152569930854884 0.5237994455134295 0 0.69385896817107129 0.48377516041410151 0 0.73947346780852752 0.49062440112282169 0 0.6879972333610942 0.43038561374960838 0 0.73483647259922602 0.44789725365921768 0 0.69385896817107129 0.48377516041410151 0 0.73483647259922602 0.44789725365921768 0 0.73947346780852752 0.49062440112282169 0 0.69385896817107129 0.48377516041410151 0 0.71508799138962864 0.36622814920737751 0 0.72622533758026719 0.40265885511101601 0 0.68128176404677243 0.38629093627004979 0 0.6879972333610942 0.43038561374960838 0 0.72622533758026719 0.40265885511101601 0 0.73483647259922602 0.44789725365921768 0 0.6879972333610942 0.43038561374960838 0 0.68128176404677243 0.38629093627004979 0 0.72622533758026719 0.40265885511101601 0 0.77354604466818633 0.40378688774472771 0 0.73483647259922602 0.44789725365921768 0 0.72622533758026719 0.40265885511101601 0 0.71508799138962864 0.36622814920737751 0 0.74764719760526988 0.3719647154012321 0 0.72622533758026719 0.40265885511101601 0 0.77354604466818633 0.40378688774472771 0 0.72622533758026719 0.40265885511101601 0 0.74764719760526988 0.3719647154012321 0 0.71508799138962864 0.36622814920737751 0 0.73090396928863699 0.33699297293167962 0 0.74764719760526988 0.3719647154012321 0 0.71508799138962864 0.36622814920737751 0 0.68887083591306764 0.33632058575757479 0 0.73090396928863699 0.33699297293167962 0 0.71508799138962864 0.36622814920737751 0 0.68128176404677243 0.38629093627004979 0 0.68887083591306764 0.33632058575757479 0 0.69999999999999984 0.29999999999999999 0 0.73090396928863699 0.33699297293167962 0 0.68887083591306764 0.33632058575757479 0 0.69999999999999984 0.29999999999999999 0 0.72500000000000064 0.2498161764706 0 0.74999999999999989 0.29999999999999999 0 0.69999999999999984 0.29999999999999999 0 0.74999999999999989 0.29999999999999999 0 0.69999999999999984 0.29999999999999999 0 0.74999999999999989 0.29999999999999999 0 0.73090396928863699 0.33699297293167962 0 0.74999999999999989 0.29999999999999999 0 0.72500000000000064 0.2498161764706 0 0.77075983436335049 0.25919399014334171 0 0.69999999999999984 0.29999999999999999 0 0.67933712972090698 0.25920070958121938 0 0.72500000000000064 0.2498161764706 0 0.6499999999999998 0.29999999999999999 0 0.67933712972090698 0.25920070958121938 0 0.69999999999999984 0.29999999999999999 0 0.6499999999999998 0.29999999999999999 0 0.69999999999999984 0.29999999999999999 0 0.68887083591306764 0.33632058575757479 0 0.6499999999999998 0.29999999999999999 0 0.69999999999999984 0.29999999999999999 0 0.6499999999999998 0.29999999999999999 0 0.62657463266645097 0.26524202571255862 0 0.67933712972090698 0.25920070958121938 0 0.65394964615507722 0.22666784374016369 0 0.67933712972090698 0.25920070958121938 0 0.62657463266645097 0.26524202571255862 0 0.59999999999999976 0.29999999999999999 0 0.62657463266645097 0.26524202571255862 0 0.6499999999999998 0.29999999999999999 0 0.6499999999999998 0.29999999999999999 0 0.65481233915350323 0.35652751921065562 0 0.61959173890754571 0.33832250091341232 0 0.6084546825910605 0.37989672713932537 0 0.61959173890754571 0.33832250091341232 0 0.65481233915350323 0.35652751921065562 0 0.65481233915350323 0.35652751921065562 0 0.68887083591306764 0.33632058575757479 0 0.68128176404677243 0.38629093627004979 0 0.6499999999999998 0.29999999999999999 0 0.68887083591306764 0.33632058575757479 0 0.65481233915350323 0.35652751921065562 0 
</DataArray>
</Points>
<Cells>
<DataArray type="UInt32" Name="connectivity" format="ascii">
0 1 2 3 4 5 6 7 8 9 10 11 12 13 14 15 16 17 18 19 20 21 22 23 24 25 26 27 28 29 30 31 32 33 34 35 36 37 38 39 40 41 42 43 44 45 46 47 48 49 50 51 52 53 54 55 56 57 58 59 60 61 62 63 64 65 66 67 68 69 70 71 72 73 74 75 76 77 78 79 80 81 82 83 84 85 86 87 88 89 90 91 92 93 94 95 96 97 98 99 100 101 102 103 104 105 106 107 108 109 110 111 112 113 114 115 116 117 118 119 120 121 122 123 124 125 126 127 128 129 130 131 132 133 134 135 136 137 138 139 140 141 142 143 144 145 146 147 148 149 150 151 152 153 154 155 156 157 158 159 160 161 162 163 164 165 166 167 168 169 170 171 172 173 174 175 176 177 178 179 180 181 182 183 184 185 186 187 188 189 190 191 192 193 194 195 196 197 198 199 200 201 202 203 204 205 206 207 208 209 210 211 212 213 214 215 216 217 218 219 220 221 222 223 224 225 226 227 228 229 230 231 232 233 234 235 236 237 238 239 240 241 242 243 244 245 246 247 248 249 250 251 252 253 254 255 256 257 258 259 260 261 262 263 264 265 266 267 268 269 270 271 272 273 274 275 276 277 278 279 280 281 282 283 284 285 286 287 288 289 290 291 292 293 294 295 296 297 298 299 300 301 302 303 304 305 306 307 308 309 310 311 312 313 314 315 316 317 318 319 320 321 322 323 324 325 326 327 328 329 330 331 332 333 334 335 336 337 338 339 340 341 342 343 344 345 346 347 348 349 350 351 352 353 354 355 356 357 358 359 360 361 362 363 364 365 366 367 368 369 370 371 372 373 374 375 376 377 378 379 380 381 382 383 384 385 386 387 388 389 390 391 392 393 394 395 396 397 398 399 400 401 402 403 404 405 406 407 408 409 410 411 412 413 414 415 416 417 418 419 420 421 422 423 424 425 426 427 428 429 430 431 432 433 434 435 436 437 438 439 440 441 442 443 444 445 446 447 448 449 450 451 452 453 454 455 456 457 458 459 460 461 462 463 464 465 466 467 468 469 470 471 472 473 474 475 476 477 478 479 480 481 482 483 484 485 486 487 488 489 490 491 492 493 494 495 496 497 498 499 500 501 502 503 504 505 506 507 508 509 510 511 512 513 514 515 516 517 518 519 520 521 522 523 524 525 526 527 528 529 530 531 532 533 534 535 536 537 538 539 540 541 542 543 544 545 546 547 548 549 550 551 552 553 554 555 556 557 558 559 560 561 562 563 564 565 566 567 568 569 570 571 572 573 574 575 576 577 578 579 580 581 582 583 584 585 586 587 588 589 590 591 592 593 594 595 596 597 598 599 600 601 602 603 604 605 606 607 608 609 610 611 612 613 614 615 616 617 618 619 620 621 622 623 624 625 626 627 628 629 630 631 632 633 634 635 636 637 638 639 640 641 642 643 644 645 646 647 648 649 650 651 652 653 654 655 656 657 658 659 660 661 662 663 664 665 666 667 668 669 670 671 672 673 674 675 676 677 678 679 680 681 682 683 684 685 686 687 688 689 690 691 692 693 694 695 696 697 698 699 700 701 702 703 704 705 706 707 708 709 710 711 712 713 714 715 716 717 718 719 720 721 722 723 724 725 726 727 728 729 730 731 732 733 734 735 736 737 738 739 740 741 742 743 744 745 746 747 748 749 750 751 752 753 754 755 756 757 758 759 760 761 762 763 764 765 766 767 768 769 770 771 772 773 774 775 776 777 778 779 780 781 782 783 784 785 786 787 788 789 790 791 792 793 794 795 796 797 798 799 800 801 802 803 804 805 806 807 808 809 810 811 812 813 814 815 816 817 818 819 820 821 822 823 824 825 826 827 828 829 830 831 832 833 834 835 836 837 838 839 840 841 842 843 844 845 846 847 848 849 850 851 852 853 854 855 856 857 858 859 860 861 862 863 864 865 866 867 868 869 870 871 872 873 874 875 876 877 878 879 880 881 882 883 884 885 886 887 888 889 890 891 892 893 894 895 896 897 898 899 900 901 902 903 904 905 906 907 908 909 910 911 912 913 914 915 916 917 918 919 920 921 922 923 924 925 926 927 928 929 930 931 932 933 934 935 936 937 938 939 940 941 942 943 944 945 946 947 948 949 950 951 952 953 954 955 956 957 958 959 960 961 962 963 964 965 966 967 968 969 970 971 972 973 974 975 976 977 978 979 980 981 982 983 984 985 986 987 988 989 990 991 992 993 994 995 996 997 998 999 1000 1001 1002 1003 1004 1005 1006 1007 1008 1009 1010 1011 1012 1013 1014 1015 1016 1017 1018 1019 1020 1021 1022 1023 1024 1025 1026 1027 1028 1029 1030 1031 1032 1033 1034 1035 1036 1037 1038 1039 1040 1041 1042 1043 1044 1045 1046 1047 1048 1049 1050 1051 1052 1053 1054 1055 1056 1057 1058 1059 1060 1061 1062 1063 1064 1065 1066 1067 1068 1069 1070 1071 1072 1073 1074 1075 1076 1077 1078 1079 1080 1081 1082 1083 1084 1085 1086 1087 1088 1089 1090 1091 1092 1093 1094 1095 1096 1097 1098 1099 1100 1101 1102 1103 1104 1105 1106 1107 1108 1109 1110 1111 1112 1113 1114 1115 1116 1117 1118 1119 1120 1121 1122 1123 1124 1125 1126 1127 1128 1129 1130 1131 1132 1133 1134 1135 1136 1137 1138 1139 1140 1141 1142 1143 1144 1145 1146 1147 1148 1149 1150 1151 1152 1153 1154 1155 1156 1157 1158 1159 1160 1161 1162 1163 1164 1165 1166 1167 1168 1169 1170 1171 1172 1173 1174 1175 1176 1177 1178 1179 1180 1181 1182 1183 1184 1185 1186 1187 1188 1189 1190 1191 1192 1193 1194 1195 1196 1197 1198 1199 1200 1201 1202 1203 1204 1205 1206 1207 1208 1209 1210 1211 1212 1213 1214 1215 1216 1217 1218 1219 1220 1221 1222 1223 1224 1225 1226 1227 1228 1229 1230 1231 1232 1233 1234 1235 1236 1237 1238 1239 1240 1241 1242 1243 1244 1245 1246 1247 1248 1249 1250 1251 1252 1253 1254 1255 1256 1257 1258 1259 1260 1261 1262 1263 1264 1265 1266 1267 1268 1269 1270 1271 1272 1273 1274 1275 1276 1277 1278 1279 1280 1281 1282 1283 1284 1285 1286 1287 1288 1289 1290 1291 1292 1293 1294 1295 1296 1297 1298 1299 1300 1301 1302 1303 1304 1305 1306 1307 1308 1309 1310 1311 1312 1313 1314 1315 1316 1317 1318 1319 1320 1321 1322 1323 1324 1325 1326 1327 1328 1329 1330 1331 1332 1333 1334 1335 1336 1337 1338 1339 1340 1341 1342 1343 1344 1345 1346 1347 1348 1349 1350 1351 1352 1353 1354 1355 1356 1357 1358 1359 1360 1361 1362 1363 1364 1365 1366 1367 1368 1369 1370 1371 1372 1373 1374 1375 1376 1377 1378 1379 1380 1381 1382 1383 1384 1385 1386 1387 1388 1389 1390 1391 1392 1393 1394 1395 1396 1397 1398 1399 1400 1401 1402 1403 1404 1405 1406 1407 1408 1409 1410 1411 1412 1413 1414 1415 1416 1417 1418 1419 1420 1421 1422 1423 1424 1425 1426 1427 1428 1429 1430 1431 1432 1433 1434 1435 1436 1437 1438 1439 1440 1441 1442 1443 1444 1445 1446 1447 1448 1449 1450 1451 1452 1453 1454 1455 1456 1457 1458 1459 1460 1461 1462 1463 1464 1465 1466 1467 1468 1469 1470 1471 1472 1473 1474 1475 1476 1477 1478 1479 1480 1481 1482 1483 1484 1485 1486 1487 1488 1489 1490 1491 1492 1493 1494 1495 1496 1497 1498 1499 1500 1501 1502 1503 1504 1505 1506 1507 1508 1509 1510 1511 1512 1513 1514 1515 1516 1517 1518 1519 1520 1521 1522 1523 1524 1525 1526 1527 1528 1529 1530 1531 1532 1533 1534 1535 1536 1537 1538 1539 1540 1541 1542 1543 1544 1545 1546 1547 1548 1549 1550 1551 1552 1553 1554 1555 1556 1557 1558 1559 1560 1561 1562 1563 1564 1565 1566 1567 1568 1569 1570 1571 1572 1573 1574 1575 1576 1577 1578 1579 1580 1581 1582 1583 1584 1585 1586 1587 1588 1589 1590 1591 1592 1593 1594 1595 1596 1597 1598 1599 1600 1601 1602 1603 1604 1605 1606 1607 1608 1609 1610 1611 1612 1613 1614 1615 1616 1617 1618 1619 1620 1621 1622 1623 1624 1625 1626 1627 1628 1629 1630 1631 1632 1633 1634 1635 1636 1637 1638 1639 1640 1641 1642 1643 1644 1645 1646 1647 1648 1649 1650 1651 1652 1653 1654 1655 1656 1657 1658 1659 1660 1661 1662 1663 1664 1665 1666 1667 1668 1669 1670 1671 1672 1673 1674 1675 1676 1677 1678 1679 1680 1681 1682 1683 1684 1685 1686 1687 1688 1689 1690 1691 1692 1693 1694 1695 1696 1697 1698 1699 1700 1701 1702 1703 1704 1705 1706 1707 1708 1709 1710 1711 1712 1713 1714 1715 1716 1717 1718 1719 1720 1721 1722 1723 1724 1725 1726 1727 1728 1729 1730 1731 1732 1733 1734 1735 1736 1737 1738 1739 1740 1741 1742 1743 1744 1745 1746 1747 1748 1749 1750 1751 1752 1753 1754 1755 1756 1757 1758 1759 1760 1761 1762 1763 1764 1765 1766 1767 1768 1769 1770 1771 1772 1773 1774 1775 1776 1777 1778 1779 1780 1781 1782 1783 1784 1785 1786 1787 1788 1789 1790 1791 1792 1793 1794 1795 1796 1797 1798 1799 1800 1801 1802 1803 1804 1805 1806 1807 1808 1809 1810 1811 1812 1813 1814 1815 1816 1817 1818 1819 1820 1821 1822 1823 1824 1825 1826 1827 1828 1829 1830 1831 1832 1833 1834 1835 1836 1837 1838 1839 1840 1841 1842 1843 1844 1845 1846 1847 1848 1849 1850 1851 1852 1853 1854 1855 1856 1857 1858 1859 1860 1861 1862 1863 1864 1865 1866 1867 1868 1869 1870 1871 1872 1873 1874 1875 1876 1877 1878 1879 1880 1881 1882 1883 1884 1885 1886 1887 1888 1889 1890 1891 1892 1893 1894 1895 1896 1897 1898 1899 1900 1901 1902 1903 1904 1905 1906 1907 1908 1909 1910 1911 1912 1913 1914 1915 1916 1917 1918 1919 1920 1921 1922 1923 1924 1925 1926 1927 1928 1929 1930 1931 1932 1933 1934 1935 1936 1937 1938 1939 1940 1941 1942 1943 1944 1945 1946 1947 1948 1949 1950 1951 1952 1953 1954 1955 1956 1957 1958 1959 1960 1961 1962 1963 1964 1965 1966 1967 1968 1969 1970 1971 1972 1973 1974 1975 1976 1977 1978 1979 1980 1981 1982 1983 1984 1985 1986 1987 1988 1989 1990 1991 1992 1993 1994 1995 1996 1997 1998 1999 2000 2001 2002 2003 2004 2005 2006 2007 2008 2009 2010 2011 2012 2013 2014 2015 2016 2017 2018 2019 2020 2021 2022 2023 2024 2025 2026 2027 2028 2029 2030 2031 2032 2033 2034 2035 2036 2037 2038 2039 2040 2041 2042 2043 2044 2045 2046 2047 2048 2049 2050 2051 2052 2053 2054 2055 2056 2057 2058 2059 2060 2061 2062 2063 2064 2065 2066 2067 2068 2069 2070 2071 2072 2073 2074 2075 2076 2077 2078 2079 2080 2081 2082 2083 2084 2085 2086 2087 2088 2089 2090 2091 2092 2093 2094 2095 2096 2097 2098 2099 2100 2101 2102 2103 2104 2105 2106 2107 2108 2109 2110 2111 2112 2113 2114 2115 2116 2117 2118 2119 2120 2121 2122 2123 2124 2125 2126 2127 2128 2129 2130 2131 2132 2133 2134 2135 2136 2137 2138 2139 2140 2141 2142 2143 2144 2145 2146 2147 2148 2149 2150 2151 2152 2153 2154 2155 2156 2157 2158 2159 2160 2161 2162 2163 2164 2165 2166 2167 2168 2169 2170 2171 2172 2173 2174 2175 2176 2177 2178 2179 2180 2181 2182 2183 2184 2185 2186 2187 2188 2189 2190 2191 2192 2193 2194 2195 2196 2197 2198 2199 2200 2201 2202 2203 2204 2205 2206 2207 2208 2209 2210 2211 2212 2213 2214 2215 2216 2217 2218 2219 2220 2221 2222 2223 2224 2225 2226 2227 2228 2229 2230 2231 2232 2233 2234 2235 2236 2237 2238 2239 2240 2241 2242 2243 2244 2245 2246 2247 2248 2249 2250 2251 2252 2253 2254 2255 2256 2257 2258 2259 2260 2261 2262 2263 2264 2265 2266 2267 2268 2269 2270 2271 2272 2273 2274 2275 2276 2277 2278 2279 2280 2281 2282 2283 2284 2285 2286 2287 2288 2289 2290 2291 2292 2293 2294 2295 2296 2297 2298 2299 2300 2301 2302 2303 2304 2305 2306 2307 2308 2309 2310 2311 2312 2313 2314 2315 2316 2317 2318 2319 2320 2321 2322 2323 2324 2325 2326 2327 2328 2329 2330 2331 2332 2333 2334 2335 2336 2337 2338 2339 2340 2341 2342 2343 2344 2345 2346 2347 2348 2349 2350 2351 2352 2353 2354 2355 2356 2357 2358 2359 2360 2361 2362 2363 2364 2365 2366 2367 2368 2369 2370 2371 2372 2373 2374 2375 2376 2377 2378 2379 2380 2381 2382 2383 2384 2385 2386 2387 2388 2389 2390 2391 2392 2393 2394 2395 2396 2397 2398 2399 2400 2401 2402 2403 2404 2405 2406 2407 2408 2409 2410 2411 2412 2413 2414 2415 2416 2417 2418 2419 2420 2421 2422 2423 2424 2425 2426 2427 2428 2429 2430 2431 2432 2433 2434 2435 2436 2437 2438 2439 2440 2441 2442 2443 2444 2445 2446 2447 2448 2449 2450 2451 2452 2453 2454 2455 2456 2457 2458 2459 2460 2461 2462 2463 2464 2465 2466 2467 2468 2469 2470 2471 2472 2473 2474 2475 2476 2477 2478 2479 2480 2481 2482 2483 2484 2485 2486 2487 2488 2489 2490 2491 2492 2493 2494 2495 2496 2497 2498 2499 2500 2501 2502 2503 2504 2505 2506 2507 2508 2509 2510 2511 2512 2513 2514 2515 2516 2517 2518 2519 2520 2521 2522 2523 2524 2525 2526 2527 2528 2529 2530 2531 2532 2533 2534 2535 2536 2537 2538 2539 2540 2541 2542 2543 2544 2545 2546 2547 2548 2549 2550 2551 2552 2553 2554 2555 2556 2557 2558 2559 2560 2561 2562 2563 2564 2565 2566 2567 2568 2569 2570 2571 2572 2573 2574 2575 2576 2577 2578 2579 2580 2581 2582 2583 2584 2585 2586 2587 2588 2589 2590 2591 2592 2593 2594 2595 2596 2597 2598 2599 2600 2601 2602 2603 2604 2605 2606 2607 2608 2609 2610 2611 2612 2613 2614 2615 2616 2617 2618 2619 2620 2621 2622 2623 2624 2625 2626 2627 2628 2629 2630 2631 2632 2633 2634 2635 2636 2637 2638 2639 2640 2641 2642 2643 2644 2645 2646 2647 2648 2649 2650 2651 2652 2653 2654 2655 2656 2657 2658 2659 2660 2661 2662 2663 2664 2665 2666 2667 2668 2669 2670 2671 2672 2673 2674 2675 2676 2677 2678 2679 2680 2681 2682 2683 2684 2685 2686 2687 2688 2689 2690 2691 2692 2693 2694 2695 2696 2697 2698 2699 2700 2701 2702 2703 2704 2705 2706 2707 2708 2709 2710 2711 2712 2713 2714 2715 2716 2717 2718 2719 2720 2721 2722 2723 2724 2725 2726 2727 2728 2729 2730 2731 2732 2733 2734 2735 2736 2737 2738 2739 2740 2741 2742 2743 2744 2745 2746 2747 2748 2749 2750 2751 2752 2753 2754 2755 2756 2757 2758 2759 2760 2761 2762 2763 2764 2765 2766 2767 2768 2769 2770 2771 2772 2773 2774 2775 2776 2777 2778 2779 2780 2781 2782 2783 2784 2785 2786 2787 2788 2789 2790 2791 2792 2793 2794 2795 2796 2797 2798 2799 2800 2801 2802 2803 2804 2805 2806 2807 2808 2809 2810 2811 2812 2813 2814 2815 2816 2817 2818 2819 2820 2821 2822 2823 2824 2825 2826 2827 2828 2829 2830 2831 2832 2833 2834 2835 2836 2837 2838 2839 2840 2841 2842 2843 2844 2845 2846 2847 2848 2849 2850 2851 2852 2853 2854 2855 2856 2857 2858 2859 2860 2861 2862 2863 2864 2865 2866 2867 2868 2869 2870 2871 2872 2873 2874 2875 2876 2877 2878 2879 2880 2881 2882 2883 2884 2885 2886 2887 2888 2889 2890 2891 2892 2893 2894 2895 2896 2897 2898 2899 2900 2901 2902 2903 2904 2905 2906 2907 2908 2909 2910 2911 2912 2913 2914 2915 2916 2917 2918 2919 2920 2921 2922 2923 2924 2925 2926 2927 2928 2929 2930 2931 2932 2933 2934 2935 2936 2937 2938 2939 2940 2941 2942 2943 2944 2945 2946 2947 2948 2949 2950 2951 2952 2953 2954 2955 2956 2957 2958 2959 2960 2961 2962 2963 2964 2965 2966 2967 2968 2969 2970 2971 2972 2973 2974 2975 2976 2977 2978 2979 2980 2981 2982 2983 2984 2985 2986 2987 2988 2989 2990 2991 2992 2993 2994 2995 2996 2997 2998 2999 3000 3001 3002 3003 3004 3005 3006 3007 3008 3009 3010 3011 3012 3013 3014 3015 3016 3017 3018 3019 3020 3021 3022 3023 3024 3025 3026 3027 3028 3029 3030 3031 3032 3033 3034 3035 3036 3037 3038 3039 3040 3041 3042 3043 3044 3045 3046 3047 3048 3049 3050 3051 3052 3053 3054 3055 3056 3057 3058 3059 3060 3061 3062 3063 3064 3065 3066 3067 3068 3069 3070 3071 3072 3073 3074 3075 3076 3077 3078 3079 3080 3081 3082 3083 3084 3085 3086 3087 3088 3089 3090 3091 3092 3093 3094 3095 3096 3097 3098 3099 3100 3101 3102 3103 3104 3105 3106 3107 3108 3109 3110 3111 3112 3113 3114 3115 3116 3117 3118 3119 3120 3121 3122 3123 3124 3125 3126 3127 3128 3129 3130 3131 3132 3133 3134 3135 3136 3137 3138 3139 3140 3141 
</DataArray>
<DataArray type="UInt32" Name="offsets" format="ascii">
3 6 9 12 15 18 21 24 27 30 33 36 39 42 45 48 51 54 57 60 63 66 69 72 75 78 81 84 87 90 93 96 99 102 105 108 111 114 117 120 123 126 129 132 135 138 141 144 147 150 153 156 159 162 165 168 171 174 177 180 183 186 189 192 195 198 201 204 207 210 213 216 219 222 225 228 231 234 237 240 243 246 249 252 255 258 261 264 267 270 273 276 279 282 285 288 291 294 297 300 303 306 309 312 315 318 321 324 327 330 333 336 339 342 345 348 351 354 357 360 363 366 369 372 375 378 381 384 387 390 393 396 399 402 405 408 411 414 417 420 423 426 429 432 435 438 441 444 447 450 453 456 459 462 465 468 471 474 477 480 483 486 489 492 495 498 501 504 507 510 513 516 519 522 525 528 531 534 537 540 543 546 549 552 555 558 561 564 567 570 573 576 579 582 585 588 591 594 597 600 603 606 609 612 615 618 621 624 627 630 633 636 639 642 645 648 651 654 657 660 663 666 669 672 675 678 681 684 687 690 693 696 699 702 705 708 711 714 717 720 723 726 729 732 735 738 741 744 747 750 753 756 759 762 765 768 771 774 777 780 783 786 789 792 795 798 801 804 807 810 813 816 819 822 825 828 831 834 837 840 843 846 849 852 855 858 861 864 867 870 873 876 879 882 885 888 891 894 897 900 903 906 909 912 915 918 921 924 927 930 933 936 939 942 945 948 951 954 957 960 963 966 969 972 975 978 981 984 987 990 993 996 999 1002 1005 1008 1011 1014 1017 1020 1023 1026 1029 1032 1035 1038 1041 1044 1047 1050 1053 1056 1059 1062 1065 1068 1071 1074 1077 1080 1083 1086 1089 1092 1095 1098 1101 1104 1107 1110 1113 1116 1119 1122 1125 1128 1131 1134 1137 1140 1143 1146 1149 1152 1155 1158 1161 1164 1167 1170 1173 1176 1179 1182 1185 1188 1191 1194 1197 1200 1203 1206 1209 1212 1215 1218 1221 1224 1227 1230 1233 1236 1239 1242 1245 1248 1251 1254 1257 1260 1263 1266 1269 1272 1275 1278 1281 1284 1287 1290 1293 1296 1299 1302 1305 1308 1311 1314 1317 1320 1323 1326 1329 1332 1335 1338 1341 1344 1347 1350 1353 1356 1359 1362 1365 1368 1371 1374 1377 1380 1383 1386 1389 1392 1395 1398 1401 1404 1407 1410 1413 1416 1419 1422 1425 1428 1431 1434 1437 1440 1443 1446 1449 1452 1455 1458 1461 1464 1467 1470 1473 1476 1479 1482 1485 1488 1491 1494 1497 1500 1503 1506 1509 1512 1515 1518 1521 1524 1527 1530 1533 1536 1539 1542 1545 1548 1551 1554 1557 1560 1563 1566 1569 1572 1575 1578 1581 1584 1587 1590 1593 1596 1599 1602 1605 1608 1611 1614 1616 1619 1622 1624 1627 1630 1632 1635 1638 1641 1644 1647 1650 1653 1656 1659 1662 1665 1668 1671 1673 1676 1679 1682 1685 1688 1690 1693 1696 1699 1702 1705 1708 1711 1714 1717 1720 1723 1726 1729 1732 1735 1738 1741 1744 1747 1750 1753 1756 1759 1762 1765 1768 1771 1774 1777 1780 1783 1786 1789 1792 1795 1798 1801 1804 1807 1810 1813 1816 1819 1822 1825 1828 1831 1834 1837 1840 1843 1846 1849 1852 1855 1858 1861 1864 1867 1870 1873 1876 1879 1882 1885 1888 1891 1894 1897 1900 1903 1906 1909 1912 1915 1918 1921 1924 1927 1930 1933 1936 1939 1942 1945 1948 1951 1954 1957 1960 1963 1966 1969 1972 1975 1978 1981 1984 1987 1990 1993 1996 1999 2002 2005 2008 2011 2014 2017 2020 2023 2026 2029 2032 2035 2038 2041 2044 2047 2050 2053 2056 2059 2062 2065 2068 2071 2074 2077 2080 2083 2086 2089 2092 2095 2098 2101 2104 2107 2110 2113 2116 2119 2122 2125 2128 2131 2134 2137 2140 2143 2146 2149 2152 2155 2158 2161 2164 2167 2170 2173 2176 2179 2182 2185 2188 2191 2194 2196 2199 2202 2205 2207 2210 2213 2215 2218 2221 2224 2227 2230 2233 2236 2239 2242 2245 2248 2250 2253 2256 2259 2262 2264 2267 2270 2273 2276 2279 2282 2285 2288 2291 2294 2297 2300 2303 2306 2309 2312 2315 2318 2321 2324 2327 2330 2333 2336 2339 2342 2345 2348 2351 2354 2357 2360 2363 2366 2369 2372 2375 2378 2381 2384 2387 2390 2393 2396 2399 2402 2405 2408 2411 2414 2417 2420 2423 2426 2429 2432 2435 2438 2440 2443 2446 2449 2452 2455 2458 2461 2464 2467 2470 2473 2476 2479 2482 2484 2487 2490 2492 2495 2497 2500 2503 2506 2509 2512 2515 2518 2521 2524 2527 2530 2533 2536 2538 2541 2544 2547 2550 2553 2556 2559 2562 2565 2568 2571 2574 2577 2580 2583 2586 2589 2592 2595 2598 2601 2604 2607 2610 2613 2616 2619 2622 2625 2628 2631 2634 2637 2640 2643 2646 2649 2652 2655 2658 2661 2664 2667 2670 2673 2676 2679 2682 2685 2688 2691 2694 2697 2700 2703 2706 2709 2712 2715 2718 2721 2724 2727 2730 2733 2736 2739 2742 2745 2748 2751 2754 2757 2760 2763 2766 2769 2772 2775 2778 2781 2784 2787 2790 2793 2796 2799 2802 2805 2808 2811 2814 2817 2820 2823 2826 2829 2832 2835 2838 2841 2844 2847 2850 2853 2856 2859 2862 2865 2868 2871 2874 2877 2880 2883 2886 2889 2892 2895 2898 2901 2904 2907 2910 2913 2916 2919 2922 2925 2928 2931 2934 2937 2940 2943 2946 2948 2951 2954 2956 2959 2961 2964 2967 2970 2973 2976 2979 2982 2985 2988 2991 2994 2997 3000 3003 3006 3009 3012 3015 3018 3021 3024 3027 3030 3033 3036 3039 3042 3045 3048 3051 3054 3057 3060 3063 3066 3069 3072 3075 3078 3081 3084 3087 3090 3093 3096 3099 3102 3104 3107 3110 3113 3116 3119 3121 3124 3127 3130 3133 3136 3139 3142 
</DataArray>
<DataArray type="UInt32" Name="types" format="ascii">
5 5 5 5 5 5 5 5 5 5 5 5 5 5 5 5 5 5 5 5 5 5 5 5 5 5 5 5 5 5 5 5 5 5 5 5 5 5 5 5 5 5 5 5 5 5 5 5 5 5 5 5 5 5 5 5 5 5 5 5 5 5 5 5 5 5 5 5 5 5 5 5 5 5 5 5 5 5 5 5 5 5 5 5 5 5 5 5 5 5 5 5 5 5 5 5 5 5 5 5 5 5 5 5 5 5 5 5 5 5 5 5 5 5 5 5 5 5 5 5 5 5 5 5 5 5 5 5 5 5 5 5 5 5 5 5 5 5 5 5 5 5 5 5 5 5 5 5 5 5 5 5 5 5 5 5 5 5 5 5 5 5 5 5 5 5 5 5 5 5 5 5 5 5 5 5 5 5 5 5 5 5 5 5 5 5 5 5 5 5 5 5 5 5 5 5 5 5 5 5 5 5 5 5 5 5 5 5 5 5 5 5 5 5 5 5 5 5 5 5 5 5 5 5 5 5 5 5 5 5 5 5 5 5 5 5 5 5 5 5 5 5 5 5 5 5 5 5 5 5 5 5 5 5 5 5 5 5 5 5 5 5 5 5 5 5 5 5 5 5 5 5 5 5 5 5 5 5 5 5 5 5 5 5 5 5 5 5 5 5 5 5 5 5 5 5 5 5 5 5 5 5 5 5 5 5 5 5 5 5 5 5 5 5 5 5 5 5 5 5 5 5 5 5 5 5 5 5 5 5 5 5 5 5 5 5 5 5 5 5 5 5 5 5 5 5 5 5 5 5 5 5 5 5 5 5 5 5 5 5 5 5 5 5 5 5 5 5 5 5 5 5 5 5 5 5 5 5 5 5 5 5 5 5 5 5 5 5 5 5 5 5 5 5 5 5 5 5 5 5 5 5 5 5 5 5 5 5 5 5 5 5 5 5 5 5 5 5 5 5 5 5 5 5 5 5 5 5 5 5 5 5 5 5 5 5 5 5 5 5 5 5 5 5 5 5 5 5 5 5 5 5 5 5 5 5 5 5 5 5 5 5 5 5 5 5 5 5 5 5 5 5 5 5 5 5 5 5 5 5 5 5 5 5 5 5 5 5 5 5 5 5 5 5 5 5 5 5 5 5 5 5 5 5 5 5 5 5 5 5 5 5 5 5 5 5 5 5 5 5 5 5 5 5 5 5 5 5 5 5 5 5 5 5 5 5 5 5 3 5 5 3 5 5 3 5 5 5 5 5 5 5 5 5 5 5 5 5 3 5 5 5 5 5 3 5 5 5 5 5 5 5 5 5 5 5 5 5 5 5 5 5 5 5 5 5 5 5 5 5 5 5 5 5 5 5 5 5 5 5 5 5 5 5 5 5 5 5 5 5 5 5 5 5 5 5 5 5 5 5 5 5 5 5 5 5 5 5 5 5 5 5 5 5 5 5 5 5 5 5 5 5 5 5 5 5 5 5 5 5 5 5 5 5 5 5 5 5 5 5 5 5 5 5 5 5 5 5 5 5 5 5 5 5 5 5 5 5 5 5 5 5 5 5 5 5 5 5 5 5 5 5 5 5 5 5 5 5 5 5 5 5 5 5 5 5 5 5 5 5 5 5 5 5 5 5 5 5 5 5 5 5 5 5 5 5 5 5 5 5 5 5 5 3 5 5 5 3 5 5 3 5 5 5 5 5 5 5 5 5 5 5 3 5 5 5 5 3 5 5 5 5 5 5 5 5 5 5 5 5 5 5 5 5 5 5 5 5 5 5 5 5 5 5 5 5 5 5 5 5 5 5 5 5 5 5 5 5 5 5 5 5 5 5 5 5 5 5 5 5 5 5 5 5 5 5 3 5 5 5 5 5 5 5 5 5 5 5 5 5 5 3 5 5 3 5 3 5 5 5 5 5 5 5 5 5 5 5 5 5 3 5 5 5 5 5 5 5 5 5 5 5 5 5 5 5 5 5 5 5 5 5 5 5 5 5 5 5 5 5 5 5 5 5 5 5 5 5 5 5 5 5 5 5 5 5 5 5 5 5 5 5 5 5 5 5 5 5 5 5 5 5 5 5 5 5 5 5 5 5 5 5 5 5 5 5 5 5 5 5 5 5 5 5 5 5 5 5 5 5 5 5 5 5 5 5 5 5 5 5 5 5 5 5 5 5 5 5 5 5 5 5 5 5 5 5 5 5 5 5 5 5 5 5 5 5 5 5 5 5 5 5 5 5 5 5 5 3 5 5 3 5 3 5 5 5 5 5 5 5 5 5 5 5 5 5 5 5 5 5 5 5 5 5 5 5 5 5 5 5 5 5 5 5 5 5 5 5 5 5 5 5 5 5 5 5 5 5 5 5 3 5 5 5 5 5 3 5 5 5 5 5 5 5 
</DataArray>
</Cells>
<PointData Scalars="" Vectors="displacement," Tensors="">
<DataArray type="Float64" Name="displacement" NumberOfComponents="3" format="ascii">
-1.1552250472829487e-09 -4.7463410229537792e-10 0 -1.3667774997271611e-06 7.7449966609015383e-08 0 -6.3009851317358756e-07 1.7992895243659369e-07 0 -1.1552250472829487e-09 -4.7463410229537792e-10 0 -6.3009851317358767e-07 1.7992895243659374e-07 0 -1.1329416855391869e-09 3.6568399051037014e-10 0 -1.3667774997271611e-06 7.7449966609015383e-08 0 -1.4413451098833511e-06 6.5768092235306536e-07 0 -6.3009851317358756e-07 1.7992895243659369e-07 0 -1.1329416855391869e-09 3.6568399051037014e-10 0 -6.3009851317358756e-07 1.7992895243659374e-07 0 -1.4413451098833511e-06 6.5768092235306536e-07 0 -1.1378508851884659e-09 2.5255640218810654e-10 0 -1.1329416855391869e-09 3.6568399051037014e-10 0 -9.3000244044357607e-07 9.123385046557431e-07 0 -6.0462958879536048e-10 6.8446567511062484e-10 0 -1.1378508851884659e-09 2.5255640218810654e-10 0 -9.3000244044357607e-07 9.123385046557431e-07 0 -2.0309213116587627e-06 1.400707228234241e-06 0 -9.3000244044357607e-07 9.123385046557431e-07 0 -1.4413451098833511e-06 6.5768092235306536e-07 0 -1.1329416855391869e-09 3.6568399051037014e-10 0 -1.4413451098833511e-06 6.5768092235306536e-07 0 -9.3000244044357607e-07 9.123385046557431e-07 0 -2.0309213116587627e-06 1.400707228234241e-06 0 -1.0885885849654921e-06 1.5167939210661498e-06 0 -9.3000244044357607e-07 9.123385046557431e-07 0 -2.0309213116587627e-06 1.400707228234241e-06 0 -2.0899194387495544e-06 1.9652569645199857e-06 0 -1.0885885849654921e-06 1.5167939210661498e-06 0 -2.0309213116587627e-06 1.400707228234241e-06 0 -3.1424934472397324e-06 1.8407856933063925e-06 0 -2.0899194387495544e-06 1.9652569645199857e-06 0 -2.5437729344372536e-06 2.3493990285118033e-06 0 -2.0899194387495544e-06 1.9652569645199857e-06 0 -3.142493447239732e-06 1.8407856933063925e-06 0 -4.461256409509717e-06 1.5496366038191383e-06 0 -3.142493447239732e-06 1.8407856933063925e-06 0 -3.0954673240961657e-06 1.1219656548602189e-06 0 -2.0309213116587627e-06 1.400707228234241e-06 0 -3.0954673240961657e-06 1.1219656548602189e-06 0 -3.142493447239732e-06 1.8407856933063925e-06 0 -3.118221890432634e-06 5.2258255436309498e-07 0 -5.2899355616316813e-06 7.4506480135943819e-07 0 -3.0954673240961657e-06 1.1219656548602189e-06 0 -1.3667774997271611e-06 7.7449966609015383e-08 0 -3.118221890432634e-06 5.2258255436309498e-07 0 -1.4413451098833511e-06 6.5768092235306536e-07 0 -3.118221890432634e-06 5.2258255436309498e-07 0 -3.0954673240961657e-06 1.1219656548602189e-06 0 -1.4413451098833511e-06 6.5768092235306536e-07 0 -2.0309213116587627e-06 1.400707228234241e-06 0 -1.4413451098833511e-06 6.5768092235306536e-07 0 -3.0954673240961657e-06 1.1219656548602189e-06 0 -3.0980931872009963e-11 6.1123172303528247e-10 0 -3.8597940548440625e-10 5.0016720248239898e-10 0 -1.6204899284788744e-07 1.2601232113113399e-06 0 -3.8597940548440625e-10 5.0016720248239898e-10 0 -3.8640832234596323e-07 1.0535971017173267e-06 0 -1.6204899284788744e-07 1.2601232113113399e-06 0 -6.9009224306476244e-07 1.9819379660894114e-06 0 -1.6204899284788744e-07 1.2601232113113399e-06 0 -3.8640832234596323e-07 1.0535971017173267e-06 0 -6.0462958879536048e-10 6.8446567511062484e-10 0 -1.0885885849654921e-06 1.5167939210661498e-06 0 -3.8640832234596323e-07 1.0535971017173267e-06 0 -6.0462958879536048e-10 6.8446567511062484e-10 0 -9.3000244044357607e-07 9.123385046557431e-07 0 -1.0885885849654921e-06 1.5167939210661498e-06 0 -6.9009224306476244e-07 1.9819379660894114e-06 0 -3.8640832234596323e-07 1.0535971017173267e-06 0 -1.0885885849654921e-06 1.5167939210661498e-06 0 -3.8597940548440625e-10 5.0016720248239898e-10 0 -6.0462958879536048e-10 6.8446567511062484e-10 0 -3.8640832234596323e-07 1.0535971017173267e-06 0 -1.0885885849654921e-06 1.5167939210661498e-06 0 -2.0899194387495544e-06 1.9652569645199857e-06 0 -1.5098524313745269e-06 2.1884042145432907e-06 0 -2.5437729344372536e-06 2.3493990285118033e-06 0 -1.5098524313745269e-06 2.1884042145432907e-06 0 -2.0899194387495544e-06 1.9652569645199857e-06 0 -6.9009224306476244e-07 1.9819379660894114e-06 0 -1.0885885849654921e-06 1.5167939210661498e-06 0 -1.5098524313745269e-06 2.1884042145432907e-06 0 -6.9009224306476244e-07 1.9819379660894114e-06 0 -1.0530195453576084e-06 2.5761006956567841e-06 0 -7.0664016863751957e-08 2.213297125509518e-06 0 -6.9009224306476244e-07 1.9819379660894114e-06 0 -1.5098524313745269e-06 2.1884042145432907e-06 0 -1.0530195453576084e-06 2.5761006956567841e-06 0 -6.9009224306476244e-07 1.9819379660894114e-06 0 -7.0664016863751957e-08 2.213297125509518e-06 0 -1.6204899284788744e-07 1.2601232113113399e-06 0 1.6489845214333682e-07 1.3773781753536211e-06 0 -1.6204899284788744e-07 1.2601232113113399e-06 0 -7.0664016863751957e-08 2.213297125509518e-06 0 -1.0530195453576084e-06 2.5761006956567841e-06 0 -1.5081463720797761e-07 2.6073768541251084e-06 0 -7.0664016863751957e-08 2.213297125509518e-06 0 -4.1405716503012619e-07 2.6601201188538597e-06 0 -1.5081463720797748e-07 2.6073768541251079e-06 0 -1.0530195453576084e-06 2.5761006956567841e-06 0 -4.1405716503012619e-07 2.6601201188538597e-06 0 -1.0530195453576084e-06 2.5761006956567841e-06 0 -1.916823681198303e-06 2.5577422967554786e-06 0 -2.5437729344372536e-06 2.3493990285118033e-06 0 -3.5332021483732426e-06 2.2700545155084484e-06 0 -1.916823681198303e-06 2.5577422967554786e-06 0 -2.5437729344372536e-06 2.3493990285118033e-06 0 -1.0530195453576082e-06 2.5761006956567841e-06 0 -1.5098524313745269e-06 2.1884042145432907e-06 0 -2.5437729344372536e-06 2.3493990285118033e-06 0 -1.916823681198303e-06 2.5577422967554786e-06 0 -1.0530195453576084e-06 2.5761006956567841e-06 0 -2.5437729344372536e-06 2.3493990285118033e-06 0 -4.0306498727530111e-06 2.016239134551505e-06 0 -3.5332021483732422e-06 2.2700545155084488e-06 0 -2.6384691764552851e-06 2.2244352847231653e-06 0 -3.5332021483732426e-06 2.2700545155084488e-06 0 -4.9893041479586614e-06 1.7535903487084151e-06 0 -2.6384691764552851e-06 2.2244352847231653e-06 0 -4.9893041479586614e-06 1.7535903487084151e-06 0 -4.1723322266501178e-06 1.467351990311982e-06 0 -2.6384691764552851e-06 2.2244352847231653e-06 0 -4.1723322266501178e-06 1.4673519903119818e-06 0 -2.5263761387492016e-06 1.4764801309786717e-06 0 -2.6384691764552851e-06 2.2244352847231653e-06 0 -1.916823681198303e-06 2.5577422967554786e-06 0 -3.5332021483732422e-06 2.2700545155084488e-06 0 -4.1405716503012619e-07 2.6601201188538597e-06 0 -1.916823681198303e-06 2.5577422967554786e-06 0 -9.9141677366499658e-07 2.3107620885710871e-06 0 -2.6384691764552851e-06 2.2244352847231653e-06 0 -9.9141677366499658e-07 2.3107620885710871e-06 0 -1.916823681198303e-06 2.5577422967554786e-06 0 -2.6384691764552851e-06 2.2244352847231653e-06 0 -2.5263761387492016e-06 1.4764801309786717e-06 0 -9.9141677366499658e-07 2.3107620885710871e-06 0 5.1477482987342532e-07 1.8718312878350107e-06 0 7.2035063957469089e-07 2.475883120231924e-06 0 -9.9141677366499658e-07 2.3107620885710871e-06 0 -4.1405716503012619e-07 2.6601201188538597e-06 0 -9.9141677366499658e-07 2.3107620885710871e-06 0 7.20350639574691e-07 2.475883120231924e-06 0 -5.2899355616316813e-06 7.4506480135943819e-07 0 -6.367464170466693e-06 1.1790969591928022e-06 0 -4.461256409509717e-06 1.5496366038191383e-06 0 -5.7310449490936735e-06 1.6929382386936227e-06 0 -4.461256409509717e-06 1.5496366038191383e-06 0 -6.3674641704666938e-06 1.179096959192802e-06 0 -5.2899355616316813e-06 7.4506480135943819e-07 0 -7.8771749075101479e-06 4.1369719040556221e-07 0 -6.3674641704666938e-06 1.179096959192802e-06 0 -5.2899355616316813e-06 7.4506480135943819e-07 0 -4.461256409509717e-06 1.5496366038191385e-06 0 -3.0954673240961657e-06 1.1219656548602189e-06 0 -4.461256409509717e-06 1.5496366038191383e-06 0 -4.0306498727530111e-06 2.016239134551505e-06 0 -3.142493447239732e-06 1.8407856933063925e-06 0 -2.5437729344372536e-06 2.3493990285118033e-06 0 -3.142493447239732e-06 1.8407856933063925e-06 0 -4.0306498727530111e-06 2.016239134551505e-06 0 -5.7310449490936735e-06 1.6929382386936227e-06 0 -3.5332021483732422e-06 2.2700545155084488e-06 0 -4.0306498727530111e-06 2.016239134551505e-06 0 -5.7310449490936735e-06 1.6929382386936227e-06 0 -4.0306498727530111e-06 2.016239134551505e-06 0 -4.461256409509717e-06 1.5496366038191383e-06 0 -5.7310449490936735e-06 1.6929382386936227e-06 0 -4.9893041479586614e-06 1.7535903487084151e-06 0 -3.5332021483732422e-06 2.2700545155084488e-06 0 -5.7310449490936735e-06 1.6929382386936227e-06 0 -7.1196720009213845e-06 1.1124391252134291e-06 0 -4.9893041479586614e-06 1.7535903487084151e-06 0 -6.7684512425119633e-06 6.7329130413729513e-07 0 -4.9893041479586614e-06 1.7535903487084151e-06 0 -7.1196720009213845e-06 1.1124391252134291e-06 0 -5.7310449490936735e-06 1.6929382386936227e-06 0 -8.0824573286969983e-06 8.0139132747020678e-07 0 -7.1196720009213845e-06 1.1124391252134291e-06 0 -9.8313679724001611e-06 -9.4033461045398594e-08 0 -7.1196720009213845e-06 1.1124391252134291e-06 0 -8.0824573286969983e-06 8.0139132747020678e-07 0 -5.7310449490936735e-06 1.6929382386936227e-06 0 -6.3674641704666938e-06 1.179096959192802e-06 0 -8.0824573286969983e-06 8.0139132747020678e-07 0 -7.8771749075101479e-06 4.1369719040556232e-07 0 -8.0824573286969983e-06 8.0139132747020678e-07 0 -6.3674641704666938e-06 1.179096959192802e-06 0 -7.8771749075101479e-06 4.1369719040556232e-07 0 -1.0836351698399518e-05 -5.2043070800140092e-07 0 -8.0824573286969983e-06 8.0139132747020678e-07 0 -1.0836351698399518e-05 -5.2043070800140082e-07 0 -1.4002684085907652e-05 -2.1723131275404805e-06 0 -9.8313679724001611e-06 -9.4033461045398594e-08 0 -1.0836351698399518e-05 -5.2043070800140082e-07 0 -9.8313679724001611e-06 -9.4033461045398594e-08 0 -8.0824573286969983e-06 8.0139132747020678e-07 0 -1.4002684085907652e-05 -2.1723131275404805e-06 0 -1.3216684375945131e-05 -2.2716304126118455e-06 0 -9.8313679724001611e-06 -9.4033461045398594e-08 0 -1.4002684085907652e-05 -2.1723131275404805e-06 0 -1.7691712755735564e-05 -4.7007111973481293e-06 0 -1.3216684375945131e-05 -2.2716304126118455e-06 0 -1.1793480992034629e-05 -3.0743438560190635e-06 0 -1.3216684375945131e-05 -2.2716304126118455e-06 0 -1.6076167128547665e-05 -4.5644891920294385e-06 0 -1.1793480992034629e-05 -3.0743438560190635e-06 0 -1.6076167128547665e-05 -4.5644891920294385e-06 0 -1.6348833605275658e-05 -6.6388948881629117e-06 0 -1.7691712755735564e-05 -4.7007111973481293e-06 0 -1.6076167128547665e-05 -4.5644891920294385e-06 0 -1.3216684375945131e-05 -2.2716304126118455e-06 0 -1.7691712755735564e-05 -4.7007111973481293e-06 0 -2.1799049108911303e-05 -8.2473467582249146e-06 0 -1.6076167128547665e-05 -4.5644891920294385e-06 0 -1.1793480992034629e-05 -3.0743438560190635e-06 0 -1.1223399924690257e-05 -5.8251071273268078e-06 0 -7.6246590231138261e-06 -2.9257480434618664e-06 0 -1.1793480992034629e-05 -3.0743438560190635e-06 0 -7.6246590231138261e-06 -2.9257480434618664e-06 0 -7.9013621285627502e-06 -1.0023782334600501e-06 0 -1.1793480992034629e-05 -3.0743438560190635e-06 0 -9.9092145338147034e-06 -9.5451293173901076e-07 0 -1.3216684375945131e-05 -2.2716304126118455e-06 0 -1.1793480992034629e-05 -3.0743438560190635e-06 0 -7.9013621285627502e-06 -1.0023782334600501e-06 0 -9.9092145338147034e-06 -9.5451293173901076e-07 0 -6.7684512425119633e-06 6.7329130413729513e-07 0 -9.9092145338147034e-06 -9.5451293173901076e-07 0 -7.9013621285627502e-06 -1.0023782334600501e-06 0 -9.8313679724001611e-06 -9.4033461045398594e-08 0 -1.3216684375945131e-05 -2.2716304126118455e-06 0 -9.9092145338147034e-06 -9.5451293173901076e-07 0 -9.9092145338147034e-06 -9.5451293173901076e-07 0 -6.7684512425119633e-06 6.7329130413729513e-07 0 -9.8313679724001611e-06 -9.4033461045398594e-08 0 -9.8313679724001611e-06 -9.4033461045398594e-08 0 -6.7684512425119633e-06 6.7329130413729513e-07 0 -7.1196720009213845e-06 1.1124391252134291e-06 0 -6.7684512425119633e-06 6.7329130413729513e-07 0 -4.1723322266501178e-06 1.467351990311982e-06 0 -4.9893041479586614e-06 1.7535903487084151e-06 0 -6.7684512425119633e-06 6.7329130413729513e-07 0 -4.8358547000982899e-06 4.3743602411746077e-07 0 -4.1723322266501178e-06 1.467351990311982e-06 0 -2.5263761387492016e-06 1.4764801309786717e-06 0 -4.1723322266501178e-06 1.4673519903119822e-06 0 -4.8358547000982899e-06 4.3743602411746077e-07 0 -5.2360500685633289e-06 -1.0321957749252901e-06 0 -2.6533703379597347e-06 -5.7187922881318133e-09 0 -4.8358547000982899e-06 4.3743602411746077e-07 0 -2.5263761387492016e-06 1.4764801309786717e-06 0 -4.8358547000982899e-06 4.3743602411746077e-07 0 -2.6533703379597347e-06 -5.7187922881318133e-09 0 -6.7684512425119633e-06 6.7329130413729513e-07 0 -7.9013621285627502e-06 -1.0023782334600501e-06 0 -4.8358547000982899e-06 4.3743602411746077e-07 0 -7.3111678992882075e-07 1.1961608574182419e-06 0 5.1477482987342532e-07 1.8718312878350107e-06 0 -9.9141677366499658e-07 2.3107620885710871e-06 0 -2.5263761387492016e-06 1.4764801309786717e-06 0 -7.3111678992882075e-07 1.1961608574182419e-06 0 -9.9141677366499658e-07 2.3107620885710871e-06 0 -2.5263761387492016e-06 1.4764801309786717e-06 0 -2.6533703379597342e-06 -5.7187922881318382e-09 0 -7.3111678992882075e-07 1.1961608574182419e-06 0 -1.8810186116865752e-07 -8.3847795107479529e-07 0 1.3346373184234565e-06 9.5756962589416819e-07 0 -7.3111678992882075e-07 1.1961608574182419e-06 0 -1.8810186116865752e-07 -8.3847795107479529e-07 0 -7.3111678992882107e-07 1.1961608574182417e-06 0 -2.6533703379597347e-06 -5.7187922881318133e-09 0 -1.8810186116865752e-07 -8.3847795107479529e-07 0 -2.6533703379597347e-06 -5.7187922881318133e-09 0 -3.7245697047340922e-06 -2.1508193695595547e-06 0 -1.8810186116865752e-07 -8.3847795107479529e-07 0 -3.7245697047340922e-06 -2.1508193695595547e-06 0 -1.3809919292821016e-06 -3.767119921176988e-06 0 -1.8810186116865752e-07 -8.3847795107479529e-07 0 -1.3809919292821016e-06 -3.767119921176988e-06 0 2.0628209547860681e-06 -2.8029444993889123e-06 0 -5.2360500685633289e-06 -1.0321957749252901e-06 0 -4.8358547000982899e-06 4.3743602411746077e-07 0 -7.9013621285627502e-06 -1.0023782334600501e-06 0 -5.2360500685633289e-06 -1.0321957749252901e-06 0 -7.9013621285627502e-06 -1.0023782334600499e-06 0 -7.6246590231138261e-06 -2.9257480434618664e-06 0 -5.2360500685633289e-06 -1.0321957749252901e-06 0 -3.7245697047340922e-06 -2.1508193695595547e-06 0 -2.6533703379597347e-06 -5.7187922881318133e-09 0 -5.9908842412594797e-06 -5.0237672299283453e-06 0 -3.7245697047340922e-06 -2.1508193695595547e-06 0 -7.6246590231138261e-06 -2.9257480434618664e-06 0 -5.2360500685633289e-06 -1.0321957749252901e-06 0 -7.6246590231138261e-06 -2.9257480434618664e-06 0 -3.7245697047340922e-06 -2.1508193695595547e-06 0 -5.9908842412594797e-06 -5.0237672299283453e-06 0 -7.6246590231138261e-06 -2.9257480434618664e-06 0 -1.1223399924690257e-05 -5.8251071273268078e-06 0 -5.9908842412594797e-06 -5.0237672299283453e-06 0 -9.5154520170168353e-06 -9.4369474683285057e-06 0 -3.1276797229267138e-06 -7.1344227523405235e-06 0 -5.9908842412594797e-06 -5.0237672299283453e-06 0 -1.1223399924690255e-05 -5.8251071273268078e-06 0 -9.5154520170168353e-06 -9.4369474683285057e-06 0 1.3437615051810029e-06 -5.9414213292833124e-06 0 2.0628209547860681e-06 -2.8029444993889123e-06 0 -1.3809919292821016e-06 -3.767119921176988e-06 0 -5.9908842412594797e-06 -5.0237672299283453e-06 0 -1.3809919292821016e-06 -3.7671199211769876e-06 0 -3.7245697047340922e-06 -2.1508193695595547e-06 0 -5.9908842412594797e-06 -5.0237672299283453e-06 0 -3.1276797229267138e-06 -7.1344227523405235e-06 0 -1.3809919292821016e-06 -3.767119921176988e-06 0 1.3437615051810029e-06 -5.9414213292833124e-06 0 -1.3809919292821016e-06 -3.767119921176988e-06 0 -3.1276797229267138e-06 -7.1344227523405235e-06 0 1.3437615051810029e-06 -5.9414213292833124e-06 0 -3.1276797229267138e-06 -7.1344227523405244e-06 0 -2.8655816188005923e-07 -1.0048528057255103e-05 0 -4.8692487315837257e-06 -1.2095004644665517e-05 0 -2.8655816188005912e-07 -1.0048528057255103e-05 0 -3.1276797229267138e-06 -7.1344227523405235e-06 0 -4.8692487315837257e-06 -1.2095004644665517e-05 0 -7.7289882677414163e-06 -1.8720702519936495e-05 0 -2.7551695124897645e-06 -1.6342761726179241e-05 0 -4.8692487315837257e-06 -1.2095004644665517e-05 0 -2.7551695124897645e-06 -1.6342761726179241e-05 0 -2.8655816188005923e-07 -1.0048528057255103e-05 0 2.2239469364415752e-06 -1.3461813330293904e-05 0 -2.8655816188005923e-07 -1.0048528057255103e-05 0 -2.7551695124897645e-06 -1.6342761726179241e-05 0 -4.8692487315837257e-06 -1.2095004644665517e-05 0 -9.5154520170168353e-06 -9.4369474683285057e-06 0 -1.0501040144603487e-05 -1.4488923997402652e-05 0 -4.8692487315837257e-06 -1.2095004644665517e-05 0 -3.1276797229267138e-06 -7.1344227523405235e-06 0 -9.5154520170168353e-06 -9.4369474683285057e-06 0 -4.8692487315837257e-06 -1.2095004644665517e-05 0 -1.0501040144603487e-05 -1.4488923997402652e-05 0 -7.7289882677414163e-06 -1.8720702519936495e-05 0 -9.5154520170168353e-06 -9.4369474683285057e-06 0 -1.6374954200321943e-05 -1.4563552755067918e-05 0 -1.0501040144603487e-05 -1.4488923997402652e-05 0 -1.4056791331991109e-05 -1.8597407119657361e-05 0 -1.0501040144603487e-05 -1.4488923997402652e-05 0 -1.6374954200321943e-05 -1.4563552755067918e-05 0 -1.6070850323399272e-05 -9.9404746622806107e-06 0 -1.6374954200321943e-05 -1.4563552755067918e-05 0 -9.5154520170168353e-06 -9.4369474683285057e-06 0 -1.6070850323399272e-05 -9.9404746622806107e-06 0 -2.224445363211159e-05 -1.4525193953298318e-05 0 -1.6374954200321943e-05 -1.4563552755067918e-05 0 -2.3358611957002005e-05 -2.1813367235747247e-05 0 -1.6374954200321943e-05 -1.4563552755067918e-05 0 -2.224445363211159e-05 -1.4525193953298318e-05 0 -3.0568421657509896e-05 -1.9730632736144464e-05 0 -2.3358611957002005e-05 -2.1813367235747247e-05 0 -2.224445363211159e-05 -1.4525193953298318e-05 0 -2.6151485516161242e-05 -1.3260910438102472e-05 0 -3.0568421657509896e-05 -1.9730632736144464e-05 0 -2.224445363211159e-05 -1.4525193953298318e-05 0 -2.6151485516161242e-05 -1.3260910438102472e-05 0 -2.224445363211159e-05 -1.4525193953298318e-05 0 -2.0531641783801061e-05 -1.0357839230482662e-05 0 -1.6070850323399272e-05 -9.9404746622806107e-06 0 -2.0531641783801061e-05 -1.0357839230482662e-05 0 -2.224445363211159e-05 -1.4525193953298318e-05 0 -2.1799049108911303e-05 -8.2473467582249146e-06 0 -2.0531641783801061e-05 -1.0357839230482662e-05 0 -1.6348833605275658e-05 -6.6388948881629117e-06 0 -1.6070850323399272e-05 -9.9404746622806107e-06 0 -1.6348833605275658e-05 -6.6388948881629117e-06 0 -2.0531641783801061e-05 -1.0357839230482662e-05 0 -2.1799049108911303e-05 -8.2473467582249146e-06 0 -2.6151485516161242e-05 -1.3260910438102472e-05 0 -2.0531641783801061e-05 -1.0357839230482662e-05 0 -2.1799049108911303e-05 -8.2473467582249146e-06 0 -1.6348833605275658e-05 -6.6388948881629109e-06 0 -1.6076167128547665e-05 -4.5644891920294385e-06 0 -1.1793480992034629e-05 -3.0743438560190635e-06 0 -1.6348833605275658e-05 -6.6388948881629117e-06 0 -1.1223399924690257e-05 -5.8251071273268078e-06 0 -1.6070850323399272e-05 -9.9404746622806107e-06 0 -9.5154520170168353e-06 -9.436947468328504e-06 0 -1.1223399924690257e-05 -5.8251071273268078e-06 0 -1.6070850323399272e-05 -9.9404746622806107e-06 0 -1.1223399924690257e-05 -5.8251071273268078e-06 0 -1.6348833605275658e-05 -6.6388948881629117e-06 0 8.3202342478227822e-06 -1.6936031686961417e-06 0 7.7171019020703026e-06 -6.3449167708065999e-07 0 6.9233397893301883e-06 -2.7880711163680505e-06 0 6.4637466004880207e-06 -1.3790950740721577e-06 0 6.9233397893301883e-06 -2.7880711163680505e-06 0 7.7171019020703026e-06 -6.3449167708065999e-07 0 6.4637466004880207e-06 -1.3790950740721577e-06 0 5.4602893134895119e-06 -3.0588945075583338e-06 0 6.9233397893301883e-06 -2.7880711163680505e-06 0 8.3202342478227822e-06 -1.6936031686961417e-06 0 9.3534769077653405e-06 5.8248552295906982e-07 0 7.7171019020703026e-06 -6.3449167708065999e-07 0 1.1041279948918579e-05 2.1659963000746751e-06 0 9.3534769077653405e-06 5.8248552295906992e-07 0 1.0546456482347483e-05 3.6574682963411252e-07 0 8.3202342478227822e-06 -1.6936031686961417e-06 0 1.0546456482347483e-05 3.6574682963411252e-07 0 9.3534769077653405e-06 5.8248552295906992e-07 0 8.3202342478227822e-06 -1.6936031686961417e-06 0 9.3154984068511905e-06 -1.8947936714022789e-06 0 1.0546456482347483e-05 3.6574682963411252e-07 0 8.3202342478227822e-06 -1.6936031686961417e-06 0 8.1364545137063158e-06 -4.0758721956493662e-06 0 9.3154984068511905e-06 -1.8947936714022787e-06 0 1.0340471775674756e-05 -2.4269944511966727e-06 0 1.0546456482347483e-05 3.6574682963411252e-07 0 9.3154984068511905e-06 -1.8947936714022787e-06 0 1.0340471775674756e-05 -2.4269944511966727e-06 0 9.3154984068511905e-06 -1.8947936714022783e-06 0 8.1364545137063158e-06 -4.0758721956493662e-06 0 6.1850161813841026e-06 -7.1311104110230079e-06 0 8.1364545137063158e-06 -4.0758721956493662e-06 0 6.7659982979281416e-06 -4.7089643198804357e-06 0 8.3202342478227822e-06 -1.6936031686961417e-06 0 6.7659982979281416e-06 -4.7089643198804348e-06 0 8.1364545137063158e-06 -4.0758721956493662e-06 0 8.3202342478227822e-06 -1.6936031686961417e-06 0 6.9233397893301883e-06 -2.7880711163680505e-06 0 6.7659982979281416e-06 -4.7089643198804357e-06 0 5.9380251354755632e-06 -5.0240930890030812e-06 0 6.7659982979281416e-06 -4.7089643198804357e-06 0 6.9233397893301883e-06 -2.7880711163680505e-06 0 6.1850161813841026e-06 -7.1311104110230079e-06 0 6.7659982979281416e-06 -4.7089643198804357e-06 0 5.2845501785198068e-06 -7.6070178413662359e-06 0 6.3430264517851974e-06 -1.1370576597686417e-05 0 5.2845501785198068e-06 -7.6070178413662359e-06 0 5.6093600173368533e-06 -7.6908378511047402e-06 0 5.9380251354755632e-06 -5.0240930890030812e-06 0 5.6093600173368533e-06 -7.6908378511047402e-06 0 5.2845501785198068e-06 -7.6070178413662359e-06 0 5.9380251354755632e-06 -5.0240930890030812e-06 0 4.5690172529006299e-06 -4.8799646075616708e-06 0 5.6093600173368533e-06 -7.6908378511047402e-06 0 5.9380251354755632e-06 -5.0240930890030812e-06 0 5.2845501785198068e-06 -7.6070178413662359e-06 0 6.7659982979281416e-06 -4.7089643198804357e-06 0 6.3430264517851974e-06 -1.1370576597686417e-05 0 3.9447256857019315e-06 -8.5137287972405485e-06 0 2.2239469364415752e-06 -1.3461813330293904e-05 0 2.2239469364415752e-06 -1.3461813330293904e-05 0 3.9447256857019315e-06 -8.5137287972405485e-06 0 -2.8655816188005923e-07 -1.0048528057255103e-05 0 6.3430264517851974e-06 -1.1370576597686417e-05 0 5.6093600173368533e-06 -7.6908378511047402e-06 0 3.9447256857019315e-06 -8.5137287972405485e-06 0 4.5690172529006299e-06 -4.8799646075616708e-06 0 3.9447256857019315e-06 -8.5137287972405485e-06 0 5.6093600173368533e-06 -7.6908378511047402e-06 0 1.3437615051810029e-06 -5.9414213292833124e-06 0 -2.8655816188005923e-07 -1.0048528057255103e-05 0 3.9447256857019315e-06 -8.5137287972405485e-06 0 1.3437615051810029e-06 -5.9414213292833124e-06 0 3.9447256857019307e-06 -8.5137287972405485e-06 0 4.5690172529006299e-06 -4.8799646075616708e-06 0 1.3437615051810029e-06 -5.9414213292833124e-06 0 4.5690172529006299e-06 -4.8799646075616708e-06 0 2.0628209547860681e-06 -2.8029444993889123e-06 0 4.1313907281865753e-06 -1.7768992517917899e-06 0 2.0628209547860681e-06 -2.8029444993889123e-06 0 4.5690172529006299e-06 -4.8799646075616708e-06 0 5.9380251354755632e-06 -5.0240930890030812e-06 0 6.9233397893301883e-06 -2.7880711163680505e-06 0 5.4602893134895119e-06 -3.0588945075583338e-06 0 5.9380251354755632e-06 -5.0240930890030812e-06 0 5.4602893134895119e-06 -3.0588945075583338e-06 0 4.5690172529006299e-06 -4.8799646075616708e-06 0 4.1313907281865753e-06 -1.7768992517917899e-06 0 4.5690172529006299e-06 -4.8799646075616708e-06 0 5.4602893134895119e-06 -3.0588945075583338e-06 0 5.4602893134895119e-06 -3.0588945075583338e-06 0 5.389708118570316e-06 1.6677123071006448e-07 0 4.1313907281865753e-06 -1.7768992517917899e-06 0 6.4637466004880207e-06 -1.3790950740721577e-06 0 5.389708118570316e-06 1.6677123071006448e-07 0 5.4602893134895119e-06 -3.0588945075583338e-06 0 4.1313907281865753e-06 -1.7768992517917899e-06 0 5.389708118570316e-06 1.667712307100648e-07 0 3.9951809587080832e-06 -4.5036480117869248e-08 0 5.389708118570316e-06 1.6677123071006448e-07 0 4.3999315564601046e-06 1.0043866463093635e-06 0 3.9951809587080832e-06 -4.5036480117869248e-08 0 -1.8810186116865752e-07 -8.3847795107479529e-07 0 2.0628209547860681e-06 -2.8029444993889123e-06 0 2.5118715673490876e-06 -5.041760957340256e-07 0 4.1313907281865753e-06 -1.7768992517917899e-06 0 2.511871567349088e-06 -5.0417609573402549e-07 0 2.0628209547860681e-06 -2.8029444993889123e-06 0 4.1313907281865753e-06 -1.7768992517917899e-06 0 3.9951809587080832e-06 -4.5036480117869129e-08 0 2.5118715673490876e-06 -5.041760957340256e-07 0 3.0951822477054816e-06 9.7133551418211991e-07 0 2.5118715673490876e-06 -5.041760957340256e-07 0 3.9951809587080832e-06 -4.5036480117869248e-08 0 -1.8810186116865752e-07 -8.3847795107479529e-07 0 2.5118715673490876e-06 -5.0417609573402539e-07 0 1.3346373184234565e-06 9.5756962589416819e-07 0 3.0951822477054816e-06 9.7133551418211991e-07 0 1.3346373184234565e-06 9.5756962589416819e-07 0 2.5118715673490876e-06 -5.041760957340256e-07 0 3.0951822477054816e-06 9.7133551418211991e-07 0 2.0715250373869518e-06 2.0533278100918838e-06 0 1.3346373184234565e-06 9.5756962589416819e-07 0 5.1477482987342532e-07 1.8718312878350107e-06 0 1.3346373184234565e-06 9.5756962589416819e-07 0 2.0715250373869518e-06 2.0533278100918838e-06 0 5.1477482987342532e-07 1.8718312878350107e-06 0 -7.3111678992882075e-07 1.1961608574182419e-06 0 1.3346373184234565e-06 9.5756962589416819e-07 0 5.2506926895254345e-06 1.5964331790216553e-06 0 4.3999315564601046e-06 1.0043866463093635e-06 0 5.389708118570316e-06 1.6677123071006448e-07 0 3.0951822477054816e-06 9.7133551418211991e-07 0 3.995180958708084e-06 -4.5036480117869242e-08 0 4.3999315564601046e-06 1.0043866463093635e-06 0 3.0951822477054816e-06 9.7133551418211991e-07 0 4.3999315564601046e-06 1.0043866463093635e-06 0 3.7230162678854891e-06 1.7821926653678527e-06 0 3.0951822477054816e-06 9.7133551418211991e-07 0 3.7230162678854891e-06 1.7821926653678527e-06 0 2.0715250373869518e-06 2.0533278100918838e-06 0 5.2506926895254345e-06 1.5964331790216553e-06 0 3.7230162678854891e-06 1.7821926653678527e-06 0 4.3999315564601046e-06 1.0043866463093635e-06 0 5.2506926895254345e-06 1.5964331790216553e-06 0 3.8251195518847525e-06 2.2282447619759011e-06 0 3.7230162678854891e-06 1.7821926653678527e-06 0 5.2506926895254345e-06 1.5964331790216553e-06 0 6.8798695996922007e-06 1.6661480797479835e-06 0 5.2909284654094183e-06 2.0223342289698105e-06 0 6.8798695996922007e-06 1.6661480797479833e-06 0 6.9385319668236259e-06 1.9553916801500001e-06 0 5.2909284654094183e-06 2.0223342289698105e-06 0 5.2506926895254345e-06 1.5964331790216553e-06 0 6.4921140929543892e-06 9.5753119003487849e-07 0 6.8798695996922007e-06 1.6661480797479833e-06 0 5.2506926895254345e-06 1.5964331790216553e-06 0 5.389708118570316e-06 1.6677123071006448e-07 0 6.4921140929543892e-06 9.5753119003487849e-07 0 5.389708118570316e-06 1.6677123071006448e-07 0 6.8675277603638233e-06 4.5086200595675545e-08 0 6.4921140929543892e-06 9.5753119003487849e-07 0 8.0537604861021859e-06 1.0241034114294862e-06 0 6.4921140929543892e-06 9.5753119003487849e-07 0 6.8675277603638233e-06 4.5086200595675545e-08 0 8.0537604861021859e-06 1.0241034114294862e-06 0 6.8798695996922007e-06 1.6661480797479833e-06 0 6.4921140929543892e-06 9.5753119003487849e-07 0 8.0537604861021859e-06 1.0241034114294862e-06 0 6.8675277603638233e-06 4.5086200595675545e-08 0 7.7171019020703026e-06 -6.3449167708065999e-07 0 6.4637466004880207e-06 -1.3790950740721577e-06 0 7.7171019020703026e-06 -6.344916770806601e-07 0 6.8675277603638233e-06 4.5086200595675545e-08 0 6.4637466004880207e-06 -1.3790950740721577e-06 0 6.8675277603638233e-06 4.5086200595675459e-08 0 5.389708118570316e-06 1.6677123071006448e-07 0 1.1041279948918579e-05 2.1659963000746751e-06 0 9.5358080845821551e-06 1.7263086292676749e-06 0 9.3534769077653405e-06 5.8248552295906992e-07 0 8.0537604861021859e-06 1.0241034114294862e-06 0 9.3534769077653405e-06 5.8248552295906992e-07 0 9.5358080845821551e-06 1.7263086292676749e-06 0 8.0537604861021859e-06 1.0241034114294862e-06 0 7.7171019020703026e-06 -6.3449167708065999e-07 0 9.3534769077653405e-06 5.8248552295906992e-07 0 8.0537604861021859e-06 1.0241034114294862e-06 0 8.4977490476473048e-06 1.8738257860972624e-06 0 6.8798695996922007e-06 1.6661480797479833e-06 0 9.5358080845821551e-06 1.7263086292676749e-06 0 1.0530688209079464e-05 2.5385584499334812e-06 0 8.4977490476473048e-06 1.8738257860972624e-06 0 8.0537604861021859e-06 1.0241034114294862e-06 0 9.5358080845821551e-06 1.7263086292676749e-06 0 8.4977490476473048e-06 1.8738257860972624e-06 0 8.7058635039340421e-06 2.0739123849154425e-06 0 6.9385319668236259e-06 1.9553916801500001e-06 0 8.4977490476473048e-06 1.8738257860972624e-06 0 6.8798695996922007e-06 1.6661480797479833e-06 0 8.4977490476473048e-06 1.8738257860972624e-06 0 6.9385319668236259e-06 1.9553916801500001e-06 0 8.7058635039340421e-06 2.0739123849154425e-06 0 7.133506259713662e-06 1.8635797817804615e-06 0 6.9385319668236259e-06 1.9553916801500001e-06 0 5.7093981843646961e-06 1.9835743044465345e-06 0 7.133506259713662e-06 1.8635797817804615e-06 0 5.5080283765537589e-06 1.7201000690196742e-06 0 5.7093981843646961e-06 1.9835743044465345e-06 0 5.5080283765537589e-06 1.7201000690196742e-06 0 4.4745080533287923e-06 2.0772736187731118e-06 0 5.7093981843646961e-06 1.9835743044465345e-06 0 5.2909284654094183e-06 2.0223342289698105e-06 0 6.9385319668236259e-06 1.9553916801500001e-06 0 5.7093981843646961e-06 1.9835743044465345e-06 0 6.9385319668236259e-06 1.9553916801500001e-06 0 7.133506259713662e-06 1.8635797817804615e-06 0 5.2506926895254345e-06 1.5964331790216553e-06 0 5.2909284654094191e-06 2.0223342289698101e-06 0 3.8251195518847525e-06 2.2282447619759011e-06 0 3.121961662793486e-06 2.2475336754276711e-06 0 3.8251195518847525e-06 2.2282447619759011e-06 0 4.4745080533287923e-06 2.0772736187731118e-06 0 3.8251195518847525e-06 2.2282447619759011e-06 0 5.2909284654094183e-06 2.0223342289698105e-06 0 4.4745080533287923e-06 2.0772736187731118e-06 0 5.7093981843646961e-06 1.9835743044465345e-06 0 4.4745080533287923e-06 2.0772736187731118e-06 0 5.2909284654094183e-06 2.0223342289698105e-06 0 4.1270464289495001e-06 1.6956679013838536e-06 0 3.1004375542870803e-06 1.8677404463654645e-06 0 4.4745080533287923e-06 2.0772736187731118e-06 0 3.121961662793486e-06 2.2475336754276711e-06 0 4.4745080533287923e-06 2.0772736187731118e-06 0 3.1004375542870803e-06 1.8677404463654645e-06 0 3.121961662793486e-06 2.2475336754276711e-06 0 3.1004375542870803e-06 1.8677404463654645e-06 0 2.055460084011084e-06 1.9200494537152058e-06 0 4.1270464289495001e-06 1.6956679013838536e-06 0 2.8566659021439582e-06 1.3435439526573555e-06 0 3.1004375542870803e-06 1.8677404463654645e-06 0 3.4739901859065603e-06 9.6737538676116489e-07 0 2.8566659021439582e-06 1.3435439526573555e-06 0 4.1270464289495001e-06 1.6956679013838536e-06 0 3.4739901859065603e-06 9.6737538676116489e-07 0 4.1270464289495001e-06 1.6956679013838536e-06 0 4.9399175725740449e-06 1.2701298790832261e-06 0 4.1270464289495001e-06 1.6956679013838536e-06 0 5.5080283765537589e-06 1.7201000690196742e-06 0 4.9399175725740449e-06 1.2701298790832261e-06 0 4.1270464289495001e-06 1.6956679013838536e-06 0 4.4745080533287923e-06 2.0772736187731118e-06 0 5.5080283765537589e-06 1.7201000690196742e-06 0 5.1477482987342532e-07 1.8718312878350107e-06 0 2.0715250373869518e-06 2.0533278100918838e-06 0 7.20350639574691e-07 2.475883120231924e-06 0 1.9972644430480397e-06 2.502213910345222e-06 0 7.20350639574691e-07 2.475883120231924e-06 0 2.0715250373869518e-06 2.0533278100918838e-06 0 1.9972644430480397e-06 2.502213910345222e-06 0 8.5301783460832872e-07 2.6424115037707197e-06 0 7.20350639574691e-07 2.475883120231924e-06 0 1.9972644430480397e-06 2.502213910345222e-06 0 2.9426819455702927e-06 2.2290382963872907e-06 0 2.7615367470243096e-06 2.4043780539889865e-06 0 1.9972644430480397e-06 2.502213910345222e-06 0 2.0715250373869518e-06 2.0533278100918838e-06 0 2.9426819455702927e-06 2.2290382963872907e-06 0 2.0715250373869518e-06 2.0533278100918838e-06 0 3.7230162678854891e-06 1.7821926653678527e-06 0 2.9426819455702927e-06 2.2290382963872907e-06 0 3.8251195518847525e-06 2.2282447619759011e-06 0 2.9426819455702927e-06 2.2290382963872907e-06 0 3.7230162678854891e-06 1.7821926653678527e-06 0 3.8251195518847525e-06 2.2282447619759011e-06 0 2.7615367470243096e-06 2.4043780539889865e-06 0 2.9426819455702927e-06 2.2290382963872907e-06 0 3.121961662793486e-06 2.2475336754276711e-06 0 2.76153674702431e-06 2.4043780539889865e-06 0 3.8251195518847525e-06 2.2282447619759011e-06 0 3.121961662793486e-06 2.2475336754276711e-06 0 1.755551632553116e-06 2.4440926771810017e-06 0 2.7615367470243096e-06 2.4043780539889865e-06 0 3.121961662793486e-06 2.2475336754276711e-06 0 2.055460084011084e-06 1.9200494537152058e-06 0 1.755551632553116e-06 2.4440926771810017e-06 0 1.9972644430480397e-06 2.502213910345222e-06 0 2.7615367470243092e-06 2.4043780539889865e-06 0 1.755551632553116e-06 2.4440926771810017e-06 0 1.9972644430480397e-06 2.502213910345222e-06 0 1.7555516325531158e-06 2.4440926771810017e-06 0 8.5301783460832872e-07 2.6424115037707197e-06 0 4.0885567242972527e-07 2.4781335188134569e-06 0 8.5301783460832872e-07 2.6424115037707197e-06 0 1.755551632553116e-06 2.4440926771810017e-06 0 4.0885567242972527e-07 2.4781335188134569e-06 0 -1.5081463720797761e-07 2.6073768541251084e-06 0 8.5301783460832872e-07 2.6424115037707197e-06 0 -4.1405716503012619e-07 2.6601201188538597e-06 0 7.20350639574691e-07 2.475883120231924e-06 0 8.5301783460832872e-07 2.6424115037707197e-06 0 -4.1405716503012619e-07 2.6601201188538597e-06 0 8.5301783460832872e-07 2.6424115037707197e-06 0 -1.5081463720797761e-07 2.6073768541251084e-06 0 1.6489845214333682e-07 1.3773781753536211e-06 0 -7.0664016863751957e-08 2.213297125509518e-06 0 7.4564264639351352e-07 2.0954470470884713e-06 0 4.0885567242972527e-07 2.4781335188134569e-06 0 -7.066401686375197e-08 2.213297125509518e-06 0 -1.5081463720797761e-07 2.6073768541251084e-06 0 4.0885567242972527e-07 2.4781335188134569e-06 0 7.4564264639351352e-07 2.0954470470884713e-06 0 -7.0664016863751957e-08 2.213297125509518e-06 0 4.0885567242972527e-07 2.4781335188134569e-06 0 1.755551632553116e-06 2.4440926771810017e-06 0 7.4564264639351352e-07 2.0954470470884713e-06 0 1.6489845214333682e-07 1.3773781753536211e-06 0 7.4564264639351352e-07 2.0954470470884713e-06 0 4.680208067301048e-07 1.1941328290806148e-06 0 1.1822922478173004e-06 1.8340018556312214e-06 0 4.680208067301048e-07 1.1941328290806148e-06 0 7.4564264639351352e-07 2.0954470470884713e-06 0 1.1822922478173004e-06 1.8340018556312214e-06 0 7.4564264639351352e-07 2.0954470470884713e-06 0 1.755551632553116e-06 2.4440926771810017e-06 0 1.1822922478173004e-06 1.8340018556312214e-06 0 1.755551632553116e-06 2.4440926771810017e-06 0 2.055460084011084e-06 1.9200494537152058e-06 0 1.1822922478173004e-06 1.8340018556312214e-06 0 2.055460084011084e-06 1.9200494537152058e-06 0 8.1946850876493868e-07 1.1229701208006553e-06 0 1.1822922478173004e-06 1.8340018556312214e-06 0 8.1946850876493857e-07 1.1229701208006553e-06 0 4.680208067301048e-07 1.1941328290806148e-06 0 5.4603493359167009e-10 5.4204149795637532e-10 0 4.680208067301048e-07 1.1941328290806148e-06 0 8.1946850876493868e-07 1.1229701208006553e-06 0 5.4603493359167009e-10 5.4204149795637532e-10 0 3.1737409261691737e-10 5.3871431636255691e-10 0 4.680208067301048e-07 1.1941328290806148e-06 0 3.1737409261691737e-10 5.3871431636255691e-10 0 1.6489845214333682e-07 1.3773781753536211e-06 0 4.680208067301048e-07 1.1941328290806148e-06 0 3.1737409261691737e-10 5.3871431636255691e-10 0 -3.0980931872009963e-11 6.1123172303528247e-10 0 1.6489845214333682e-07 1.3773781753536211e-06 0 -3.0980931872009963e-11 6.1123172303528247e-10 0 -1.6204899284788744e-07 1.2601232113113399e-06 0 1.6489845214333682e-07 1.3773781753536211e-06 0 1.7156802063898742e-06 1.241210064775322e-06 0 2.8566659021439582e-06 1.3435439526573553e-06 0 1.7694848628701532e-06 7.2254052704922099e-07 0 3.4739901859065603e-06 9.6737538676116489e-07 0 1.7694848628701532e-06 7.2254052704922099e-07 0 2.8566659021439582e-06 1.3435439526573555e-06 0 2.8566659021439582e-06 1.3435439526573555e-06 0 1.7156802063898742e-06 1.241210064775322e-06 0 3.1004375542870803e-06 1.8677404463654645e-06 0 1.7156802063898742e-06 1.241210064775322e-06 0 2.055460084011084e-06 1.9200494537152058e-06 0 3.1004375542870803e-06 1.8677404463654645e-06 0 1.7156802063898742e-06 1.241210064775322e-06 0 8.1946850876493878e-07 1.1229701208006555e-06 0 2.055460084011084e-06 1.9200494537152058e-06 0 1.7156802063898742e-06 1.241210064775322e-06 0 7.0623884532527007e-07 6.8614674147427008e-07 0 8.1946850876493868e-07 1.1229701208006553e-06 0 8.7257286469474798e-10 3.6111647305935255e-10 0 5.4603493359167009e-10 5.4204149795637532e-10 0 8.1946850876493868e-07 1.1229701208006553e-06 0 8.7257286469474798e-10 3.6111647305935255e-10 0 8.1946850876493868e-07 1.1229701208006553e-06 0 7.0623884532527028e-07 6.8614674147427018e-07 0 1.0323770961342508e-09 3.0400643670897738e-10 0 8.7257286469474798e-10 3.6111647305935255e-10 0 7.0623884532527028e-07 6.8614674147427018e-07 0 1.0323770961342508e-09 3.0400643670897738e-10 0 7.0623884532527028e-07 6.8614674147427018e-07 0 7.4745845491198809e-07 5.117947289261192e-07 0 1.1118097373105401e-09 2.5133559460379068e-10 0 7.4745845491198809e-07 5.117947289261192e-07 0 1.7694848628701532e-06 7.2254052704922099e-07 0 1.7156802063898742e-06 1.241210064775322e-06 0 1.7694848628701532e-06 7.2254052704922099e-07 0 7.4745845491198809e-07 5.117947289261192e-07 0 1.7156802063898742e-06 1.241210064775322e-06 0 7.4745845491198809e-07 5.117947289261192e-07 0 7.0623884532527028e-07 6.8614674147427018e-07 0 1.1118097373105401e-09 2.5133559460379068e-10 0 1.0323770961342508e-09 3.0400643670897738e-10 0 7.4745845491198809e-07 5.117947289261192e-07 0 1.1118097373105401e-09 2.5133559460379068e-10 0 1.7694848628701532e-06 7.2254052704922099e-07 0 1.1503907477979531e-06 2.0785095667601212e-07 0 1.2032450240793997e-09 -7.9249940247355388e-11 0 1.111809737310603e-09 2.51335594603802e-10 0 1.1503907477979531e-06 2.0785095667601212e-07 0 1.2032450240793997e-09 -7.9249940247355388e-11 0 1.1503907477979531e-06 2.0785095667601212e-07 0 8.77913866489759e-07 -8.9440591976723682e-08 0 2.1876032100281376e-06 -3.105018028287564e-08 0 8.77913866489759e-07 -8.9440591976723682e-08 0 1.1503907477979531e-06 2.0785095667601212e-07 0 1.7694848628701532e-06 7.2254052704922099e-07 0 2.3937806688479507e-06 4.0137745054099536e-07 0 1.1503907477979531e-06 2.0785095667601212e-07 0 3.4739901859065603e-06 9.6737538676116489e-07 0 2.3937806688479503e-06 4.0137745054099536e-07 0 1.7694848628701532e-06 7.2254052704922099e-07 0 2.1876032100281376e-06 -3.105018028287564e-08 0 1.1503907477979531e-06 2.0785095667601212e-07 0 2.3937806688479503e-06 4.0137745054099536e-07 0 2.1876032100281376e-06 -3.105018028287564e-08 0 2.3937806688479503e-06 4.0137745054099536e-07 0 3.4791953840025363e-06 1.2977784482503312e-07 0 2.3937806688479503e-06 4.0137745054099536e-07 0 3.4739901859065603e-06 9.6737538676116489e-07 0 3.4791953840025363e-06 1.2977784482503312e-07 0 2.1876032100281376e-06 -3.105018028287564e-08 0 3.4791953840025363e-06 1.2977784482503312e-07 0 2.9535983473422276e-06 -5.2815667918569944e-07 0 2.1671831609553381e-06 -1.0545232970932949e-06 0 1.2596037676317447e-06 -4.7128998705194444e-07 0 2.9535983473422276e-06 -5.2815667918569944e-07 0 2.1876032100281376e-06 -3.105018028287564e-08 0 2.9535983473422276e-06 -5.2815667918569944e-07 0 1.2596037676317447e-06 -4.7128998705194444e-07 0 2.1876032100281376e-06 -3.105018028287564e-08 0 1.2596037676317447e-06 -4.7128998705194444e-07 0 8.77913866489759e-07 -8.9440591976723682e-08 0 1.2269111942077838e-09 1.2646910172437511e-11 0 1.2032450240792388e-09 -7.9249940247338999e-11 0 8.77913866489759e-07 -8.9440591976723682e-08 0 9.4955359122001257e-10 -3.9971682069291487e-10 0 1.2269111942077838e-09 1.2646910172437511e-11 0 1.2596037676317447e-06 -4.7128998705194444e-07 0 1.2269111942077838e-09 1.2646910172437511e-11 0 8.7791386648975911e-07 -8.9440591976723735e-08 0 1.2596037676317447e-06 -4.7128998705194444e-07 0 6.9687237133417564e-10 -5.0542299803460824e-10 0 9.4955359122001257e-10 -3.9971682069291487e-10 0 9.7329042799060267e-07 -9.0698864768887735e-07 0 2.1671831609553381e-06 -1.0545232970932949e-06 0 9.7329042799060267e-07 -9.0698864768887735e-07 0 1.2596037676317447e-06 -4.7128998705194444e-07 0 9.4955359122001257e-10 -3.9971682069291487e-10 0 1.2596037676317447e-06 -4.7128998705194444e-07 0 9.7329042799060267e-07 -9.0698864768887735e-07 0 2.9779057801652564e-10 -7.4674860141481685e-10 0 6.9687237133417564e-10 -5.0542299803460824e-10 0 6.2539252612213534e-07 -1.4255869479555365e-06 0 6.9687237133417564e-10 -5.0542299803460824e-10 0 9.7329042799060267e-07 -9.0698864768887735e-07 0 6.2539252612213534e-07 -1.4255869479555365e-06 0 2.9779057801652564e-10 -7.4674860141481685e-10 0 6.2539252612213534e-07 -1.4255869479555365e-06 0 1.361890841345526e-07 -1.5423235506727436e-06 0 6.2539252612213534e-07 -1.4255869479555365e-06 0 2.0974834760439102e-06 -1.8387076568667209e-06 0 7.8833371517503305e-07 -2.4390145275762494e-06 0 1.8754076257530194e-06 -2.4156107022871313e-06 0 7.8833371517503305e-07 -2.4390145275762494e-06 0 2.0974834760439102e-06 -1.8387076568667209e-06 0 6.2539252612213534e-07 -1.4255869479555365e-06 0 9.7329042799060267e-07 -9.0698864768887735e-07 0 2.0974834760439102e-06 -1.8387076568667209e-06 0 1.8754076257530194e-06 -2.4156107022871313e-06 0 1.5313482561678637e-06 -2.8072720030389351e-06 0 7.8833371517503305e-07 -2.4390145275762494e-06 0 2.1671831609553381e-06 -1.0545232970932949e-06 0 2.0974834760439102e-06 -1.8387076568667209e-06 0 9.7329042799060267e-07 -9.0698864768887735e-07 0 2.1671831609553381e-06 -1.0545232970932949e-06 0 3.4147915223025986e-06 -1.0301492715680044e-06 0 2.0974834760439102e-06 -1.8387076568667209e-06 0 2.1671831609553381e-06 -1.0545232970932949e-06 0 2.953598347342228e-06 -5.2815667918569944e-07 0 3.4147915223025986e-06 -1.0301492715680044e-06 0 4.5801580624451848e-06 -1.337373523095909e-06 0 2.0974834760439102e-06 -1.8387076568667209e-06 0 3.4147915223025986e-06 -1.0301492715680044e-06 0 4.9736876697950967e-06 -2.6606922196723278e-07 0 4.5801580624451848e-06 -1.337373523095909e-06 0 3.4147915223025986e-06 -1.0301492715680044e-06 0 4.9736876697950967e-06 -2.6606922196723278e-07 0 6.5320353844639173e-06 -1.0108826917221118e-07 0 4.5801580624451848e-06 -1.337373523095909e-06 0 4.5801580624451848e-06 -1.337373523095909e-06 0 3.1621904736769801e-06 -2.1650605217847439e-06 0 2.0974834760439102e-06 -1.8387076568667209e-06 0 1.8754076257530194e-06 -2.4156107022871313e-06 0 3.1621904736769801e-06 -2.1650605217847439e-06 0 1.5313482561678637e-06 -2.8072720030389351e-06 0 1.8754076257530194e-06 -2.4156107022871313e-06 0 2.0974834760439102e-06 -1.8387076568667209e-06 0 3.1621904736769801e-06 -2.1650605217847439e-06 0 4.5801580624451848e-06 -1.337373523095909e-06 0 4.3524755833598275e-06 -1.8982013339343872e-06 0 3.1621904736769801e-06 -2.1650605217847439e-06 0 2.1577287329897344e-06 -2.8782932963506054e-06 0 1.5313482561678637e-06 -2.8072720030389351e-06 0 3.1621904736769801e-06 -2.1650605217847439e-06 0 2.1577287329897344e-06 -2.8782932963506054e-06 0 3.1621904736769801e-06 -2.1650605217847439e-06 0 4.3524755833598275e-06 -1.8982013339343872e-06 0 2.1577287329897344e-06 -2.8782932963506054e-06 0 4.3524755833598275e-06 -1.8982013339343872e-06 0 4.9386695706082071e-06 -1.7591287361207796e-06 0 6.7564599920669615e-06 -7.1791486330444446e-07 0 4.9386695706082071e-06 -1.7591287361207796e-06 0 4.3524755833598275e-06 -1.8982013339343872e-06 0 6.7564599920669615e-06 -7.1791486330444446e-07 0 7.5070677447673225e-06 -3.1726496799701563e-07 0 4.9386695706082071e-06 -1.7591287361207796e-06 0 4.983271949369369e-06 -1.264607562727131e-06 0 1.8593066042085765e-06 -2.6231165132394249e-06 0 4.9386695706082071e-06 -1.7591287361207796e-06 0 4.983271949369369e-06 -1.264607562727131e-06 0 4.9386695706082071e-06 -1.7591287361207796e-06 0 7.5070677447673225e-06 -3.1726496799701584e-07 0 6.7564599920669615e-06 -7.1791486330444446e-07 0 4.5801580624451848e-06 -1.337373523095909e-06 0 6.5320353844639173e-06 -1.0108826917221118e-07 0 6.7564599920669615e-06 -7.1791486330444446e-07 0 4.3524755833598284e-06 -1.898201333934387e-06 0 4.5801580624451848e-06 -1.337373523095909e-06 0 6.7564599920669615e-06 -7.1791486330444446e-07 0 6.5320353844639173e-06 -1.0108826917221118e-07 0 8.4998545423517764e-06 6.2196626421862159e-07 0 6.7564599920669615e-06 -7.1791486330444446e-07 0 8.4998545423517764e-06 6.2196626421862159e-07 0 9.7940968056942537e-06 1.0584268672398101e-06 0 7.7588834483611728e-06 9.4690260122090884e-07 0 8.4998545423517764e-06 6.2196626421862159e-07 0 6.5320353844639173e-06 -1.0108826917221118e-07 0 9.5078283217625842e-06 1.5024824274937435e-06 0 8.4998545423517764e-06 6.2196626421862159e-07 0 7.7588834483611728e-06 9.4690260122090884e-07 0 7.7588834483611728e-06 9.4690260122090884e-07 0 6.5320353844639173e-06 -1.0108826917221118e-07 0 6.0487361570084576e-06 4.7296885586269872e-07 0 6.4123019782619667e-06 1.2633264071457989e-06 0 7.7588834483611728e-06 9.4690260122090873e-07 0 6.0487361570084576e-06 4.7296885586269872e-07 0 9.5078283217625842e-06 1.5024824274937435e-06 0 7.7588834483611728e-06 9.4690260122090884e-07 0 8.439059435110147e-06 1.6954153908278684e-06 0 6.4123019782619667e-06 1.2633264071457989e-06 0 8.439059435110147e-06 1.6954153908278686e-06 0 7.7588834483611728e-06 9.4690260122090884e-07 0 6.4123019782619667e-06 1.2633264071457989e-06 0 7.133506259713662e-06 1.8635797817804615e-06 0 8.439059435110147e-06 1.6954153908278684e-06 0 6.4123019782619667e-06 1.2633264071457989e-06 0 4.9399175725740441e-06 1.2701298790832258e-06 0 5.5080283765537589e-06 1.7201000690196742e-06 0 6.4123019782619667e-06 1.2633264071457989e-06 0 5.5080283765537589e-06 1.7201000690196742e-06 0 7.133506259713662e-06 1.8635797817804615e-06 0 6.4123019782619667e-06 1.2633264071457989e-06 0 6.0487361570084576e-06 4.7296885586269872e-07 0 4.6541433268644216e-06 5.712589259418763e-07 0 6.4123019782619667e-06 1.2633264071457989e-06 0 4.6541433268644216e-06 5.712589259418763e-07 0 4.9399175725740449e-06 1.2701298790832261e-06 0 3.4739901859065603e-06 9.6737538676116489e-07 0 4.9399175725740449e-06 1.2701298790832261e-06 0 4.6541433268644216e-06 5.712589259418763e-07 0 3.4791953840025363e-06 1.2977784482503312e-07 0 3.4739901859065603e-06 9.6737538676116489e-07 0 4.6541433268644216e-06 5.712589259418763e-07 0 4.9736876697950967e-06 -2.6606922196723278e-07 0 3.4791953840025363e-06 1.2977784482503312e-07 0 4.6541433268644216e-06 5.712589259418763e-07 0 4.9736876697950967e-06 -2.6606922196723278e-07 0 2.9535983473422276e-06 -5.2815667918569944e-07 0 3.4791953840025363e-06 1.2977784482503312e-07 0 4.9736876697950967e-06 -2.6606922196723278e-07 0 3.4147915223025986e-06 -1.0301492715680044e-06 0 2.9535983473422276e-06 -5.2815667918569944e-07 0 6.0487361570084576e-06 4.7296885586269872e-07 0 6.5320353844639173e-06 -1.0108826917221118e-07 0 4.9736876697950967e-06 -2.6606922196723278e-07 0 4.9736876697950967e-06 -2.6606922196723278e-07 0 4.6541433268644216e-06 5.712589259418763e-07 0 6.0487361570084576e-06 4.7296885586269872e-07 0 -7.2994506505279976e-06 -1.5827708536451362e-06 0 -4.1565446543352365e-06 -1.1611326512195147e-06 0 -4.1083612338857786e-06 -2.0098263130141233e-06 0 -2.5203750217568455e-06 -2.2736466887939613e-06 0 -4.1083612338857786e-06 -2.0098263130141233e-06 0 -1.8787763813948814e-06 -1.1681051403887145e-06 0 -1.7420143755789406e-06 -3.6417311103142161e-07 0 -1.8787763813948814e-06 -1.1681051403887145e-06 0 -4.1565446543352365e-06 -1.1611326512195147e-06 0 -4.1565446543352365e-06 -1.1611326512195147e-06 0 -1.8787763813948814e-06 -1.1681051403887145e-06 0 -4.1083612338857786e-06 -2.0098263130141233e-06 0 -1.7420143755789406e-06 -3.6417311103142161e-07 0 -8.0757548107673007e-07 -3.7281582976082515e-07 0 -1.8787763813948814e-06 -1.1681051403887145e-06 0 -1.2972918961379723e-09 5.3015267404369515e-10 0 -8.0757548107673007e-07 -3.7281582976082515e-07 0 -1.7420143755789406e-06 -3.6417311103142161e-07 0 -1.2972918961379723e-09 5.3015267404369515e-10 0 -1.5338625307934106e-09 -5.9887967582307366e-10 0 -8.0757548107673007e-07 -3.7281582976082515e-07 0 -1.5338625307934106e-09 -5.9887967582307366e-10 0 -1.8787763813948814e-06 -1.1681051403887145e-06 0 -8.0757548107673007e-07 -3.7281582976082515e-07 0 -1.5338625307934106e-09 -5.9887967582307366e-10 0 -1.1351551100574625e-06 -1.4434344563018051e-06 0 -1.8787763813948814e-06 -1.1681051403887145e-06 0 -2.5203750217568455e-06 -2.2736466887939613e-06 0 -1.8787763813948814e-06 -1.1681051403887145e-06 0 -1.1351551100574622e-06 -1.4434344563018053e-06 0 -1.5338625307934106e-09 -5.9887967582307366e-10 0 -1.3826457306802671e-09 -4.0895028960131737e-10 0 -1.1351551100574622e-06 -1.4434344563018053e-06 0 -1.3826457306805248e-09 -4.0895028960164514e-10 0 -6.1195347062251192e-10 -1.0250237433392514e-09 0 -1.1351551100574622e-06 -1.4434344563018053e-06 0 -2.5203750217568455e-06 -2.2736466887939613e-06 0 -1.1351551100574622e-06 -1.4434344563018053e-06 0 -1.1256190462600666e-06 -2.2238637444543516e-06 0 -2.5203750217568455e-06 -2.2736466887939613e-06 0 -1.1256190462600666e-06 -2.2238637444543516e-06 0 -2.3061767694086612e-06 -2.9945478014702853e-06 0 -2.5203750217568455e-06 -2.2736466887939613e-06 0 -3.902106946699273e-06 -3.0007941429717389e-06 0 -4.1083612338857786e-06 -2.0098263130141233e-06 0 -5.9212439017878322e-06 -2.7090187509924578e-06 0 -4.1083612338857786e-06 -2.0098263130141233e-06 0 -3.902106946699273e-06 -3.0007941429717389e-06 0 -2.5378902056855379e-06 -3.5151464137884921e-06 0 -3.902106946699273e-06 -3.0007941429717389e-06 0 -2.3061767694086612e-06 -2.9945478014702853e-06 0 -2.5203750217568455e-06 -2.2736466887939613e-06 0 -2.3061767694086612e-06 -2.9945478014702853e-06 0 -3.902106946699273e-06 -3.0007941429717389e-06 0 -2.5378902056855379e-06 -3.5151464137884921e-06 0 -2.3061767694086612e-06 -2.9945478014702853e-06 0 -1.2954471653472729e-06 -3.1144862973367534e-06 0 -2.4364996959931576e-07 -2.5783762759580889e-06 0 -1.2954471653472729e-06 -3.1144862973367534e-06 0 -1.1256190462600666e-06 -2.2238637444543516e-06 0 -1.1256190462600666e-06 -2.2238637444543516e-06 0 -1.2954471653472727e-06 -3.1144862973367534e-06 0 -2.3061767694086612e-06 -2.9945478014702853e-06 0 -6.1195347062251192e-10 -1.0250237433392514e-09 0 -2.6926370433954867e-07 -1.4382507926930079e-06 0 -1.1256190462600666e-06 -2.2238637444543516e-06 0 -6.1195347062251192e-10 -1.0250237433392514e-09 0 -1.1256190462600666e-06 -2.2238637444543516e-06 0 -1.1351551100574622e-06 -1.4434344563018053e-06 0 -6.1195347062251192e-10 -1.0250237433392514e-09 0 -2.0742149131153042e-10 -6.8774705916776155e-10 0 -2.6926370433954867e-07 -1.4382507926930079e-06 0 -2.4364996959931576e-07 -2.5783762759580889e-06 0 -1.1256190462600668e-06 -2.2238637444543516e-06 0 -2.6926370433954867e-07 -1.4382507926930079e-06 0 -2.4364996959931576e-07 -2.5783762759580889e-06 0 -2.6926370433954867e-07 -1.4382507926930079e-06 0 1.361890841345526e-07 -1.5423235506727436e-06 0 -2.0742149131153042e-10 -6.8774705916776155e-10 0 1.361890841345526e-07 -1.5423235506727436e-06 0 -2.6926370433954867e-07 -1.4382507926930079e-06 0 -2.0742149131153042e-10 -6.8774705916776155e-10 0 2.9779057801652564e-10 -7.4674860141481685e-10 0 1.361890841345526e-07 -1.5423235506727436e-06 0 6.2539252612213534e-07 -1.4255869479555365e-06 0 7.8833371517503305e-07 -2.4390145275762494e-06 0 1.361890841345526e-07 -1.5423235506727436e-06 0 -2.4364996959931576e-07 -2.5783762759580889e-06 0 1.361890841345526e-07 -1.5423235506727436e-06 0 7.8833371517503305e-07 -2.4390145275762494e-06 0 -2.4364996959931576e-07 -2.5783762759580889e-06 0 -2.4851680921625289e-08 -3.3128078156068169e-06 0 -1.2954471653472729e-06 -3.1144862973367534e-06 0 -2.4364996959931576e-07 -2.5783762759580889e-06 0 7.8833371517503305e-07 -2.4390145275762494e-06 0 -2.4851680921625289e-08 -3.3128078156068169e-06 0 -2.4851680921625289e-08 -3.3128078156068169e-06 0 7.8833371517503305e-07 -2.4390145275762494e-06 0 1.5313482561678637e-06 -2.8072720030389351e-06 0 2.1577287329897344e-06 -2.8782932963506054e-06 0 -2.4851680921625289e-08 -3.3128078156068169e-06 0 1.5313482561678637e-06 -2.8072720030389351e-06 0 2.1577287329897344e-06 -2.8782932963506054e-06 0 -9.8636002722356497e-07 -3.5201870714310927e-06 0 -2.4851680921625289e-08 -3.3128078156068169e-06 0 2.1577287329897344e-06 -2.8782932963506054e-06 0 4.9386695706082071e-06 -1.7591287361207796e-06 0 1.8593066042085765e-06 -2.6231165132394249e-06 0 -1.1346093346355907e-06 -3.0191472789074656e-06 0 1.8593066042085765e-06 -2.6231165132394249e-06 0 -5.6534609362173185e-07 -2.0173125230036883e-06 0 -1.1346093346355907e-06 -3.0191472789074656e-06 0 -9.8636002722356497e-07 -3.5201870714310927e-06 0 1.8593066042085765e-06 -2.6231165132394249e-06 0 2.1577287329897344e-06 -2.8782932963506054e-06 0 1.8593066042085765e-06 -2.6231165132394249e-06 0 -9.8636002722356497e-07 -3.5201870714310927e-06 0 -1.1346093346355907e-06 -3.0191472789074656e-06 0 -4.2709029089025627e-06 -3.4546506141082207e-06 0 -9.8636002722356497e-07 -3.5201870714310927e-06 0 -1.1346093346355907e-06 -3.0191472789074656e-06 0 -5.6534609362173185e-07 -2.0173125230036883e-06 0 -4.3383014604463061e-06 -2.6706722890280582e-06 0 -1.1346093346355907e-06 -3.0191472789074656e-06 0 -4.3383014604463061e-06 -2.6706722890280582e-06 0 -4.2709029089025627e-06 -3.4546506141082207e-06 0 -2.5378902056855379e-06 -3.5151464137884921e-06 0 -9.8636002722356497e-07 -3.5201870714310927e-06 0 -4.2709029089025627e-06 -3.4546506141082207e-06 0 -2.5378902056855379e-06 -3.5151464137884921e-06 0 -4.2709029089025627e-06 -3.4546506141082207e-06 0 -4.8867145540393788e-06 -3.3009461033947183e-06 0 -2.5378902056855379e-06 -3.5151464137884921e-06 0 -2.4851680921625289e-08 -3.3128078156068169e-06 0 -9.8636002722356497e-07 -3.5201870714310927e-06 0 -2.5378902056855379e-06 -3.5151464137884921e-06 0 -1.2954471653472727e-06 -3.1144862973367534e-06 0 -2.4851680921625289e-08 -3.3128078156068169e-06 0 -2.5378902056855379e-06 -3.5151464137884921e-06 0 -4.8867145540393788e-06 -3.3009461033947183e-06 0 -3.902106946699273e-06 -3.0007941429717389e-06 0 -5.9212439017878322e-06 -2.7090187509924578e-06 0 -3.902106946699273e-06 -3.0007941429717389e-06 0 -4.8867145540393788e-06 -3.3009461033947183e-06 0 -7.5345541329399142e-06 -2.8993213775523047e-06 0 -5.9212439017878313e-06 -2.7090187509924578e-06 0 -4.8867145540393788e-06 -3.3009461033947183e-06 0 -7.5345541329399142e-06 -2.8993213775523047e-06 0 -4.8867145540393788e-06 -3.3009461033947183e-06 0 -4.2709029089025627e-06 -3.4546506141082207e-06 0 -7.5345541329399142e-06 -2.8993213775523047e-06 0 -4.2709029089025627e-06 -3.4546506141082207e-06 0 -8.9310127774284121e-06 -2.2536372287131529e-06 0 -4.2709029089025627e-06 -3.4546506141082207e-06 0 -4.3383014604463053e-06 -2.6706722890280582e-06 0 -8.9310127774284121e-06 -2.2536372287131529e-06 0 -7.5345541329399142e-06 -2.8993213775523047e-06 0 -8.9310127774284121e-06 -2.2536372287131529e-06 0 -1.1593973520245677e-05 -1.7319201458086408e-06 0 -7.5345541329399142e-06 -2.8993213775523047e-06 0 -1.1593973520245677e-05 -1.7319201458086408e-06 0 -8.8625791680187087e-06 -2.2415650340023843e-06 0 -1.4776943346869735e-05 -1.6915376395653771e-07 0 -1.1593973520245677e-05 -1.7319201458086408e-06 0 -8.9310127774284121e-06 -2.2536372287131529e-06 0 -1.584347250458689e-05 1.8790295038307805e-07 0 -1.1166720867182503e-05 -1.1653349437247147e-06 0 -1.1593973520245677e-05 -1.7319201458086408e-06 0 -1.1166720867182503e-05 -1.1653349437247147e-06 0 -8.8625791680187087e-06 -2.2415650340023843e-06 0 -1.1593973520245677e-05 -1.7319201458086408e-06 0 -1.1166720867182503e-05 -1.1653349437247147e-06 0 -7.2994506505279976e-06 -1.5827708536451362e-06 0 -8.8625791680187087e-06 -2.2415650340023843e-06 0 -7.5345541329399142e-06 -2.8993213775523047e-06 0 -8.8625791680187087e-06 -2.2415650340023843e-06 0 -5.9212439017878322e-06 -2.7090187509924578e-06 0 -7.2994506505279976e-06 -1.5827708536451362e-06 0 -5.9212439017878322e-06 -2.7090187509924578e-06 0 -8.8625791680187087e-06 -2.2415650340023843e-06 0 -7.2994506505279976e-06 -1.5827708536451362e-06 0 -4.1083612338857794e-06 -2.0098263130141237e-06 0 -5.9212439017878322e-06 -2.7090187509924578e-06 0 -2.7773747108324621e-05 7.582803796781101e-06 0 -1.9527365244260453e-05 3.2989889578053544e-06 0 -2.4578351709493324e-05 7.39229401919595e-06 0 -3.5381351332585094e-05 1.4288606035916781e-05 0 -2.7773747108324621e-05 7.582803796781101e-06 0 -2.4578351709493324e-05 7.39229401919595e-06 0 -1.7035320491543259e-05 5.2806631582718617e-06 0 -2.4578351709493324e-05 7.39229401919595e-06 0 -1.9527365244260453e-05 3.2989889578053544e-06 0 -1.7035320491543259e-05 5.2806631582718617e-06 0 -2.4750116474719716e-05 1.1408589990471012e-05 0 -2.4578351709493324e-05 7.39229401919595e-06 0 -2.7773747108324621e-05 7.582803796781101e-06 0 -2.1293128603915217e-05 2.94453803008236e-06 0 -1.9527365244260453e-05 3.2989889578053544e-06 0 -2.1293128603915217e-05 2.94453803008236e-06 0 -1.584347250458689e-05 1.8790295038307805e-07 0 -1.4776943346869735e-05 -1.6915376395653771e-07 0 -1.584347250458689e-05 1.8790295038307805e-07 0 -1.1593973520245677e-05 -1.7319201458086408e-06 0 -1.4776943346869735e-05 -1.6915376395653771e-07 0 -2.1293128603915217e-05 2.94453803008236e-06 0 -1.4776943346869733e-05 -1.6915376395653765e-07 0 -1.9527365244260453e-05 3.2989889578053544e-06 0 -1.4776943346869735e-05 -1.6915376395653771e-07 0 -1.1273256505741669e-05 5.3546898770025531e-07 0 -1.9527365244260453e-05 3.2989889578053544e-06 0 -7.2143287203499395e-06 -1.5126601235673376e-06 0 -1.1273256505741669e-05 5.3546898770025563e-07 0 -8.9310127774284121e-06 -2.2536372287131529e-06 0 -1.4776943346869735e-05 -1.6915376395653771e-07 0 -8.9310127774284121e-06 -2.2536372287131529e-06 0 -1.1273256505741669e-05 5.3546898770025563e-07 0 -7.2143287203499395e-06 -1.5126601235673376e-06 0 -8.9310127774284121e-06 -2.2536372287131529e-06 0 -4.3383014604463061e-06 -2.6706722890280582e-06 0 -1.7035320491543259e-05 5.2806631582718617e-06 0 -1.1273256505741669e-05 5.3546898770025563e-07 0 -1.0622810820243367e-05 4.5405992830033257e-06 0 -1.7035320491543259e-05 5.2806631582718617e-06 0 -1.9527365244260453e-05 3.2989889578053544e-06 0 -1.1273256505741669e-05 5.3546898770025563e-07 0 -1.7035320491543259e-05 5.2806631582718617e-06 0 -1.0622810820243367e-05 4.5405992830033249e-06 0 -1.5588559566741007e-05 1.0031206560574325e-05 0 -1.0622810820243367e-05 4.5405992830033257e-06 0 -4.3816493330213908e-06 1.7123579105094557e-06 0 -4.6550041517671135e-06 7.8978029978194974e-06 0 -4.3816493330213908e-06 1.7123579105094559e-06 0 7.6773217892240185e-07 3.3573969863494668e-06 0 -4.6550041517671135e-06 7.8978029978194974e-06 0 -4.3816493330213908e-06 1.7123579105094559e-06 0 9.5848129887985088e-08 -2.2470522033169539e-08 0 7.6773217892240185e-07 3.3573969863494668e-06 0 -4.3816493330213908e-06 1.7123579105094559e-06 0 -1.0622810820243367e-05 4.5405992830033257e-06 0 -1.1273256505741669e-05 5.3546898770025563e-07 0 -4.3816493330213908e-06 1.7123579105094559e-06 0 -1.1273256505741669e-05 5.3546898770025563e-07 0 -4.1021094106806004e-06 -8.5757916002953705e-07 0 -7.2143287203499395e-06 -1.5126601235673376e-06 0 -4.1021094106806004e-06 -8.5757916002953705e-07 0 -1.1273256505741669e-05 5.3546898770025563e-07 0 -7.2143287203499395e-06 -1.5126601235673376e-06 0 -4.3383014604463061e-06 -2.6706722890280582e-06 0 -4.1021094106806004e-06 -8.5757916002953705e-07 0 -5.6534609362173185e-07 -2.0173125230036883e-06 0 -4.1021094106806004e-06 -8.5757916002953705e-07 0 -4.3383014604463061e-06 -2.6706722890280582e-06 0 -5.6534609362173185e-07 -2.0173125230036883e-06 0 9.5848129887984307e-08 -2.2470522033169777e-08 0 -4.1021094106806004e-06 -8.5757916002953705e-07 0 -4.3816493330213908e-06 1.7123579105094559e-06 0 -4.1021094106806004e-06 -8.5757916002953715e-07 0 9.5848129887985088e-08 -2.2470522033169539e-08 0 -5.6534609362173185e-07 -2.0173125230036883e-06 0 3.135686481970642e-06 -1.0507891906681304e-06 0 9.5848129887985088e-08 -2.2470522033169539e-08 0 4.6939235834907486e-06 1.537650752126775e-06 0 9.5848129887985088e-08 -2.2470522033169539e-08 0 3.1356864819706412e-06 -1.0507891906681304e-06 0 -5.6534609362173185e-07 -2.0173125230036883e-06 0 1.8593066042085765e-06 -2.6231165132394249e-06 0 3.1356864819706412e-06 -1.0507891906681304e-06 0 4.983271949369369e-06 -1.264607562727131e-06 0 6.8508402570520031e-06 2.7511443861126338e-07 0 3.1356864819706412e-06 -1.0507891906681304e-06 0 4.983271949369369e-06 -1.264607562727131e-06 0 3.1356864819706412e-06 -1.0507891906681304e-06 0 1.8593066042085765e-06 -2.6231165132394249e-06 0 4.6939235834907486e-06 1.537650752126775e-06 0 3.1356864819706403e-06 -1.0507891906681306e-06 0 6.8508402570520031e-06 2.7511443861126338e-07 0 4.6939235834907486e-06 1.537650752126775e-06 0 6.8508402570520031e-06 2.7511443861126338e-07 0 9.9864802911306555e-06 3.3646636675958133e-06 0 4.6939235834907486e-06 1.537650752126775e-06 0 7.6773217892240185e-07 3.3573969863494668e-06 0 9.5848129887985088e-08 -2.2470522033169539e-08 0 4.6939235834907486e-06 1.537650752126775e-06 0 5.8810346649898974e-06 5.8739047570196833e-06 0 7.6773217892240185e-07 3.3573969863494668e-06 0 4.6939235834907486e-06 1.537650752126775e-06 0 9.9864802911306555e-06 3.3646636675958133e-06 0 5.8810346649898991e-06 5.8739047570196833e-06 0 1.3447731298432782e-05 7.3151528189134289e-06 0 9.8391151965714796e-06 1.0407688607487014e-05 0 5.8810346649898991e-06 5.8739047570196833e-06 0 1.3447731298432782e-05 7.3151528189134289e-06 0 5.8810346649898991e-06 5.8739047570196833e-06 0 9.9864802911306555e-06 3.3646636675958133e-06 0 -4.6550041517671135e-06 7.8978029978194974e-06 0 5.8810346649898991e-06 5.8739047570196833e-06 0 2.6011284266294107e-06 1.1627754565867533e-05 0 -4.6550041517671135e-06 7.8978029978194974e-06 0 7.6773217892240185e-07 3.3573969863494668e-06 0 5.8810346649898991e-06 5.8739047570196833e-06 0 5.8810346649898991e-06 5.8739047570196833e-06 0 9.8391151965714796e-06 1.0407688607487014e-05 0 2.6011284266294107e-06 1.1627754565867533e-05 0 7.1185161501740543e-06 1.8332526336755243e-05 0 9.8391151965714796e-06 1.0407688607487014e-05 0 1.6863377611539298e-05 1.3073274344876052e-05 0 7.1185161501740543e-06 1.8332526336755243e-05 0 1.6863377611539298e-05 1.3073274344876052e-05 0 1.5339640120406327e-05 2.7576471197254319e-05 0 7.1185161501740543e-06 1.8332526336755243e-05 0 1.5339640120406327e-05 2.7576471197254319e-05 0 6.4229099459140823e-06 3.0188275758598197e-05 0 7.1185161501740543e-06 1.8332526336755243e-05 0 6.4229099459140798e-06 3.0188275758598197e-05 0 -3.4890412352485099e-06 3.1897812843294521e-05 0 7.1185161501740543e-06 1.8332526336755243e-05 0 -6.4981547684838965e-06 1.9128929182928164e-05 0 2.6011284266294107e-06 1.1627754565867533e-05 0 7.1185161501740543e-06 1.8332526336755243e-05 0 2.6011284266294115e-06 1.1627754565867531e-05 0 9.8391151965714796e-06 1.0407688607487014e-05 0 7.1185161501740543e-06 1.8332526336755243e-05 0 -3.4890412352485099e-06 3.1897812843294521e-05 0 -6.4981547684838965e-06 1.9128929182928164e-05 0 -1.7468276167370354e-05 3.2776952436824706e-05 0 -6.4981547684838965e-06 1.9128929182928164e-05 0 -3.4890412352485099e-06 3.1897812843294521e-05 0 -1.7468276167370354e-05 3.2776952436824706e-05 0 -1.471526805192384e-05 1.693479632667467e-05 0 -6.4981547684838965e-06 1.9128929182928164e-05 0 -4.6550041517671135e-06 7.8978029978194974e-06 0 -6.498154768483894e-06 1.9128929182928164e-05 0 -1.4715268051923843e-05 1.693479632667467e-05 0 -4.6550041517671135e-06 7.8978029978194974e-06 0 -1.4715268051923843e-05 1.693479632667467e-05 0 -1.5588559566741007e-05 1.0031206560574325e-05 0 -4.6550041517671135e-06 7.8978029978194974e-06 0 2.6011284266294107e-06 1.1627754565867535e-05 0 -6.4981547684838965e-06 1.9128929182928164e-05 0 -4.6550041517671135e-06 7.8978029978194974e-06 0 -1.5588559566741007e-05 1.0031206560574325e-05 0 -1.0622810820243367e-05 4.5405992830033257e-06 0 -1.7035320491543259e-05 5.2806631582718617e-06 0 -1.5588559566741007e-05 1.0031206560574325e-05 0 -2.4750116474719716e-05 1.1408589990471012e-05 0 -2.3589861945060229e-05 1.7791120986350187e-05 0 -2.4750116474719716e-05 1.1408589990471012e-05 0 -1.5588559566741007e-05 1.0031206560574325e-05 0 -2.3589861945060229e-05 1.7791120986350187e-05 0 -1.5588559566741007e-05 1.0031206560574325e-05 0 -1.4715268051923843e-05 1.693479632667467e-05 0 -2.3589861945060229e-05 1.7791120986350187e-05 0 -1.4715268051923843e-05 1.693479632667467e-05 0 -2.5334731430758664e-05 2.6540614338777247e-05 0 -1.7468276167370354e-05 3.2776952436824706e-05 0 -2.5334731430758664e-05 2.6540614338777247e-05 0 -1.4715268051923843e-05 1.693479632667467e-05 0 -3.6657688928021413e-05 4.1484425768298498e-05 0 -3.5451086324191085e-05 2.7359076729693891e-05 0 -2.5334731430758664e-05 2.6540614338777247e-05 0 -1.7468276167370354e-05 3.2776952436824706e-05 0 -3.6657688928021413e-05 4.1484425768298498e-05 0 -2.5334731430758664e-05 2.6540614338777247e-05 0 -2.3589861945060229e-05 1.7791120986350187e-05 0 -2.5334731430758664e-05 2.6540614338777247e-05 0 -3.5451086324191085e-05 2.7359076729693891e-05 0 -2.3589861945060229e-05 1.7791120986350187e-05 0 -3.5451086324191085e-05 2.7359076729693891e-05 0 -3.2653357082353067e-05 1.8383395104887359e-05 0 -5.2037544398731664e-05 3.7663504768199178e-05 0 -3.5451086324191085e-05 2.7359076729693891e-05 0 -3.6657688928021413e-05 4.1484425768298498e-05 0 -5.2037544398731664e-05 3.7663504768199178e-05 0 -4.3702195491995031e-05 2.430789752962855e-05 0 -3.5451086324191085e-05 2.7359076729693891e-05 0 -4.3702195491995031e-05 2.430789752962855e-05 0 -3.2653357082353067e-05 1.8383395104887359e-05 0 -3.5451086324191085e-05 2.7359076729693891e-05 0 -4.3702195491995031e-05 2.430789752962855e-05 0 -3.5381351332585094e-05 1.4288606035916781e-05 0 -3.2653357082353067e-05 1.8383395104887359e-05 0 -3.5381351332585094e-05 1.4288606035916781e-05 0 -2.4750116474719716e-05 1.1408589990471012e-05 0 -3.2653357082353067e-05 1.8383395104887359e-05 0 -2.3589861945060229e-05 1.7791120986350187e-05 0 -3.2653357082353067e-05 1.8383395104887359e-05 0 -2.4750116474719716e-05 1.1408589990471012e-05 0 -3.5381351332585094e-05 1.4288606035916781e-05 0 -2.4578351709493324e-05 7.39229401919595e-06 0 -2.4750116474719716e-05 1.1408589990471012e-05 0 1.1824552688766194e-05 3.0428256264733206e-06 0 1.3394924757042437e-05 3.9493212478980617e-06 0 1.1827885340921227e-05 2.7327005464495066e-06 0 1.4198557260308802e-05 4.2998568519678389e-06 0 1.1827885340921227e-05 2.7327005464495066e-06 0 1.3394924757042437e-05 3.9493212478980617e-06 0 1.4198557260308802e-05 4.2998568519678389e-06 0 1.3394924757042437e-05 3.9493212478980617e-06 0 1.5686268704746091e-05 5.5807061615514578e-06 0 1.1824552688766194e-05 3.0428256264733206e-06 0 1.2654343668637056e-05 3.4596941889344088e-06 0 1.3394924757042437e-05 3.9493212478980617e-06 0 1.1041279948918579e-05 2.1659963000746751e-06 0 1.2654343668637056e-05 3.4596941889344088e-06 0 1.0530688209079464e-05 2.5385584499334812e-06 0 1.1824552688766194e-05 3.0428256264733206e-06 0 1.0530688209079464e-05 2.5385584499334808e-06 0 1.2654343668637056e-05 3.4596941889344088e-06 0 1.1041279948918579e-05 2.1659963000746751e-06 0 1.0530688209079464e-05 2.5385584499334812e-06 0 9.5358080845821551e-06 1.7263086292676749e-06 0 1.1824552688766194e-05 3.0428256264733206e-06 0 1.0196928663214111e-05 2.2791126867791919e-06 0 1.0530688209079464e-05 2.5385584499334812e-06 0 8.7058635039340421e-06 2.0739123849154425e-06 0 1.0530688209079466e-05 2.5385584499334812e-06 0 1.0196928663214111e-05 2.2791126867791919e-06 0 8.4977490476473048e-06 1.8738257860972624e-06 0 1.0530688209079464e-05 2.5385584499334812e-06 0 8.7058635039340421e-06 2.0739123849154425e-06 0 8.7058635039340421e-06 2.0739123849154425e-06 0 8.439059435110147e-06 1.6954153908278684e-06 0 7.133506259713662e-06 1.8635797817804615e-06 0 8.7058635039340421e-06 2.0739123849154425e-06 0 1.0196928663214111e-05 2.2791126867791919e-06 0 8.439059435110147e-06 1.6954153908278684e-06 0 9.5078283217625842e-06 1.5024824274937435e-06 0 8.439059435110147e-06 1.6954153908278684e-06 0 1.0196928663214111e-05 2.2791126867791919e-06 0 1.1824552688766194e-05 3.0428256264733206e-06 0 1.1827885340921227e-05 2.7327005464495066e-06 0 1.0196928663214111e-05 2.2791126867791919e-06 0 9.5078283217625842e-06 1.5024824274937435e-06 0 1.0196928663214111e-05 2.2791126867791919e-06 0 1.1827885340921227e-05 2.7327005464495066e-06 0 9.5078283217625842e-06 1.5024824274937435e-06 0 1.1827885340921227e-05 2.7327005464495066e-06 0 9.7940968056942537e-06 1.0584268672398101e-06 0 9.5078283217625842e-06 1.5024824274937435e-06 0 9.7940968056942537e-06 1.0584268672398099e-06 0 8.4998545423517764e-06 6.2196626421862159e-07 0 6.7564599920669615e-06 -7.1791486330444446e-07 0 9.7940968056942537e-06 1.0584268672398101e-06 0 7.5070677447673225e-06 -3.1726496799701584e-07 0 1.0166745859318993e-05 1.6097938346512213e-06 0 9.794096805694252e-06 1.0584268672398103e-06 0 1.2011289239673156e-05 2.6403136691582866e-06 0 1.0166745859318993e-05 1.6097938346512213e-06 0 7.5070677447673225e-06 -3.1726496799701579e-07 0 9.7940968056942537e-06 1.0584268672398101e-06 0 9.7940968056942537e-06 1.0584268672398101e-06 0 1.1827885340921227e-05 2.7327005464495066e-06 0 1.2011289239673156e-05 2.6403136691582866e-06 0 4.983271949369369e-06 -1.264607562727131e-06 0 7.5070677447673225e-06 -3.1726496799701584e-07 0 6.8508402570520031e-06 2.7511443861126338e-07 0 1.0166745859318993e-05 1.6097938346512213e-06 0 6.8508402570520023e-06 2.7511443861126327e-07 0 7.5070677447673225e-06 -3.1726496799701584e-07 0 1.0166745859318993e-05 1.6097938346512213e-06 0 9.9864802911306555e-06 3.3646636675958133e-06 0 6.8508402570520031e-06 2.7511443861126338e-07 0 1.0166745859318993e-05 1.6097938346512213e-06 0 1.3968803366219376e-05 4.5105652725234967e-06 0 9.9864802911306555e-06 3.3646636675958133e-06 0 1.3447731298432782e-05 7.3151528189134289e-06 0 9.9864802911306555e-06 3.3646636675958133e-06 0 1.3968803366219376e-05 4.5105652725234967e-06 0 1.4198557260308802e-05 4.2998568519678389e-06 0 1.2011289239673156e-05 2.6403136691582866e-06 0 1.1827885340921227e-05 2.7327005464495066e-06 0 1.0166745859318993e-05 1.6097938346512213e-06 0 1.2011289239673156e-05 2.6403136691582866e-06 0 1.3968803366219376e-05 4.5105652725234967e-06 0 1.4198557260308802e-05 4.2998568519678389e-06 0 1.3968803366219376e-05 4.5105652725234967e-06 0 1.2011289239673156e-05 2.6403136691582866e-06 0 1.4198557260308802e-05 4.2998568519678389e-06 0 1.6598597626867386e-05 6.4653407774061156e-06 0 1.3968803366219376e-05 4.5105652725234967e-06 0 1.4198557260308802e-05 4.2998568519678389e-06 0 1.5686268704746091e-05 5.5807061615514578e-06 0 1.6598597626867382e-05 6.4653407774061156e-06 0 1.3968803366219376e-05 4.5105652725234967e-06 0 1.6598597626867382e-05 6.4653407774061156e-06 0 1.9384676294407404e-05 9.401824112618266e-06 0 1.8535618157223317e-05 7.7784339524717866e-06 0 1.9384676294407404e-05 9.401824112618266e-06 0 1.6598597626867382e-05 6.4653407774061156e-06 0 1.8535618157223317e-05 7.7784339524717866e-06 0 1.5686268704746091e-05 5.5807061615514578e-06 0 1.6211882796577499e-05 5.6404647130762294e-06 0 1.8535618157223317e-05 7.7784339524717866e-06 0 1.6598597626867382e-05 6.4653407774061148e-06 0 1.5686268704746091e-05 5.5807061615514578e-06 0 1.3447731298432782e-05 7.3151528189134289e-06 0 1.3968803366219376e-05 4.5105652725234967e-06 0 1.9384676294407404e-05 9.401824112618266e-06 0 1.3447731298432782e-05 7.3151528189134289e-06 0 1.9384676294407404e-05 9.401824112618266e-06 0 1.6863377611539298e-05 1.3073274344876052e-05 0 1.3447731298432782e-05 7.3151528189134289e-06 0 1.6863377611539298e-05 1.3073274344876052e-05 0 9.8391151965714796e-06 1.0407688607487014e-05 0 2.7733756030906252e-05 1.6081915248910031e-05 0 1.6863377611539298e-05 1.3073274344876051e-05 0 1.9384676294407404e-05 9.401824112618266e-06 0 2.7733756030906252e-05 1.6081915248910031e-05 0 1.5339640120406324e-05 2.7576471197254319e-05 0 1.6863377611539298e-05 1.3073274344876052e-05 0 2.7733756030906252e-05 1.6081915248910031e-05 0 1.9384676294407404e-05 9.401824112618266e-06 0 2.1013315358375312e-05 1.0455872968431901e-05 0 1.8535618157223317e-05 7.7784339524717866e-06 0 1.7257146947976476e-05 5.9591328722268448e-06 0 2.1013315358375312e-05 1.0455872968431901e-05 0 1.8535618157223317e-05 7.7784339524717866e-06 0 1.6211882796577499e-05 5.6404647130762294e-06 0 1.7257146947976476e-05 5.9591328722268448e-06 0 1.8535618157223317e-05 7.7784339524717866e-06 0 2.1013315358375312e-05 1.0455872968431901e-05 0 1.9384676294407404e-05 9.401824112618266e-06 0 1.8279314017603762e-05 3.3609680617472878e-06 0 2.1013315358375312e-05 1.0455872968431901e-05 0 1.7257146947976476e-05 5.9591328722268448e-06 0 1.8279314017603762e-05 3.3609680617472878e-06 0 1.7257146947976476e-05 5.9591328722268448e-06 0 1.596386146276684e-05 -7.4821218421524876e-08 0 1.4504955262527311e-05 3.067249073332984e-06 0 1.596386146276684e-05 -7.4821218421524876e-08 0 1.7257146947976476e-05 5.9591328722268448e-06 0 1.4504955262527311e-05 3.067249073332984e-06 0 1.7257146947976476e-05 5.9591328722268448e-06 0 1.6211882796577499e-05 5.6404647130762294e-06 0 1.4452230386409304e-05 4.5819425140115738e-06 0 1.6211882796577499e-05 5.6404647130762294e-06 0 1.5686268704746091e-05 5.5807061615514578e-06 0 1.6211882796577499e-05 5.6404647130762294e-06 0 1.4452230386409304e-05 4.5819425140115738e-06 0 1.4504955262527311e-05 3.067249073332984e-06 0 1.4452230386409304e-05 4.5819425140115738e-06 0 1.2752173536891145e-05 2.6231802746490101e-06 0 1.4504955262527311e-05 3.067249073332984e-06 0 1.4452230386409304e-05 4.5819425140115738e-06 0 1.2654343668637056e-05 3.4596941889344088e-06 0 1.2752173536891145e-05 2.6231802746490101e-06 0 1.4452230386409304e-05 4.5819425140115738e-06 0 1.3394924757042437e-05 3.9493212478980617e-06 0 1.2654343668637056e-05 3.4596941889344088e-06 0 1.4452230386409304e-05 4.5819425140115738e-06 0 1.5686268704746091e-05 5.5807061615514578e-06 0 1.3394924757042437e-05 3.9493212478980617e-06 0 1.1041279948918579e-05 2.1659963000746751e-06 0 1.2752173536891145e-05 2.6231802746490101e-06 0 1.2654343668637056e-05 3.4596941889344088e-06 0 1.1041279948918579e-05 2.1659963000746751e-06 0 1.0546456482347483e-05 3.6574682963411252e-07 0 1.2752173536891145e-05 2.6231802746490101e-06 0 1.4504955262527311e-05 3.067249073332984e-06 0 1.2075272688260819e-05 -8.2604790885607354e-08 0 1.3602624634449948e-05 -3.6459003273754691e-06 0 1.0340471775674756e-05 -2.4269944511966727e-06 0 1.2075272688260819e-05 -8.2604790885607354e-08 0 1.0546456482347483e-05 3.6574682963411252e-07 0 1.0546456482347483e-05 3.6574682963411252e-07 0 1.2075272688260819e-05 -8.2604790885607354e-08 0 1.2752173536891145e-05 2.6231802746490101e-06 0 1.4504955262527311e-05 3.067249073332984e-06 0 1.2752173536891145e-05 2.6231802746490101e-06 0 1.2075272688260819e-05 -8.2604790885607354e-08 0 1.0340471775674756e-05 -2.4269944511966727e-06 0 1.1434698527618505e-05 -4.9610651840798546e-06 0 1.2075272688260819e-05 -8.2604790885607354e-08 0 1.3602624634449948e-05 -3.6459003273754691e-06 0 1.2075272688260819e-05 -8.2604790885607354e-08 0 1.1434698527618505e-05 -4.9610651840798546e-06 0 1.3602624634449948e-05 -3.6459003273754691e-06 0 1.1434698527618505e-05 -4.9610651840798546e-06 0 1.4028365994668363e-05 -8.326057439029e-06 0 1.641023680942237e-05 -7.8767067806715395e-06 0 1.3602624634449948e-05 -3.6459003273754695e-06 0 1.4028365994668363e-05 -8.326057439029e-06 0 1.1695347424113623e-05 -8.9205930156644748e-06 0 1.4028365994668363e-05 -8.326057439029e-06 0 1.1434698527618505e-05 -4.9610651840798546e-06 0 1.1695347424113623e-05 -8.9205930156644748e-06 0 1.5286206160626872e-05 -1.3302559076291986e-05 0 1.4028365994668363e-05 -8.326057439029e-06 0 1.641023680942237e-05 -7.8767067806715395e-06 0 1.4028365994668363e-05 -8.3260574390289983e-06 0 1.5286206160626872e-05 -1.3302559076291988e-05 0 1.1695347424113623e-05 -8.9205930156644748e-06 0 1.1646262318650418e-05 -1.2769049721937839e-05 0 1.5286206160626872e-05 -1.3302559076291988e-05 0 2.3889376032472488e-05 -1.6392702813641565e-05 0 2.1520012920660758e-05 -1.1511900517279805e-05 0 2.0009013652230257e-05 -1.4972789448606655e-05 0 1.641023680942237e-05 -7.8767067806715395e-06 0 2.0009013652230257e-05 -1.4972789448606655e-05 0 2.1520012920660758e-05 -1.1511900517279805e-05 0 1.641023680942237e-05 -7.8767067806715395e-06 0 1.5286206160626872e-05 -1.3302559076291988e-05 0 2.0009013652230257e-05 -1.4972789448606655e-05 0 1.641023680942237e-05 -7.8767067806715395e-06 0 2.1520012920660758e-05 -1.1511900517279806e-05 0 1.885834185643601e-05 -3.6037096026164234e-06 0 1.4504955262527311e-05 3.067249073332984e-06 0 1.3602624634449948e-05 -3.6459003273754687e-06 0 1.596386146276684e-05 -7.4821218421524876e-08 0 1.641023680942237e-05 -7.8767067806715395e-06 0 1.8858341856436007e-05 -3.6037096026164221e-06 0 1.596386146276684e-05 -7.4821218421524876e-08 0 1.641023680942237e-05 -7.8767067806715395e-06 0 1.596386146276684e-05 -7.4821218421524876e-08 0 1.3602624634449948e-05 -3.6459003273754691e-06 0 1.8279314017603762e-05 3.3609680617472878e-06 0 1.596386146276684e-05 -7.4821218421524876e-08 0 1.885834185643601e-05 -3.6037096026164234e-06 0 1.8279314017603762e-05 3.3609680617472878e-06 0 2.1455197027664997e-05 2.9796454061951195e-06 0 2.1013315358375312e-05 1.0455872968431901e-05 0 1.8279314017603762e-05 3.3609680617472878e-06 0 1.8858341856436007e-05 -3.6037096026164234e-06 0 2.1455197027664997e-05 2.9796454061951191e-06 0 2.7733756030906252e-05 1.6081915248910031e-05 0 2.1013315358375315e-05 1.0455872968431902e-05 0 2.1455197027664997e-05 2.9796454061951191e-06 0 2.9940938762220393e-05 -3.7009381134585181e-06 0 2.1455197027664997e-05 2.9796454061951191e-06 0 2.4590849126482655e-05 -8.3971270462117715e-06 0 2.4590849126482655e-05 -8.3971270462117715e-06 0 2.1455197027664997e-05 2.9796454061951191e-06 0 1.885834185643601e-05 -3.6037096026164234e-06 0 1.5339640120406327e-05 2.7576471197254319e-05 0 2.7733756030906252e-05 1.6081915248910031e-05 0 2.2187858458007425e-05 4.8748272237241859e-05 0 2.7733756030906252e-05 1.6081915248910031e-05 0 2.1455197027664997e-05 2.9796454061951191e-06 0 2.9940938762220393e-05 -3.7009381134585181e-06 0 1.6975328554423603e-05 1.3666813956970873e-05 0 3.8625995273394811e-05 2.4229355978948804e-05 0 2.7733756030906252e-05 1.6081915248910031e-05 0 3.9726502195873779e-05 4.8054886397150962e-05 0 2.2187858458007425e-05 4.8748272237241859e-05 0 4.6309667342383637e-05 7.1752148156860695e-05 0 2.0821825594928891e-05 6.8886364014322988e-05 0 2.2187858458007425e-05 4.8748272237241859e-05 0 3.8625995273394811e-05 2.4229355978948804e-05 0 3.7760213309021607e-05 2.9220850148137473e-05 0 2.9940938762220393e-05 -3.7009381134585181e-06 0 2.4590849126482655e-05 -8.3971270462117715e-06 0 3.0457516895442386e-05 -1.1357466938436801e-05 0 3.9726502195873779e-05 4.8054886397150962e-05 0 4.6309667342383637e-05 7.1752148156860695e-05 0 2.2187858458007425e-05 4.8748272237241859e-05 0 3.7760213309021607e-05 2.9220850148137473e-05 0 4.1903308954465928e-05 3.9689630448916284e-05 0 3.0457516895442386e-05 -1.1357466938436801e-05 0 2.7153607153005544e-05 -1.4726934506106475e-05 0 3.1344203661422562e-05 -1.628643776574151e-05 0 4.6309667342383637e-05 7.1752148156860695e-05 0 3.492519453171083e-05 8.6531127176565423e-05 0 2.0821825594928891e-05 6.8886364014322988e-05 0 2.4590849126482655e-05 -8.3971270462117715e-06 0 1.885834185643601e-05 -3.6037096026164234e-06 0 2.1520012920660758e-05 -1.1511900517279805e-05 0 3.0457516895442386e-05 -1.1357466938436801e-05 0 2.4590849126482655e-05 -8.3971270462117715e-06 0 2.7153607153005544e-05 -1.4726934506106475e-05 0 2.4590849126482655e-05 -8.3971270462117715e-06 0 2.1520012920660758e-05 -1.1511900517279805e-05 0 2.7153607153005544e-05 -1.4726934506106475e-05 0 2.3889376032472488e-05 -1.6392702813641565e-05 0 2.7153607153005544e-05 -1.4726934506106475e-05 0 2.1520012920660758e-05 -1.1511900517279805e-05 0 2.3889376032472488e-05 -1.6392702813641565e-05 0 2.8097266920731881e-05 -1.9661337965502776e-05 0 2.7153607153005544e-05 -1.4726934506106475e-05 0 3.1344203661422562e-05 -1.628643776574151e-05 0 2.7153607153005544e-05 -1.4726934506106475e-05 0 2.8097266920731881e-05 -1.9661337965502776e-05 0 3.1344203661422562e-05 -1.628643776574151e-05 0 2.8097266920731881e-05 -1.9661337965502776e-05 0 3.2895894224555131e-05 -2.0324419524182487e-05 0 2.3889376032472488e-05 -1.6392702813641565e-05 0 2.3712207865214298e-05 -1.9742711838213786e-05 0 2.8097266920731881e-05 -1.9661337965502776e-05 0 1.9551827116639729e-05 9.3320479882519743e-05 0 3.492519453171083e-05 8.653112717656541e-05 0 3.8699652480285056e-05 0.00010188671623847026 0 5.1893806751072013e-05 9.4685219545072909e-05 0 3.8699652480285056e-05 0.00010188671623847026 0 3.492519453171083e-05 8.6531127176565423e-05 0 4.6309667342383637e-05 7.1752148156860695e-05 0 5.1893806751072013e-05 9.4685219545072909e-05 0 3.492519453171083e-05 8.6531127176565423e-05 0 4.1903308954465928e-05 3.9689630448916284e-05 0 4.4683851991161113e-05 4.896448692431354e-05 0 5.1893806751072013e-05 9.4685219545072909e-05 0 5.6769680083027469e-05 0.00011872081486545612 0 3.8699652480285056e-05 0.00010188671623847026 0 5.6769680083027469e-05 0.00011872081486545612 0 3.1173070552789652e-05 0.00011536053577236601 0 3.8699652480285056e-05 0.00010188671623847026 0 5.6769680083027469e-05 0.00011872081486545612 0 3.9649046558621609e-05 0.00013228531399773561 0 3.1173070552789652e-05 0.00011536053577236601 0 5.6769680083027469e-05 0.00011872081486545612 0 6.1255796493252357e-05 0.00014388471348085363 0 3.9649046558621609e-05 0.00013228531399773561 0 3.2895894224555131e-05 -2.0324419524182487e-05 0 3.0953917390455797e-05 -2.3631848179621872e-05 0 3.4819806898003553e-05 -2.4211903461544183e-05 0 4.4683851991161113e-05 4.896448692431354e-05 0 4.773006287278475e-05 5.9738166123545065e-05 0 6.1255796493252357e-05 0.00014388471348085363 0 3.5446846903272174e-05 0.00014983970863359776 0 3.9649046558621609e-05 0.00013228531399773561 0 2.6874051550217719e-05 -2.3312378109588029e-05 0 3.0953917390455797e-05 -2.3631848179621872e-05 0 2.8097266920731881e-05 -1.9661337965502776e-05 0 2.6874051550217719e-05 -2.3312378109588029e-05 0 2.8097266920731881e-05 -1.9661337965502776e-05 0 2.3712207865214302e-05 -1.9742711838213786e-05 0 3.2895894224555131e-05 -2.0324419524182487e-05 0 2.8097266920731881e-05 -1.9661337965502779e-05 0 3.0953917390455797e-05 -2.3631848179621872e-05 0 2.6874051550217719e-05 -2.3312378109588029e-05 0 2.7714008376522145e-05 -2.6592459706336127e-05 0 3.0953917390455797e-05 -2.3631848179621872e-05 0 3.264365452191781e-05 -2.804438172013826e-05 0 3.0953917390455797e-05 -2.3631848179621872e-05 0 2.7714008376522145e-05 -2.6592459706336127e-05 0 2.6874051550217719e-05 -2.3312378109588029e-05 0 2.2049180249887965e-05 -2.3569181313783876e-05 0 2.7714008376522145e-05 -2.6592459706336127e-05 0 2.5122689662114416e-05 -2.8825849728490925e-05 0 2.7714008376522145e-05 -2.6592459706336127e-05 0 2.2049180249887965e-05 -2.3569181313783876e-05 0 2.6874051550217719e-05 -2.3312378109588029e-05 0 2.3712207865214302e-05 -1.9742711838213786e-05 0 2.2049180249887965e-05 -2.3569181313783876e-05 0 1.9890119713560358e-05 -1.9177559977858919e-05 0 1.6606125080072307e-05 -1.89946391618563e-05 0 2.2049180249887965e-05 -2.3569181313783876e-05 0 1.9890119713560358e-05 -1.9177559977858919e-05 0 2.2049180249887965e-05 -2.3569181313783876e-05 0 2.3712207865214302e-05 -1.9742711838213786e-05 0 1.6885005726929586e-05 -2.2807954676170044e-05 0 2.0176526291275e-05 -2.8399565647310655e-05 0 2.2049180249887965e-05 -2.3569181313783876e-05 0 1.6885005726929586e-05 -2.2807954676170044e-05 0 1.4865524364074027e-05 -2.4894639233205142e-05 0 2.0176526291275e-05 -2.8399565647310655e-05 0 1.6885005726929586e-05 -2.2807954676170044e-05 0 1.6606125080072307e-05 -1.89946391618563e-05 0 1.3349097978669861e-05 -2.0384863090046061e-05 0 1.6885005726929586e-05 -2.2807954676170044e-05 0 2.2049180249887965e-05 -2.3569181313783876e-05 0 1.6606125080072307e-05 -1.89946391618563e-05 0 1.9890119713560358e-05 -1.9177559977858919e-05 0 1.5286206160626872e-05 -1.3302559076291988e-05 0 1.6606125080072307e-05 -1.89946391618563e-05 0 1.3479657654623753e-05 -1.6525896672817036e-05 0 1.3349097978669861e-05 -2.0384863090046061e-05 0 1.6606125080072307e-05 -1.89946391618563e-05 0 1.3479657654623753e-05 -1.6525896672817036e-05 0 1.6606125080072307e-05 -1.89946391618563e-05 0 1.5286206160626872e-05 -1.3302559076291988e-05 0 1.3479657654623753e-05 -1.6525896672817036e-05 0 1.5286206160626872e-05 -1.3302559076291988e-05 0 1.1646262318650418e-05 -1.2769049721937839e-05 0 1.9890119713560358e-05 -1.9177559977858919e-05 0 2.0009013652230257e-05 -1.4972789448606655e-05 0 1.5286206160626872e-05 -1.3302559076291988e-05 0 2.3889376032472488e-05 -1.6392702813641565e-05 0 2.0009013652230257e-05 -1.4972789448606655e-05 0 2.3712207865214302e-05 -1.9742711838213786e-05 0 1.9890119713560358e-05 -1.9177559977858919e-05 0 2.3712207865214302e-05 -1.9742711838213786e-05 0 2.0009013652230257e-05 -1.4972789448606655e-05 0 -6.7120229895166903e-05 7.4244465646350718e-05 0 -4.945745618380421e-05 6.1891625131643778e-05 0 -4.9689946483061466e-05 8.1460417125183253e-05 0 -7.3120452706238576e-05 9.6542871968069118e-05 0 -6.7120229895166903e-05 7.4244465646350718e-05 0 -4.9689946483061466e-05 8.1460417125183253e-05 0 -3.5047739081825124e-05 6.182673234086948e-05 0 -4.9689946483061466e-05 8.1460417125183253e-05 0 -4.945745618380421e-05 6.1891625131643778e-05 0 -6.7120229895166903e-05 7.4244465646350718e-05 0 -5.9609050550863088e-05 5.4337534873790405e-05 0 -4.945745618380421e-05 6.1891625131643778e-05 0 -5.9609050550863081e-05 5.4337534873790399e-05 0 -5.2037544398731664e-05 3.7663504768199178e-05 0 -3.6657688928021413e-05 4.1484425768298498e-05 0 -3.5047739081825124e-05 6.182673234086948e-05 0 -4.945745618380421e-05 6.1891625131643778e-05 0 -3.6657688928021413e-05 4.1484425768298498e-05 0 -5.9609050550863081e-05 5.4337534873790399e-05 0 -3.6657688928021413e-05 4.1484425768298498e-05 0 -4.945745618380421e-05 6.1891625131643778e-05 0 -3.5047739081825124e-05 6.182673234086948e-05 0 -3.6657688928021413e-05 4.1484425768298498e-05 0 -2.3889097434507861e-05 4.9641429214357308e-05 0 -1.7468276167370354e-05 3.2776952436824706e-05 0 -2.3889097434507861e-05 4.9641429214357308e-05 0 -3.6657688928021413e-05 4.1484425768298498e-05 0 -1.1009683737937967e-05 5.2425291929848547e-05 0 -2.2814220790622871e-05 6.3532813210916955e-05 0 -2.3889097434507861e-05 4.9641429214357308e-05 0 -3.5047739081825124e-05 6.182673234086948e-05 0 -2.3889097434507861e-05 4.9641429214357308e-05 0 -2.2814220790622871e-05 6.3532813210916955e-05 0 -3.5047739081825124e-05 6.182673234086948e-05 0 -2.2814220790622871e-05 6.3532813210916955e-05 0 -3.050942963176016e-05 7.9585397725662861e-05 0 -3.5047739081825124e-05 6.182673234086948e-05 0 -3.050942963176016e-05 7.9585397725662861e-05 0 -4.9689946483061466e-05 8.1460417125183253e-05 0 -1.3426840129707522e-05 7.6582493298791091e-05 0 -3.050942963176016e-05 7.9585397725662861e-05 0 -2.2814220790622871e-05 6.3532813210916955e-05 0 -1.3426840129707522e-05 7.6582493298791091e-05 0 3.4144529094075421e-06 7.1534401221609847e-05 0 -1.5707415667843414e-06 9.3982605335129552e-05 0 -1.3426840129707522e-05 7.6582493298791091e-05 0 -1.1009683737937967e-05 5.2425291929848547e-05 0 3.4144529094075421e-06 7.1534401221609847e-05 0 6.2839518912387917e-06 4.6509149076011875e-05 0 3.4144529094075408e-06 7.1534401221609847e-05 0 -1.1009683737937967e-05 5.2425291929848547e-05 0 -1.3426840129707522e-05 7.6582493298791091e-05 0 -2.2814220790622871e-05 6.3532813210916955e-05 0 -1.1009683737937967e-05 5.2425291929848547e-05 0 -1.7468276167370354e-05 3.2776952436824706e-05 0 -1.1009683737937967e-05 5.2425291929848547e-05 0 -2.3889097434507861e-05 4.9641429214357308e-05 0 -1.7468276167370354e-05 3.2776952436824706e-05 0 -3.4890412352485103e-06 3.1897812843294514e-05 0 -1.1009683737937967e-05 5.2425291929848547e-05 0 6.2839518912387917e-06 4.6509149076011875e-05 0 -1.1009683737937967e-05 5.2425291929848547e-05 0 -3.4890412352485099e-06 3.1897812843294521e-05 0 6.2839518912387917e-06 4.6509149076011875e-05 0 -3.489041235248512e-06 3.1897812843294521e-05 0 6.4229099459140823e-06 3.0188275758598197e-05 0 6.2839518912387917e-06 4.6509149076011875e-05 0 6.4229099459140815e-06 3.0188275758598197e-05 0 1.5339640120406327e-05 2.7576471197254319e-05 0 6.2839518912387917e-06 4.6509149076011875e-05 0 1.5339640120406327e-05 2.7576471197254319e-05 0 2.2187858458007425e-05 4.8748272237241859e-05 0 6.2839518912387917e-06 4.6509149076011875e-05 0 2.2187858458007425e-05 4.8748272237241859e-05 0 2.0821825594928891e-05 6.8886364014322988e-05 0 6.2839518912387917e-06 4.6509149076011875e-05 0 2.0821825594928891e-05 6.8886364014322988e-05 0 3.4144529094075421e-06 7.1534401221609847e-05 0 1.9551827116639729e-05 9.3320479882519743e-05 0 3.4144529094075421e-06 7.1534401221609847e-05 0 2.0821825594928891e-05 6.8886364014322988e-05 0 1.9551827116639729e-05 9.3320479882519743e-05 0 2.0821825594928891e-05 6.8886364014322988e-05 0 3.492519453171083e-05 8.6531127176565423e-05 0 1.9551827116639729e-05 9.3320479882519743e-05 0 -1.5707415667843428e-06 9.3982605335129552e-05 0 3.4144529094075421e-06 7.1534401221609847e-05 0 1.9551827116639729e-05 9.3320479882519743e-05 0 1.0972875349213029e-05 0.00010925054430831088 0 -1.5707415667843414e-06 9.3982605335129552e-05 0 1.9551827116639729e-05 9.3320479882519743e-05 0 3.1173070552789652e-05 0.00011536053577236601 0 1.0972875349213029e-05 0.00010925054430831088 0 1.9551827116639729e-05 9.3320479882519743e-05 0 3.8699652480285056e-05 0.00010188671623847026 0 3.1173070552789652e-05 0.00011536053577236601 0 3.1173070552789652e-05 0.00011536053577236601 0 3.9649046558621609e-05 0.00013228531399773561 0 1.450085957247327e-05 0.00013218444155307804 0 3.9649046558621609e-05 0.00013228531399773561 0 3.5446846903272174e-05 0.00014983970863359776 0 1.450085957247327e-05 0.00013218444155307804 0 1.450085957247327e-05 0.00013218444155307804 0 1.0972875349213029e-05 0.00010925054430831088 0 3.1173070552789652e-05 0.00011536053577236601 0 1.450085957247327e-05 0.00013218444155307804 0 -8.1726348335920506e-06 0.00011222560790154614 0 1.0972875349213029e-05 0.00010925054430831088 0 1.450085957247327e-05 0.00013218444155307804 0 -1.1752382237696405e-05 0.00013398748569592455 0 -8.1726348335920506e-06 0.00011222560790154614 0 1.450085957247327e-05 0.00013218444155307804 0 -6.0761215022770793e-06 0.00015553752852939348 0 -1.1752382237696405e-05 0.00013398748569592455 0 -2.9503891627680504e-05 0.00013201882166791767 0 -8.1726348335920506e-06 0.00011222560790154614 0 -1.1752382237696405e-05 0.00013398748569592455 0 -2.9503891627680504e-05 0.00013201882166791767 0 -2.2813231220472795e-05 0.00010082416448593302 0 -8.1726348335920506e-06 0.00011222560790154614 0 -8.1726348335920506e-06 0.00011222560790154614 0 -2.2813231220472795e-05 0.00010082416448593302 0 -1.5707415667843414e-06 9.3982605335129552e-05 0 -8.1726348335920506e-06 0.00011222560790154614 0 -1.5707415667843414e-06 9.3982605335129552e-05 0 1.0972875349213029e-05 0.00010925054430831088 0 -1.3426840129707522e-05 7.6582493298791091e-05 0 -1.5707415667843414e-06 9.3982605335129552e-05 0 -2.2813231220472795e-05 0.00010082416448593302 0 -1.3426840129707522e-05 7.6582493298791091e-05 0 -2.2813231220472795e-05 0.00010082416448593302 0 -3.050942963176016e-05 7.9585397725662861e-05 0 -3.981625930041986e-05 9.698867877746841e-05 0 -3.050942963176016e-05 7.9585397725662861e-05 0 -2.2813231220472795e-05 0.00010082416448593302 0 -3.981625930041986e-05 9.698867877746841e-05 0 -4.9689946483061466e-05 8.1460417125183253e-05 0 -3.050942963176016e-05 7.9585397725662861e-05 0 -3.981625930041986e-05 9.698867877746841e-05 0 -4.0772643539175767e-05 0.00011415194537328203 0 -5.7187724735696105e-05 0.00010990588669981261 0 -3.981625930041986e-05 9.698867877746841e-05 0 -2.2813231220472795e-05 0.00010082416448593302 0 -4.0772643539175767e-05 0.00011415194537328203 0 -2.9503891627680504e-05 0.00013201882166791767 0 -4.0772643539175767e-05 0.00011415194537328203 0 -2.2813231220472795e-05 0.00010082416448593302 0 -2.9503891627680504e-05 0.00013201882166791767 0 -1.1752382237696405e-05 0.00013398748569592455 0 -2.7510733163514829e-05 0.00015549214627054 0 -2.9503891627680504e-05 0.00013201882166791767 0 -4.4154486820173655e-05 0.00014942053712490959 0 -5.5378873098821937e-05 0.00013263236168032297 0 -2.9503891627680504e-05 0.00013201882166791767 0 -5.5378873098821937e-05 0.00013263236168032297 0 -4.0772643539175767e-05 0.00011415194537328203 0 -5.5378873098821937e-05 0.00013263236168032297 0 -5.7187724735696105e-05 0.00010990588669981261 0 -4.0772643539175767e-05 0.00011415194537328203 0 -8.1883269550145092e-05 0.00014677726510049419 0 -7.8164690185921347e-05 0.00012097976706753047 0 -5.5378873098821937e-05 0.00013263236168032297 0 -8.1883269550145092e-05 0.00014677726510049419 0 -5.5378873098821937e-05 0.00013263236168032297 0 -6.2169217296963511e-05 0.00015713460369248507 0 -7.816469018592136e-05 0.00012097976706753047 0 -5.7187724735696105e-05 0.00010990588669981261 0 -5.5378873098821937e-05 0.00013263236168032297 0 -7.816469018592136e-05 0.00012097976706753047 0 -7.3120452706238576e-05 9.6542871968069118e-05 0 -5.7187724735696105e-05 0.00010990588669981261 0 -3.981625930041986e-05 9.698867877746841e-05 0 -5.7187724735696105e-05 0.00010990588669981261 0 -4.9689946483061466e-05 8.1460417125183253e-05 0 -7.3120452706238576e-05 9.6542871968069118e-05 0 -4.9689946483061466e-05 8.1460417125183253e-05 0 -5.7187724735696105e-05 0.00010990588669981261 0 -8.6688514707424598e-05 0.00020133276405047345 0 -5.2137037311083536e-05 0.00020180800136401065 0 -6.253248237665288e-05 0.00022875935921545492 0 -8.6688514707424598e-05 0.00020133276405047345 0 -6.5859469029447206e-05 0.00018134657564294944 0 -5.2137037311083536e-05 0.00020180800136401065 0 -4.6586127122867223e-05 0.00017101112787857814 0 -5.2137037311083536e-05 0.00020180800136401067 0 -6.5859469029447206e-05 0.00018134657564294941 0 -8.6688514707424598e-05 0.00020133276405047345 0 -8.4778042257031391e-05 0.00017365284475273992 0 -6.5859469029447206e-05 0.00018134657564294941 0 -8.4778042257031391e-05 0.00017365284475273992 0 -6.2169217296963511e-05 0.00015713460369248507 0 -6.5859469029447206e-05 0.00018134657564294941 0 -8.4778042257031391e-05 0.00017365284475273992 0 -8.1883269550145092e-05 0.00014677726510049419 0 -6.2169217296963511e-05 0.00015713460369248507 0 -5.5378873098821937e-05 0.00013263236168032297 0 -4.4154486820173655e-05 0.00014942053712490959 0 -6.2169217296963511e-05 0.00015713460369248507 0 -4.6586127122867223e-05 0.00017101112787857814 0 -6.5859469029447206e-05 0.00018134657564294941 0 -6.2169217296963511e-05 0.00015713460369248507 0 -4.6586127122867223e-05 0.00017101112787857814 0 -4.4154486820173655e-05 0.00014942053712490959 0 -2.7510733163514829e-05 0.00015549214627054 0 -4.6586127122867223e-05 0.00017101112787857814 0 -6.2169217296963511e-05 0.00015713460369248507 0 -4.4154486820173655e-05 0.00014942053712490959 0 -2.9503891627680504e-05 0.00013201882166791767 0 -2.7510733163514829e-05 0.00015549214627054 0 -4.4154486820173655e-05 0.00014942053712490959 0 -4.6586127122867223e-05 0.00017101112787857814 0 -2.7510733163514829e-05 0.00015549214627054 0 -2.7494481859656375e-05 0.00017903936802398859 0 -5.2137037311083536e-05 0.00020180800136401065 0 -2.7494481859656375e-05 0.00017903936802398859 0 -2.6038857782442136e-05 0.00020413731857822306 0 -4.6586127122867223e-05 0.00017101112787857814 0 -2.7494481859656375e-05 0.00017903936802398859 0 -5.2137037311083536e-05 0.00020180800136401065 0 -3.6053728919403679e-05 0.0002315612592711898 0 -5.2137037311083536e-05 0.00020180800136401065 0 -2.6038857782442136e-05 0.00020413731857822306 0 -8.3855588551913991e-06 0.00018773361920221737 0 -6.136718021427468e-06 0.00021835183590319341 0 -2.6038857782442136e-05 0.00020413731857822306 0 -8.3855588551913991e-06 0.00018773361920221737 0 1.3094803741165173e-05 0.00019915618538955346 0 -6.1367180214274714e-06 0.00021835183590319338 0 -8.3855588551913991e-06 0.00018773361920221737 0 7.7609803742042527e-06 0.00017287790070159503 0 1.3094803741165173e-05 0.00019915618538955346 0 -8.3855588551913991e-06 0.00018773361920221737 0 -2.6038857782442136e-05 0.00020413731857822306 0 -2.7494481859656375e-05 0.00017903936802398859 0 -6.0761215022770793e-06 0.00015553752852939348 0 -2.7494481859656375e-05 0.00017903936802398859 0 -2.7510733163514829e-05 0.00015549214627054 0 -8.3855588551913991e-06 0.00018773361920221737 0 -2.7494481859656375e-05 0.00017903936802398859 0 -6.0761215022770793e-06 0.00015553752852939348 0 -6.0761215022770793e-06 0.00015553752852939348 0 -2.7510733163514829e-05 0.00015549214627054 0 -1.1752382237696405e-05 0.00013398748569592455 0 -6.0761215022770793e-06 0.00015553752852939348 0 1.5819012556237082e-05 0.00015680539123602452 0 7.7609803742042527e-06 0.00017287790070159503 0 -8.3855588551913991e-06 0.00018773361920221737 0 -6.0761215022770827e-06 0.00015553752852939348 0 7.7609803742042527e-06 0.00017287790070159503 0 2.7915839404472433e-05 0.00017353564181921466 0 7.7609803742042527e-06 0.00017287790070159503 0 1.5819012556237082e-05 0.00015680539123602455 0 1.450085957247327e-05 0.00013218444155307804 0 3.5446846903272174e-05 0.00014983970863359776 0 1.5819012556237082e-05 0.00015680539123602455 0 1.450085957247327e-05 0.00013218444155307804 0 1.5819012556237082e-05 0.00015680539123602455 0 -6.0761215022770793e-06 0.00015553752852939348 0 2.7915839404472433e-05 0.00017353564181921466 0 1.5819012556237082e-05 0.00015680539123602455 0 3.5446846903272174e-05 0.00014983970863359776 0 2.7915839404472433e-05 0.00017353564181921466 0 3.5446846903272174e-05 0.00014983970863359776 0 4.7762421001433545e-05 0.0001640590337003947 0 2.7915839404472433e-05 0.00017353564181921466 0 3.8050089376472467e-05 0.00020312229378540662 0 1.3094803741165173e-05 0.00019915618538955346 0 2.7915839404472433e-05 0.00017353564181921466 0 4.8448929206086974e-05 0.00018209887540126981 0 3.8050089376472467e-05 0.00020312229378540662 0 2.7915839404472433e-05 0.00017353564181921466 0 1.3094803741165173e-05 0.00019915618538955346 0 7.7609803742042527e-06 0.00017287790070159503 0 2.1575592122616231e-05 0.00023108228010810955 0 1.3094803741165173e-05 0.00019915618538955346 0 3.8050089376472467e-05 0.00020312229378540662 0 2.1575592122616231e-05 0.00023108228010810955 0 3.8050089376472467e-05 0.00020312229378540662 0 4.8904737409714154e-05 0.00022861272530442378 0 2.1575592122616231e-05 0.00023108228010810955 0 4.6103766665941129e-05 0.00025470592672301173 0 1.8913303675915682e-05 0.00026088378345297199 0 2.1575592122616231e-05 0.00023108228010810955 0 4.8904737409714161e-05 0.00022861272530442378 0 4.6103766665941136e-05 0.00025470592672301173 0 4.6103766665941136e-05 0.00025470592672301173 0 3.6882708092140908e-05 0.00027300957994331961 0 1.8913303675915682e-05 0.00026088378345297199 0 4.6103766665941136e-05 0.00025470592672301173 0 6.1860534400979341e-05 0.00027055189582802223 0 3.6882708092140908e-05 0.00027300957994331961 0 5.4159174923187847e-05 0.00028873089947588284 0 3.6882708092140908e-05 0.00027300957994331961 0 6.1860534400979341e-05 0.00027055189582802223 0 5.4159174923187847e-05 0.00028873089947588284 0 2.3093768004247018e-05 0.00028816503541246631 0 3.6882708092140908e-05 0.00027300957994331961 0 2.3093768004247018e-05 0.00028816503541246631 0 1.8913303675915682e-05 0.00026088378345297199 0 3.6882708092140908e-05 0.00027300957994331961 0 -5.7034036738633269e-06 0.00028695636231535794 0 -3.1369202214409548e-05 0.00026009078034903787 0 -6.8702569932002668e-06 0.00025062879343890488 0 -5.7034036738633269e-06 0.00028695636231535794 0 -6.8702569932002668e-06 0.00025062879343890488 0 1.8913303675915682e-05 0.00026088378345297199 0 2.3093768004247018e-05 0.00028816503541246631 0 -5.7034036738633269e-06 0.00028695636231535794 0 1.8913303675915682e-05 0.00026088378345297199 0 -3.6053728919403679e-05 0.0002315612592711898 0 -6.1367180214274714e-06 0.00021835183590319338 0 -6.8702569932002668e-06 0.00025062879343890488 0 2.1575592122616231e-05 0.00023108228010810955 0 1.8913303675915682e-05 0.00026088378345297199 0 -6.8702569932002668e-06 0.00025062879343890488 0 2.1575592122616231e-05 0.00023108228010810955 0 -6.8702569932002668e-06 0.00025062879343890488 0 -6.1367180214274714e-06 0.00021835183590319338 0 2.1575592122616231e-05 0.00023108228010810955 0 -6.1367180214274714e-06 0.00021835183590319338 0 1.3094803741165173e-05 0.00019915618538955346 0 -3.6053728919403679e-05 0.0002315612592711898 0 -2.6038857782442136e-05 0.00020413731857822306 0 -6.1367180214274714e-06 0.00021835183590319338 0 -3.6053728919403679e-05 0.0002315612592711898 0 -6.253248237665288e-05 0.00022875935921545492 0 -5.2137037311083536e-05 0.00020180800136401065 0 -3.6053728919403679e-05 0.0002315612592711898 0 -3.1369202214409541e-05 0.00026009078034903787 0 -5.7407637966524228e-05 0.00025423718405135541 0 -3.6053728919403679e-05 0.0002315612592711898 0 -5.7407637966524228e-05 0.00025423718405135541 0 -6.253248237665288e-05 0.00022875935921545492 0 -3.6053728919403679e-05 0.0002315612592711898 0 -6.8702569932002617e-06 0.00025062879343890488 0 -3.1369202214409541e-05 0.00026009078034903787 0 -5.7034036738633269e-06 0.00028695636231535794 0 -3.3136488592950301e-05 0.00028606734466333898 0 -3.1369202214409541e-05 0.00026009078034903787 0 -3.3136488592950301e-05 0.00028606734466333898 0 -6.0667073270941723e-05 0.00028559199634174833 0 -4.7041309983420137e-05 0.00027141451199107669 0 -3.3136488592950301e-05 0.00028606734466333898 0 -4.7041309983420137e-05 0.00027141451199107669 0 -3.1369202214409541e-05 0.00026009078034903787 0 -5.7407637966524228e-05 0.00025423718405135541 0 -3.1369202214409541e-05 0.00026009078034903787 0 -4.7041309983420137e-05 0.00027141451199107669 0 -5.7407637966524228e-05 0.00025423718405135541 0 -4.7041309983420137e-05 0.00027141451199107669 0 -6.9872785775901064e-05 0.00026981140758086544 0 -6.0667073270941723e-05 0.00028559199634174833 0 -6.9872785775901064e-05 0.00026981140758086544 0 -4.7041309983420137e-05 0.00027141451199107669 0 -8.827041031155625e-05 0.00028557383961258336 0 -6.9872785775901064e-05 0.00026981140758086544 0 -6.0667073270941723e-05 0.00028559199634174833 0 -8.827041031155625e-05 0.00028557383961258336 0 -8.8239763078068066e-05 0.00025774098040585655 0 -6.9872785775901064e-05 0.00026981140758086544 0 -8.8239763078068066e-05 0.00025774098040585655 0 -5.7407637966524228e-05 0.00025423718405135541 0 -6.9872785775901064e-05 0.00026981140758086544 0 -8.8239763078068066e-05 0.00025774098040585655 0 -8.7768767974628827e-05 0.00022960982861826404 0 -6.253248237665288e-05 0.00022875935921545492 0 -8.8239763078068066e-05 0.00025774098040585655 0 -6.253248237665288e-05 0.00022875935921545492 0 -5.7407637966524228e-05 0.00025423718405135541 0 -8.7768767974628827e-05 0.00022960982861826404 0 -8.6688514707424598e-05 0.00020133276405047345 0 -6.253248237665288e-05 0.00022875935921545492 0 2.557297997703349e-05 -3.8436481914673094e-05 0 2.6531495944563998e-05 -3.3059512830124737e-05 0 2.2211662120301202e-05 -3.404053547542973e-05 0 3.1722856147293094e-05 -3.490156016216177e-05 0 2.6531495944563998e-05 -3.3059512830124737e-05 0 3.0782562560724327e-05 -3.8763649024718038e-05 0 3.1722856147293094e-05 -3.490156016216177e-05 0 2.9689412671589737e-05 -3.1094652920650737e-05 0 2.6531495944563998e-05 -3.3059512830124737e-05 0 2.557297997703349e-05 -3.8436481914673094e-05 0 3.0782562560724327e-05 -3.8763649024718038e-05 0 2.6531495944563998e-05 -3.3059512830124737e-05 0 2.557297997703349e-05 -3.8436481914673094e-05 0 2.2211662120301202e-05 -3.404053547542973e-05 0 1.9949121780066654e-05 -3.7828887633948681e-05 0 2.2211662120301202e-05 -3.404053547542973e-05 0 1.81724928942671e-05 -3.2343835976179203e-05 0 1.9949121780066654e-05 -3.7828887633948681e-05 0 1.6599633814168902e-05 -3.5303446992150715e-05 0 1.9949121780066654e-05 -3.7828887633948681e-05 0 1.81724928942671e-05 -3.2343835976179203e-05 0 2.2211662120301202e-05 -3.404053547542973e-05 0 2.0176526291275e-05 -2.8399565647310655e-05 0 1.81724928942671e-05 -3.2343835976179203e-05 0 1.6342127653962667e-05 -2.8793166167721696e-05 0 1.81724928942671e-05 -3.2343835976179203e-05 0 2.0176526291275e-05 -2.8399565647310655e-05 0 1.6342127653962667e-05 -2.8793166167721696e-05 0 2.0176526291275e-05 -2.8399565647310655e-05 0 1.4865524364074027e-05 -2.4894639233205142e-05 0 2.5122689662114416e-05 -2.8825849728490925e-05 0 2.2049180249887965e-05 -2.3569181313783876e-05 0 2.0176526291275e-05 -2.8399565647310655e-05 0 2.6531495944563998e-05 -3.3059512830124737e-05 0 2.5122689662114416e-05 -2.8825849728490925e-05 0 2.0176526291275e-05 -2.8399565647310655e-05 0 2.2211662120301202e-05 -3.404053547542973e-05 0 2.6531495944563998e-05 -3.3059512830124737e-05 0 2.0176526291275e-05 -2.8399565647310655e-05 0 2.5122689662114416e-05 -2.8825849728490925e-05 0 2.6531495944564002e-05 -3.3059512830124737e-05 0 2.9689412671589737e-05 -3.1094652920650737e-05 0 2.5122689662114416e-05 -2.8825849728490925e-05 0 2.9689412671589737e-05 -3.1094652920650737e-05 0 2.7714008376522145e-05 -2.6592459706336127e-05 0 3.264365452191781e-05 -2.804438172013826e-05 0 2.7714008376522145e-05 -2.6592459706336127e-05 0 2.9689412671589737e-05 -3.1094652920650737e-05 0 3.4819806898003553e-05 -2.4211903461544183e-05 0 3.0953917390455797e-05 -2.3631848179621872e-05 0 3.264365452191781e-05 -2.804438172013826e-05 0 3.738539379877417e-05 -2.8333734436426437e-05 0 3.264365452191781e-05 -2.804438172013826e-05 0 3.5363443220124149e-05 -3.2544858952402524e-05 0 3.264365452191781e-05 -2.804438172013826e-05 0 2.9689412671589737e-05 -3.1094652920650737e-05 0 3.5363443220124149e-05 -3.2544858952402524e-05 0 6.1255796493252357e-05 0.00014388471348085363 0 4.7762421001433545e-05 0.0001640590337003947 0 3.5446846903272174e-05 0.00014983970863359776 0 6.1255796493252357e-05 0.00014388471348085363 0 6.5538294782785199e-05 0.00017002266614232428 0 4.7762421001433545e-05 0.0001640590337003947 0 3.4819806898003553e-05 -2.4211903461544183e-05 0 3.264365452191781e-05 -2.804438172013826e-05 0 3.738539379877417e-05 -2.8333734436426437e-05 0 4.773006287278475e-05 5.9738166123545065e-05 0 5.1154214516986733e-05 7.1279223472968842e-05 0 2.7915839404472433e-05 0.00017353564181921466 0 4.7762421001433545e-05 0.0001640590337003947 0 4.8448929206086974e-05 0.00018209887540126981 0 6.5538294782785199e-05 0.00017002266614232428 0 4.8448929206086974e-05 0.00018209887540126981 0 4.7762421001433545e-05 0.0001640590337003947 0 6.9740805941263576e-05 0.00019755844869585811 0 3.8050089376472467e-05 0.00020312229378540662 0 4.8448929206086974e-05 0.00018209887540126981 0 5.1154214516986733e-05 7.1279223472968842e-05 0 5.3867360053998177e-05 8.1294646537676205e-05 0 3.738539379877417e-05 -2.8333734436426437e-05 0 3.5363443220124149e-05 -3.2544858952402524e-05 0 4.0676516253111232e-05 -3.3096769344953307e-05 0 6.5538294782785199e-05 0.00017002266614232428 0 6.9740805941263576e-05 0.00019755844869585811 0 4.8448929206086974e-05 0.00018209887540126981 0 5.3867360053998177e-05 8.1294646537676205e-05 0 6.1003623609342522e-05 9.5070108795049775e-05 0 6.9740805941263576e-05 0.00019755844869585811 0 4.8904737409714154e-05 0.00022861272530442378 0 3.8050089376472467e-05 0.00020312229378540662 0 3.1722856147293094e-05 -3.490156016216177e-05 0 3.5363443220124149e-05 -3.2544858952402524e-05 0 2.9689412671589737e-05 -3.1094652920650737e-05 0 4.0676516253111232e-05 -3.3096769344953307e-05 0 3.5363443220124149e-05 -3.2544858952402524e-05 0 3.710304867758767e-05 -3.868818680540357e-05 0 3.1722856147293094e-05 -3.490156016216177e-05 0 3.0782562560724327e-05 -3.8763649024718038e-05 0 3.710304867758767e-05 -3.868818680540357e-05 0 3.1722856147293094e-05 -3.490156016216177e-05 0 3.710304867758767e-05 -3.868818680540357e-05 0 3.5363443220124149e-05 -3.2544858952402524e-05 0 3.5559864042110764e-05 -4.4360038812092113e-05 0 4.1888630327176992e-05 -4.3903194728756499e-05 0 3.710304867758767e-05 -3.868818680540357e-05 0 3.5559864042110764e-05 -4.4360038812092113e-05 0 3.710304867758767e-05 -3.868818680540357e-05 0 3.0782562560724327e-05 -3.8763649024718038e-05 0 4.0676516253111232e-05 -3.3096769344953307e-05 0 3.710304867758767e-05 -3.868818680540357e-05 0 4.5002441956799161e-05 -3.8730620526608318e-05 0 4.5002441956799161e-05 -3.8730620526608318e-05 0 3.710304867758767e-05 -3.868818680540357e-05 0 4.1888630327176992e-05 -4.3903194728756499e-05 0 3.5559864042110764e-05 -4.4360038812092113e-05 0 4.3289918996325163e-05 -5.0299237704261745e-05 0 4.1888630327176992e-05 -4.3903194728756499e-05 0 6.9740805941263576e-05 0.00019755844869585811 0 7.4119995607955006e-05 0.0002256217577779781 0 4.8904737409714154e-05 0.00022861272530442378 0 6.1003623609342522e-05 9.5070108795049775e-05 0 5.4598650013215977e-05 0.00010258107158903143 0 4.5002441956799161e-05 -3.8730620526608318e-05 0 4.1888630327176992e-05 -4.3903194728756499e-05 0 5.0723304828779706e-05 -4.6150750889818589e-05 0 7.4119995607955006e-05 0.0002256217577779781 0 7.9203241931759328e-05 0.00025509078417706863 0 4.8904737409714154e-05 0.00022861272530442378 0 7.9203241931759328e-05 0.00025509078417706863 0 4.6103766665941136e-05 0.00025470592672301173 0 4.8904737409714154e-05 0.00022861272530442378 0 7.9203241931759328e-05 0.00025509078417706863 0 6.1860534400979341e-05 0.00027055189582802223 0 4.6103766665941136e-05 0.00025470592672301173 0 5.4598650013215977e-05 0.00010258107158903143 0 0.00010469070230159089 0.00011647994794436749 0 8.6332511087054093e-05 0.00028578684905359176 0 6.1860534400979341e-05 0.00027055189582802223 0 7.9203241931759328e-05 0.00025509078417706863 0 8.6332511087054093e-05 0.00028578684905359176 0 5.4159174923187847e-05 0.00028873089947588284 0 6.1860534400979341e-05 0.00027055189582802223 0 3.5559864042110764e-05 -4.4360038812092113e-05 0 3.2755044851225612e-05 -5.0225028273107184e-05 0 4.328991899632517e-05 -5.0299237704261745e-05 0 5.0723304828779706e-05 -4.6150750889818589e-05 0 4.1888630327176992e-05 -4.3903194728756499e-05 0 4.328991899632517e-05 -5.0299237704261745e-05 0 5.7555361564229518e-05 -5.616737285156394e-05 0 5.0723304828779706e-05 -4.6150750889818589e-05 0 4.328991899632517e-05 -5.0299237704261745e-05 0 5.7555361564229518e-05 -5.616737285156394e-05 0 4.328991899632517e-05 -5.0299237704261745e-05 0 4.5460814115185939e-05 -5.8574371104732358e-05 0 4.5460814115185939e-05 -5.8574371104732358e-05 0 4.328991899632517e-05 -5.0299237704261745e-05 0 3.2755044851225612e-05 -5.0225028273107184e-05 0 2.6749968859552354e-05 -5.4083993945283938e-05 0 3.2755044851225612e-05 -5.0225028273107184e-05 0 2.6045873150998649e-05 -4.6105446194254104e-05 0 3.5170271813706299e-05 -5.7226146878739555e-05 0 4.5460814115185939e-05 -5.8574371104732358e-05 0 3.2755044851225612e-05 -5.0225028273107184e-05 0 2.6749968859552354e-05 -5.4083993945283938e-05 0 3.5170271813706299e-05 -5.7226146878739555e-05 0 3.2755044851225612e-05 -5.0225028273107184e-05 0 3.5559864042110764e-05 -4.4360038812092113e-05 0 2.8885036527674306e-05 -4.340651290976779e-05 0 3.2755044851225612e-05 -5.0225028273107184e-05 0 2.6045873150998649e-05 -4.6105446194254104e-05 0 3.2755044851225612e-05 -5.0225028273107184e-05 0 2.8885036527674306e-05 -4.340651290976779e-05 0 2.557297997703349e-05 -3.8436481914673094e-05 0 2.2491246914494143e-05 -4.2266013746889516e-05 0 2.8885036527674306e-05 -4.340651290976779e-05 0 2.557297997703349e-05 -3.8436481914673094e-05 0 2.8885036527674306e-05 -4.340651290976779e-05 0 3.0782562560724327e-05 -3.8763649024718038e-05 0 3.5559864042110764e-05 -4.4360038812092113e-05 0 3.0782562560724327e-05 -3.8763649024718038e-05 0 2.8885036527674306e-05 -4.340651290976779e-05 0 1.8687873731020385e-05 -4.2192044457673388e-05 0 2.2491246914494143e-05 -4.2266013746889516e-05 0 1.9949121780066654e-05 -3.7828887633948681e-05 0 2.557297997703349e-05 -3.8436481914673094e-05 0 1.9949121780066654e-05 -3.7828887633948681e-05 0 2.2491246914494143e-05 -4.2266013746889516e-05 0 2.6045873150998649e-05 -4.6105446194254104e-05 0 2.2491246914494143e-05 -4.2266013746889516e-05 0 2.154865436128311e-05 -4.6910252681021922e-05 0 2.6045873150998649e-05 -4.6105446194254104e-05 0 2.8885036527674306e-05 -4.340651290976779e-05 0 2.2491246914494143e-05 -4.2266013746889516e-05 0 1.8687873731020385e-05 -4.2192044457673388e-05 0 2.154865436128311e-05 -4.6910252681021922e-05 0 2.2491246914494143e-05 -4.2266013746889516e-05 0 2.6749968859552354e-05 -5.4083993945283938e-05 0 2.6045873150998649e-05 -4.6105446194254104e-05 0 2.154865436128311e-05 -4.6910252681021922e-05 0 2.0981485244669717e-05 -5.0544630424628986e-05 0 2.6749968859552354e-05 -5.4083993945283938e-05 0 2.154865436128311e-05 -4.6910252681021922e-05 0 2.0981485244669717e-05 -5.0544630424628986e-05 0 2.154865436128311e-05 -4.6910252681021922e-05 0 1.8271206095162005e-05 -4.58839866253877e-05 0 1.6920933887104192e-05 -4.6945972868766421e-05 0 2.0981485244669717e-05 -5.0544630424628993e-05 0 1.8271206095162005e-05 -4.58839866253877e-05 0 1.6920933887104192e-05 -4.6945972868766421e-05 0 1.8271206095162005e-05 -4.58839866253877e-05 0 1.4981523084443251e-05 -4.2545339071157362e-05 0 1.8687873731020385e-05 -4.2192044457673388e-05 0 1.4981523084443249e-05 -4.2545339071157362e-05 0 1.8271206095162005e-05 -4.58839866253877e-05 0 1.8687873731020385e-05 -4.2192044457673388e-05 0 1.8271206095162005e-05 -4.58839866253877e-05 0 2.154865436128311e-05 -4.6910252681021922e-05 0 1.4878399492851096e-05 -4.2005665729154131e-05 0 1.5191152745076577e-05 -4.3838461486012472e-05 0 1.331451336859523e-05 -4.2399591961607965e-05 0 1.5191152745076577e-05 -4.3838461486012472e-05 0 1.6920933887104192e-05 -4.6945972868766421e-05 0 1.331451336859523e-05 -4.2399591961607965e-05 0 1.6920933887104192e-05 -4.6945972868766421e-05 0 1.4981523084443251e-05 -4.2545339071157362e-05 0 1.331451336859523e-05 -4.2399591961607965e-05 0 1.0869393869293045e-05 -3.9826740689172622e-05 0 1.331451336859523e-05 -4.2399591961607965e-05 0 1.2474878232593109e-05 -3.9519689040330786e-05 0 1.4981523084443251e-05 -4.2545339071157362e-05 0 1.2474878232593109e-05 -3.9519689040330786e-05 0 1.331451336859523e-05 -4.2399591961607965e-05 0 1.2474878232593109e-05 -3.9519689040330786e-05 0 1.5176623777482305e-05 -3.8617567161452873e-05 0 1.2242575864321549e-05 -3.6292111459841957e-05 0 1.2242575864321549e-05 -3.6292111459841957e-05 0 1.004650156462184e-05 -3.6536264897371478e-05 0 1.2474878232593109e-05 -3.9519689040330786e-05 0 1.0869393869293045e-05 -3.9826740689172622e-05 0 1.2474878232593109e-05 -3.9519689040330786e-05 0 1.004650156462184e-05 -3.6536264897371478e-05 0 1.8687873731020385e-05 -4.2192044457673388e-05 0 1.5176623777482305e-05 -3.8617567161452873e-05 0 1.4981523084443251e-05 -4.2545339071157362e-05 0 1.4981523084443251e-05 -4.2545339071157362e-05 0 1.5176623777482305e-05 -3.8617567161452873e-05 0 1.2474878232593109e-05 -3.9519689040330786e-05 0 1.8687873731020385e-05 -4.2192044457673388e-05 0 1.9949121780066654e-05 -3.7828887633948681e-05 0 1.5176623777482305e-05 -3.8617567161452873e-05 0 1.6599633814168902e-05 -3.5303446992150715e-05 0 1.5176623777482305e-05 -3.8617567161452873e-05 0 1.9949121780066654e-05 -3.7828887633948681e-05 0 1.6599633814168902e-05 -3.5303446992150715e-05 0 1.81724928942671e-05 -3.2343835976179203e-05 0 1.4994724733090337e-05 -3.2035470015711858e-05 0 1.6599633814168902e-05 -3.5303446992150715e-05 0 1.4994724733090339e-05 -3.2035470015711858e-05 0 1.4040680072275381e-05 -3.5193799075317599e-05 0 1.2233043777230547e-05 -3.2386457330009167e-05 0 1.4040680072275381e-05 -3.5193799075317599e-05 0 1.4994724733090337e-05 -3.2035470015711858e-05 0 1.6599633814168902e-05 -3.5303446992150715e-05 0 1.4040680072275381e-05 -3.5193799075317599e-05 0 1.5176623777482305e-05 -3.8617567161452873e-05 0 1.2242575864321549e-05 -3.6292111459841957e-05 0 1.4040680072275381e-05 -3.5193799075317599e-05 0 1.2233043777230547e-05 -3.2386457330009167e-05 0 1.2242575864321549e-05 -3.6292111459841957e-05 0 1.5176623777482305e-05 -3.8617567161452873e-05 0 1.4040680072275381e-05 -3.5193799075317599e-05 0 1.2242575864321549e-05 -3.6292111459841957e-05 0 9.6263726751684782e-06 -3.1751663581331121e-05 0 1.004650156462184e-05 -3.6536264897371478e-05 0 8.1738647518091184e-06 -3.3922912208070119e-05 0 1.004650156462184e-05 -3.6536264897371478e-05 0 9.6263726751684765e-06 -3.1751663581331121e-05 0 1.2242575864321549e-05 -3.6292111459841957e-05 0 1.2233043777230547e-05 -3.2386457330009167e-05 0 9.6263726751684765e-06 -3.1751663581331121e-05 0 9.3886073127822955e-06 -2.8012851967264907e-05 0 1.2233043777230548e-05 -3.2386457330009167e-05 0 1.3017259786602662e-05 -2.8657398901089166e-05 0 9.3886073127822955e-06 -2.8012851967264907e-05 0 9.6263726751684765e-06 -3.1751663581331121e-05 0 1.2233043777230547e-05 -3.2386457330009167e-05 0 9.3886073127822955e-06 -2.8012851967264907e-05 0 5.9377656939424547e-06 -2.9239754876702971e-05 0 9.6263726751684765e-06 -3.1751663581331121e-05 0 9.3886073127822955e-06 -2.8012851967264907e-05 0 1.3017259786602662e-05 -2.8657398901089166e-05 0 1.1736255265463698e-05 -2.4247047352640977e-05 0 1.1736255265463698e-05 -2.4247047352640977e-05 0 1.3017259786602662e-05 -2.8657398901089166e-05 0 1.4865524364074027e-05 -2.4894639233205142e-05 0 1.6342127653962667e-05 -2.8793166167721696e-05 0 1.4865524364074027e-05 -2.4894639233205142e-05 0 1.3017259786602662e-05 -2.8657398901089166e-05 0 1.6342127653962667e-05 -2.8793166167721696e-05 0 1.3017259786602662e-05 -2.8657398901089166e-05 0 1.4994724733090337e-05 -3.2035470015711858e-05 0 1.6342127653962667e-05 -2.8793166167721696e-05 0 1.4994724733090337e-05 -3.2035470015711858e-05 0 1.81724928942671e-05 -3.2343835976179203e-05 0 1.2233043777230547e-05 -3.2386457330009167e-05 0 1.4994724733090337e-05 -3.2035470015711858e-05 0 1.3017259786602662e-05 -2.8657398901089166e-05 0 2.4622862335219019e-05 -8.4235381033276433e-05 0 1.3363699324546585e-05 -7.701843608284342e-05 0 1.5771079456979975e-05 -8.9561223085919589e-05 0 1.2071216559473132e-05 -4.8987366907979405e-05 0 1.3744271106913505e-05 -5.8344296419316368e-05 0 2.2442088381819631e-05 -7.0485975435967567e-05 0 1.3363699324546585e-05 -7.701843608284342e-05 0 2.4622862335219019e-05 -8.4235381033276433e-05 0 1.8590895916895032e-06 -2.7481841878394895e-05 0 3.0274804526713529e-06 -3.2345424075446522e-05 0 5.9377656939424547e-06 -2.9239754876702971e-05 0 1.8590895916895032e-06 -2.7481841878394895e-05 0 5.9377656939424547e-06 -2.9239754876702971e-05 0 4.3568597696331739e-06 -2.4559761747387945e-05 0 9.3886073127822955e-06 -2.8012851967264907e-05 0 6.9141345145668099e-06 -2.569616480667089e-05 0 5.9377656939424547e-06 -2.9239754876702971e-05 0 5.9377656939424547e-06 -2.9239754876702971e-05 0 6.9141345145668099e-06 -2.569616480667089e-05 0 4.3568597696331739e-06 -2.4559761747387945e-05 0 8.1738647518091184e-06 -3.3922912208070119e-05 0 9.6263726751684765e-06 -3.1751663581331121e-05 0 5.9377656939424547e-06 -2.9239754876702971e-05 0 3.0274804526713529e-06 -3.2345424075446522e-05 0 5.7506845193657134e-06 -3.3602191490659092e-05 0 5.9377656939424547e-06 -2.9239754876702971e-05 0 8.1738647518091184e-06 -3.3922912208070119e-05 0 5.9377656939424547e-06 -2.9239754876702971e-05 0 5.7506845193657134e-06 -3.3602191490659092e-05 0 8.1738647518091184e-06 -3.3922912208070119e-05 0 5.7506845193657134e-06 -3.3602191490659092e-05 0 8.0317556849754309e-06 -3.7282232668155833e-05 0 8.1738647518091184e-06 -3.3922912208070119e-05 0 8.0317556849754309e-06 -3.7282232668155833e-05 0 1.004650156462184e-05 -3.6536264897371478e-05 0 4.8780105681753705e-06 -3.6742438277105975e-05 0 8.0317556849754309e-06 -3.7282232668155833e-05 0 5.7506845193657134e-06 -3.3602191490659092e-05 0 4.8780105681753705e-06 -3.6742438277105975e-05 0 7.6224901424534408e-06 -4.0325143756319604e-05 0 8.0317556849754309e-06 -3.7282232668155833e-05 0 2.6811900199261739e-05 -9.8875790282434428e-05 0 1.5771079456979975e-05 -8.9561223085919589e-05 0 9.7818806367851775e-06 -0.0001009607054896301 0 2.6811900199261739e-05 -9.8875790282434428e-05 0 9.7818806367851741e-06 -0.0001009607054896301 0 1.6289042164314303e-05 -0.00011520595826493025 0 1.5559304087767402e-05 -6.7566450480474453e-05 0 1.8667857248344846e-05 -7.7580837333301423e-05 0 3.0274804526713529e-06 -3.2345424075446522e-05 0 4.8780105681753705e-06 -3.6742438277105975e-05 0 5.7506845193657134e-06 -3.3602191490659092e-05 0 2.4622862335219019e-05 -8.4235381033276433e-05 0 1.5771079456979975e-05 -8.9561223085919589e-05 0 2.6811900199261739e-05 -9.8875790282434428e-05 0 1.3744271106913505e-05 -5.8344296419316368e-05 0 1.5559304087767402e-05 -6.7566450480474453e-05 0 2.6811900199261739e-05 -9.8875790282434428e-05 0 1.6289042164314303e-05 -0.00011520595826493025 0 2.9290293836070122e-05 -0.00011388461058277727 0 1.8667857248344846e-05 -7.7580837333301423e-05 0 1.9882365532145355e-05 -8.5445602964065781e-05 0 7.6224901424534408e-06 -4.0325143756319604e-05 0 1.1471010068861046e-05 -4.2533200012831853e-05 0 9.8482012704299215e-06 -4.0240289763463929e-05 0 2.9290293836070122e-05 -0.00011388461058277727 0 1.6289042164314303e-05 -0.00011520595826493025 0 3.2269921373080159e-05 -0.00012967594967642143 0 3.2269921373080159e-05 -0.00012967594967642143 0 1.6289042164314299e-05 -0.00011520595826493025 0 1.5508635742883008e-05 -0.00012936830167791375 0 1.0869393869293045e-05 -3.9826740689172622e-05 0 1.004650156462184e-05 -3.6536264897371478e-05 0 8.0317556849754309e-06 -3.7282232668155833e-05 0 1.0869393869293045e-05 -3.9826740689172622e-05 0 8.0317556849754309e-06 -3.7282232668155833e-05 0 9.8482012704299215e-06 -4.0240289763463929e-05 0 7.6224901424534408e-06 -4.0325143756319604e-05 0 9.8482012704299215e-06 -4.0240289763463929e-05 0 8.0317556849754309e-06 -3.7282232668155833e-05 0 1.0869393869293045e-05 -3.9826740689172622e-05 0 9.8482012704299215e-06 -4.0240289763463929e-05 0 1.2195659705108899e-05 -4.1429558433455218e-05 0 1.0869393869293045e-05 -3.9826740689172622e-05 0 1.2195659705108899e-05 -4.1429558433455218e-05 0 1.331451336859523e-05 -4.2399591961607965e-05 0 1.1471010068861044e-05 -4.2533200012831853e-05 0 1.2195659705108899e-05 -4.1429558433455218e-05 0 9.8482012704299215e-06 -4.0240289763463929e-05 0 1.6142520858392955e-05 -4.2799710641865159e-05 0 1.2195659705108899e-05 -4.1429558433455218e-05 0 1.1471010068861044e-05 -4.2533200012831853e-05 0 1.6142520858392955e-05 -4.2799710641865159e-05 0 1.4878399492851096e-05 -4.2005665729154131e-05 0 1.2195659705108899e-05 -4.1429558433455218e-05 0 1.4878399492851096e-05 -4.2005665729154131e-05 0 1.331451336859523e-05 -4.2399591961607965e-05 0 1.2195659705108899e-05 -4.1429558433455218e-05 0 3.2269921373080159e-05 -0.00012967594967642143 0 1.5508635742883004e-05 -0.00012936830167791375 0 2.3839379855488816e-05 -0.00013779384589542319 0 1.9882365532145355e-05 -8.5445602964065781e-05 0 3.229792944717485e-05 -9.4933731064205545e-05 0 3.689772156814645e-05 -0.00014575816673608198 0 3.2269921373080159e-05 -0.00012967594967642143 0 2.3839379855488816e-05 -0.00013779384589542319 0 3.689772156814645e-05 -0.00014575816673608198 0 2.3839379855488816e-05 -0.00013779384589542319 0 2.0328528895121529e-05 -0.00014717777025164902 0 2.0328528895121529e-05 -0.00014717777025164902 0 2.3839379855488816e-05 -0.00013779384589542319 0 1.1128922355951403e-05 -0.0001388483070912483 0 4.2629979254658347e-06 -0.00014653703133319978 0 2.0328528895121529e-05 -0.00014717777025164902 0 1.1128922355951403e-05 -0.0001388483070912483 0 1.5508635742883008e-05 -0.00012936830167791375 0 1.8584869081806937e-06 -0.00013241104612828731 0 1.1128922355951403e-05 -0.0001388483070912483 0 1.5508635742883008e-05 -0.00012936830167791375 0 1.1128922355951403e-05 -0.0001388483070912483 0 2.3839379855488816e-05 -0.00013779384589542319 0 4.2629979254658347e-06 -0.00014653703133319978 0 1.1128922355951405e-05 -0.0001388483070912483 0 1.8584869081806937e-06 -0.00013241104612828731 0 -1.0397380497131426e-05 -0.00014561015943588307 0 1.8584869081806937e-06 -0.00013241104612828731 0 -1.1155067207943404e-05 -0.00012688225282529475 0 -1.0397380497131426e-05 -0.00014561015943588307 0 -1.1155067207943404e-05 -0.00012688225282529475 0 -2.3454285101021099e-05 -0.00013164683862196613 0 -1.0397380497131426e-05 -0.00014561015943588307 0 4.2629979254658347e-06 -0.00014653703133319978 0 1.8584869081806937e-06 -0.00013241104612828731 0 2.9144992624721161e-06 -0.00011709006366115764 0 -1.1155067207943404e-05 -0.00012688225282529475 0 1.8584869081806937e-06 -0.00013241104612828731 0 2.9144992624721161e-06 -0.00011709006366115764 0 -1.2529629176106717e-05 -0.00010997082918648901 0 -1.1155067207943404e-05 -0.00012688225282529475 0 -2.5876346703577097e-05 -0.0001165214154055088 0 -1.1155067207943404e-05 -0.00012688225282529475 0 -1.2529629176106717e-05 -0.00010997082918648901 0 2.9144992624721161e-06 -0.00011709006366115764 0 -3.0088451048045483e-06 -0.00010249297812873345 0 -1.2529629176106717e-05 -0.00010997082918648901 0 2.9144992624721161e-06 -0.00011709006366115764 0 1.6289042164314303e-05 -0.00011520595826493025 0 9.7818806367851775e-06 -0.0001009607054896301 0 2.9144992624721161e-06 -0.00011709006366115764 0 1.5508635742883008e-05 -0.00012936830167791375 0 1.6289042164314303e-05 -0.00011520595826493025 0 2.9144992624721161e-06 -0.00011709006366115764 0 1.8584869081806923e-06 -0.00013241104612828731 0 1.5508635742883008e-05 -0.00012936830167791375 0 -5.2398815872329598e-05 -0.00013040744074725445 0 -4.3011052374590686e-05 -0.00013659454401557635 0 -3.6633909691821335e-05 -0.00012858406790027568 0 -5.2415372245117718e-05 -0.00014466587568542254 0 -4.3011052374590686e-05 -0.00013659454401557635 0 -5.2398815872329598e-05 -0.00013040744074725445 0 -5.2415372245117718e-05 -0.00014466587568542254 0 -3.8305993274034636e-05 -0.00014467447123408384 0 -4.3011052374590686e-05 -0.00013659454401557635 0 -3.8305993274034643e-05 -0.00014467447123408384 0 -3.1373245022153797e-05 -0.00013743244947554787 0 -4.3011052374590686e-05 -0.00013659454401557635 0 -3.6633909691821335e-05 -0.00012858406790027568 0 -4.3011052374590686e-05 -0.00013659454401557635 0 -3.1373245022153797e-05 -0.00013743244947554787 0 -3.6633909691821335e-05 -0.00012858406790027568 0 -3.1373245022153797e-05 -0.00013743244947554787 0 -2.3454285101021099e-05 -0.00013164683862196613 0 -2.4280074258025582e-05 -0.00014498276577370737 0 -2.3454285101021099e-05 -0.00013164683862196613 0 -3.1373245022153797e-05 -0.00013743244947554787 0 -3.8305993274034643e-05 -0.00014467447123408384 0 -2.4280074258025582e-05 -0.00014498276577370737 0 -3.1373245022153797e-05 -0.00013743244947554787 0 -2.4280074258025582e-05 -0.00014498276577370737 0 -1.0397380497131426e-05 -0.00014561015943588307 0 -2.3454285101021099e-05 -0.00013164683862196613 0 -2.5876346703577097e-05 -0.0001165214154055088 0 -2.3454285101021099e-05 -0.00013164683862196613 0 -1.1155067207943404e-05 -0.00012688225282529475 0 -2.5876346703577097e-05 -0.0001165214154055088 0 -1.2529629176106717e-05 -0.00010997082918648901 0 -2.2543011495988769e-05 -9.9961067983375454e-05 0 -2.5876346703577097e-05 -0.0001165214154055088 0 -3.4914330339467767e-05 -0.00010238891417795845 0 -3.9393505685237161e-05 -0.00011572762791906819 0 -2.5876346703577097e-05 -0.0001165214154055088 0 -3.6633909691821335e-05 -0.00012858406790027568 0 -2.3454285101021099e-05 -0.00013164683862196613 0 -2.5876346703577097e-05 -0.0001165214154055088 0 -3.9393505685237168e-05 -0.00011572762791906819 0 -3.6633909691821335e-05 -0.00012858406790027568 0 -5.2398815872329598e-05 -0.00013040744074725445 0 -3.6633909691821335e-05 -0.00012858406790027568 0 -3.9393505685237161e-05 -0.00011572762791906819 0 -5.1383714688746673e-05 -0.0001012656206495914 0 -5.2095039162394934e-05 -0.00011590204803875856 0 -3.9393505685237161e-05 -0.00011572762791906819 0 -5.2095039162394934e-05 -0.00011590204803875856 0 -5.2398815872329598e-05 -0.00013040744074725445 0 -3.9393505685237161e-05 -0.00011572762791906819 0 -5.0088733732029106e-05 -8.7007710476119508e-05 0 -5.1383714688746673e-05 -0.0001012656206495914 0 -4.0824706531436906e-05 -9.1945171919761618e-05 0 -5.1383714688746673e-05 -0.0001012656206495914 0 -3.9393505685237161e-05 -0.00011572762791906819 0 -3.4914330339467767e-05 -0.00010238891417795845 0 -3.0469538204956685e-05 -8.6841525537115349e-05 0 -4.0824706531436906e-05 -9.1945171919761618e-05 0 -3.4914330339467767e-05 -0.00010238891417795845 0 -5.1383714688746673e-05 -0.0001012656206495914 0 -3.4914330339467767e-05 -0.00010238891417795845 0 -4.0824706531436906e-05 -9.1945171919761618e-05 0 -3.0469538204956685e-05 -8.6841525537115349e-05 0 -3.491433033946776e-05 -0.00010238891417795845 0 -2.2543011495988769e-05 -9.9961067983375454e-05 0 -2.5876346703577097e-05 -0.0001165214154055088 0 -2.2543011495988769e-05 -9.9961067983375454e-05 0 -3.4914330339467767e-05 -0.00010238891417795845 0 -3.0469538204956685e-05 -8.6841525537115349e-05 0 -2.2543011495988769e-05 -9.9961067983375454e-05 0 -2.0378968535570355e-05 -8.6362974568224228e-05 0 -1.2118186923490517e-05 -9.3922547443776969e-05 0 -2.0378968535570355e-05 -8.6362974568224228e-05 0 -2.2543011495988769e-05 -9.9961067983375454e-05 0 -3.0469538204956685e-05 -8.6841525537115349e-05 0 -2.0378968535570355e-05 -8.6362974568224228e-05 0 -2.4426478757018296e-05 -7.7415691012498866e-05 0 -2.2344537728281432e-05 -6.5381590516603582e-05 0 -2.4426478757018296e-05 -7.7415691012498866e-05 0 -1.3727481651494903e-05 -7.7853437588831627e-05 0 -1.3727481651494903e-05 -7.7853437588831627e-05 0 -2.4426478757018296e-05 -7.7415691012498866e-05 0 -2.0378968535570355e-05 -8.6362974568224228e-05 0 -3.0469538204956685e-05 -8.6841525537115349e-05 0 -2.4426478757018296e-05 -7.7415691012498866e-05 0 -3.4652620935295389e-05 -7.3263502648615757e-05 0 -3.0469538204956685e-05 -8.6841525537115349e-05 0 -4.0959555963922786e-05 -8.2152425990013916e-05 0 -4.0824706531436906e-05 -9.1945171919761618e-05 0 -3.0469538204956685e-05 -8.6841525537115349e-05 0 -3.4652620935295389e-05 -7.3263502648615757e-05 0 -4.0959555963922786e-05 -8.2152425990013916e-05 0 -4.8122566026660551e-05 -7.31597932741147e-05 0 -4.0959555963922786e-05 -8.2152425990013916e-05 0 -3.4652620935295389e-05 -7.3263502648615757e-05 0 -4.8122566026660551e-05 -7.31597932741147e-05 0 -5.0088733732029099e-05 -8.7007710476119508e-05 0 -4.0959555963922786e-05 -8.2152425990013916e-05 0 -5.0088733732029106e-05 -8.7007710476119508e-05 0 -4.0824706531436899e-05 -9.1945171919761618e-05 0 -4.0959555963922786e-05 -8.2152425990013916e-05 0 6.2042696660300814e-06 -8.4770198423352296e-05 0 -2.8481900597616547e-06 -8.9648837346505237e-05 0 9.7818806367851775e-06 -0.0001009607054896301 0 9.7818806367851775e-06 -0.0001009607054896301 0 -2.8481900597616547e-06 -8.9648837346505237e-05 0 -3.0088451048045483e-06 -0.00010249297812873345 0 6.2042696660300814e-06 -8.4770198423352296e-05 0 9.7818806367851758e-06 -0.00010096070548963012 0 1.5771079456979975e-05 -8.9561223085919589e-05 0 2.9144992624721161e-06 -0.00011709006366115764 0 9.7818806367851775e-06 -0.0001009607054896301 0 -3.0088451048045483e-06 -0.00010249297812873345 0 -1.2118186923490517e-05 -9.3922547443776969e-05 0 -1.2529629176106717e-05 -0.00010997082918648901 0 -3.0088451048045483e-06 -0.00010249297812873345 0 -1.2118186923490517e-05 -9.3922547443776969e-05 0 -2.2543011495988769e-05 -9.9961067983375454e-05 0 -1.2529629176106717e-05 -0.00010997082918648901 0 -1.2118186923490517e-05 -9.3922547443776969e-05 0 -3.0088451048045483e-06 -0.00010249297812873345 0 -2.8481900597616547e-06 -8.9648837346505237e-05 0 -1.3727481651494903e-05 -7.7853437588831627e-05 0 -2.8481900597616547e-06 -8.9648837346505237e-05 0 -3.1934296172178484e-06 -7.6156501129651875e-05 0 -1.2118186923490517e-05 -9.3922547443776969e-05 0 -2.8481900597616547e-06 -8.9648837346505237e-05 0 -1.3727481651494903e-05 -7.7853437588831627e-05 0 -1.2118186923490517e-05 -9.3922547443776969e-05 0 -1.3727481651494905e-05 -7.7853437588831613e-05 0 -2.0378968535570355e-05 -8.6362974568224228e-05 0 -1.3727481651494903e-05 -7.7853437588831627e-05 0 -3.1934296172178479e-06 -7.6156501129651875e-05 0 -9.635383386299331e-06 -6.540402488062405e-05 0 6.2042696660300814e-06 -8.4770198423352296e-05 0 4.8445145724643772e-06 -7.3445385152667598e-05 0 -3.1934296172178484e-06 -7.6156501129651875e-05 0 6.2042696660300814e-06 -8.4770198423352296e-05 0 -3.1934296172178484e-06 -7.6156501129651875e-05 0 -2.8481900597616547e-06 -8.9648837346505237e-05 0 6.2042696660300814e-06 -8.4770198423352296e-05 0 1.5771079456979975e-05 -8.9561223085919589e-05 0 1.3363699324546585e-05 -7.701843608284342e-05 0 6.2042696660300814e-06 -8.4770198423352296e-05 0 1.3363699324546585e-05 -7.701843608284342e-05 0 4.8445145724643772e-06 -7.3445385152667598e-05 0 9.762212311022923e-06 -6.4690577500435973e-05 0 4.8445145724643772e-06 -7.3445385152667598e-05 0 1.3363699324546585e-05 -7.701843608284342e-05 0 -1.7014132422703254e-06 -6.4956614378590435e-05 0 4.8445145724643772e-06 -7.3445385152667598e-05 0 9.762212311022923e-06 -6.4690577500435973e-05 0 -1.7014132422703254e-06 -6.4956614378590435e-05 0 9.7622123110229213e-06 -6.469057750043596e-05 0 3.4471853569304534e-06 -5.6741160701951452e-05 0 9.762212311022923e-06 -6.4690577500435973e-05 0 1.0368073660899801e-05 -5.2848149292216664e-05 0 3.4471853569304534e-06 -5.6741160701951452e-05 0 -1.7014132422703254e-06 -6.4956614378590435e-05 0 3.4471853569304534e-06 -5.6741160701951452e-05 0 -3.9805641819585457e-06 -5.4934142025306981e-05 0 -1.7014132422703254e-06 -6.4956614378590435e-05 0 -3.1934296172178484e-06 -7.6156501129651875e-05 0 4.8445145724643772e-06 -7.3445385152667598e-05 0 -1.7014132422703254e-06 -6.4956614378590435e-05 0 -9.635383386299331e-06 -6.540402488062405e-05 0 -3.1934296172178484e-06 -7.6156501129651875e-05 0 -2.2344537728281432e-05 -6.5381590516603582e-05 0 -1.3727481651494903e-05 -7.7853437588831627e-05 0 -9.635383386299331e-06 -6.540402488062405e-05 0 -2.2344537728281432e-05 -6.5381590516603582e-05 0 -9.635383386299331e-06 -6.540402488062405e-05 0 -1.3047960497377001e-05 -5.437166276746506e-05 0 -1.7014132422703254e-06 -6.4956614378590435e-05 0 -3.9805641819585457e-06 -5.4934142025306981e-05 0 -9.635383386299331e-06 -6.540402488062405e-05 0 -1.3047960497377001e-05 -5.437166276746506e-05 0 -9.635383386299331e-06 -6.540402488062405e-05 0 -3.9805641819585457e-06 -5.4934142025306981e-05 0 -1.3047960497377001e-05 -5.437166276746506e-05 0 -3.9805641819585457e-06 -5.4934142025306981e-05 0 -4.6396056997821011e-06 -4.3508602207743529e-05 0 -1.1869962720821427e-05 -3.9915942814948888e-05 0 -1.8690225105236371e-05 -4.7073917023536948e-05 0 -1.3047960497377001e-05 -5.437166276746506e-05 0 -1.1869962720821427e-05 -3.9915942814948888e-05 0 -1.3047960497377001e-05 -5.437166276746506e-05 0 -4.6396056997821011e-06 -4.3508602207743529e-05 0 2.927140529329643e-06 -4.6746300725483479e-05 0 2.7090585868186264e-06 -3.3756548699257241e-05 0 -4.6396056997821011e-06 -4.3508602207743529e-05 0 2.927140529329643e-06 -4.6746300725483479e-05 0 9.5880298855623581e-06 -4.0236568396017962e-05 0 2.7090585868186264e-06 -3.3756548699257241e-05 0 2.927140529329643e-06 -4.6746300725483479e-05 0 3.4471853569304539e-06 -5.6741160701951452e-05 0 1.0368073660899801e-05 -5.2848149292216664e-05 0 2.927140529329643e-06 -4.6746300725483479e-05 0 -4.6396056997821011e-06 -4.3508602207743522e-05 0 -3.9805641819585457e-06 -5.4934142025306981e-05 0 2.927140529329643e-06 -4.6746300725483479e-05 0 -3.9805641819585457e-06 -5.4934142025306981e-05 0 3.4471853569304534e-06 -5.6741160701951452e-05 0 -4.5494651778598631e-05 -6.0167983070621044e-05 0 -4.0080822595372849e-05 -6.6611470612378619e-05 0 -3.2178050286605191e-05 -5.9542156699927407e-05 0 -4.5494651778598631e-05 -6.0167983070621044e-05 0 -3.2178050286605191e-05 -5.9542156699927407e-05 0 -3.5189522831436752e-05 -5.0652825252969716e-05 0 -4.8122566026660551e-05 -7.31597932741147e-05 0 -3.4652620935295389e-05 -7.3263502648615757e-05 0 -4.0080822595372849e-05 -6.6611470612378619e-05 0 -4.5494651778598631e-05 -6.0167983070621044e-05 0 -4.8122566026660551e-05 -7.31597932741147e-05 0 -4.0080822595372849e-05 -6.6611470612378619e-05 0 -3.4652620935295389e-05 -7.3263502648615757e-05 0 -3.2178050286605191e-05 -5.9542156699927407e-05 0 -4.0080822595372849e-05 -6.6611470612378619e-05 0 -2.2344537728281432e-05 -6.5381590516603582e-05 0 -2.2146395396864357e-05 -5.4627959133883079e-05 0 -3.2178050286605191e-05 -5.9542156699927407e-05 0 -2.2344537728281432e-05 -6.5381590516603582e-05 0 -3.2178050286605191e-05 -5.9542156699927407e-05 0 -3.4652620935295389e-05 -7.3263502648615757e-05 0 -2.2344537728281432e-05 -6.5381590516603582e-05 0 -3.4652620935295389e-05 -7.3263502648615757e-05 0 -2.4426478757018296e-05 -7.7415691012498866e-05 0 -2.2344537728281432e-05 -6.5381590516603582e-05 0 -1.3047960497377003e-05 -5.437166276746506e-05 0 -2.2146395396864357e-05 -5.4627959133883079e-05 0 -2.6821174549573278e-05 -4.7767089520140512e-05 0 -2.2146395396864357e-05 -5.4627959133883079e-05 0 -1.8690225105236371e-05 -4.7073917023536948e-05 0 -1.3047960497377001e-05 -5.437166276746506e-05 0 -1.8690225105236371e-05 -4.7073917023536948e-05 0 -2.2146395396864357e-05 -5.4627959133883079e-05 0 -1.1869962720821427e-05 -3.9915942814948888e-05 0 -1.9814301760217204e-05 -3.9531277211552363e-05 0 -1.8690225105236371e-05 -4.7073917023536948e-05 0 -2.6821174549573278e-05 -4.7767089520140512e-05 0 -1.8690225105236371e-05 -4.7073917023536948e-05 0 -1.9814301760217204e-05 -3.9531277211552363e-05 0 -2.6821174549573278e-05 -4.7767089520140512e-05 0 -1.9814301760217204e-05 -3.9531277211552363e-05 0 -3.0616185007667843e-05 -4.0339907141219416e-05 0 -2.6821174549573278e-05 -4.7767089520140512e-05 0 -3.2178050286605191e-05 -5.9542156699927407e-05 0 -2.2146395396864357e-05 -5.4627959133883079e-05 0 -2.6821174549573278e-05 -4.7767089520140512e-05 0 -3.5189522831436752e-05 -5.0652825252969716e-05 0 -3.2178050286605191e-05 -5.9542156699927407e-05 0 -2.6821174549573278e-05 -4.7767089520140512e-05 0 -3.0616185007667843e-05 -4.0339907141219416e-05 0 -3.5189522831436752e-05 -5.0652825252969716e-05 0 -4.2398387042012754e-05 -4.8144825552453254e-05 0 -3.5189522831436752e-05 -5.0652825252969716e-05 0 -3.0616185007667843e-05 -4.0339907141219416e-05 0 -4.2398387042012754e-05 -4.8144825552453254e-05 0 -4.5494651778598624e-05 -6.0167983070621044e-05 0 -3.5189522831436752e-05 -5.0652825252969716e-05 0 -3.4670292711276196e-05 -2.7746505057558389e-05 0 -3.8863899105065584e-05 -3.7297125879429404e-05 0 -3.0010729806029258e-05 -3.1243418201392297e-05 0 -3.8863899105065584e-05 -3.7297125879429404e-05 0 -4.2398387042012754e-05 -4.8144825552453254e-05 0 -3.0616185007667843e-05 -4.0339907141219416e-05 0 -3.8863899105065584e-05 -3.7297125879429404e-05 0 -3.0616185007667843e-05 -4.0339907141219416e-05 0 -3.0010729806029258e-05 -3.1243418201392297e-05 0 -2.2931612941979945e-05 -3.0919166251182383e-05 0 -3.0010729806029258e-05 -3.1243418201392297e-05 0 -3.0616185007667843e-05 -4.0339907141219416e-05 0 -2.2931612941979945e-05 -3.0919166251182383e-05 0 -3.0616185007667843e-05 -4.0339907141219416e-05 0 -1.9814301760217204e-05 -3.9531277211552363e-05 0 -1.1869962720821427e-05 -3.9915942814948888e-05 0 -1.6799623285926824e-05 -3.2093755425715864e-05 0 -1.9814301760217204e-05 -3.9531277211552363e-05 0 -2.2931612941979945e-05 -3.0919166251182383e-05 0 -1.9814301760217204e-05 -3.9531277211552363e-05 0 -1.6799623285926824e-05 -3.2093755425715864e-05 0 -1.0892134109116472e-05 -2.6927203210454291e-05 0 -1.7439631936878982e-05 -2.5512151187837927e-05 0 -1.6799623285926824e-05 -3.2093755425715864e-05 0 -2.2931612941979945e-05 -3.0919166251182383e-05 0 -1.6799623285926824e-05 -3.2093755425715864e-05 0 -1.7439631936878982e-05 -2.5512151187837927e-05 0 -1.4056791331991109e-05 -1.8597407119657361e-05 0 -2.3358611957002005e-05 -2.1813367235747247e-05 0 -1.7439631936878982e-05 -2.5512151187837927e-05 0 -1.4056791331991109e-05 -1.8597407119657361e-05 0 -1.6374954200321943e-05 -1.4563552755067918e-05 0 -2.3358611957002005e-05 -2.1813367235747247e-05 0 -2.2931612941979945e-05 -3.0919166251182383e-05 0 -1.7439631936878982e-05 -2.5512151187837927e-05 0 -2.3358611957002005e-05 -2.1813367235747247e-05 0 -3.4670292711276196e-05 -2.7746505057558389e-05 0 -3.0010729806029258e-05 -3.1243418201392297e-05 0 -2.3358611957002005e-05 -2.1813367235747247e-05 0 -2.2931612941979945e-05 -3.0919166251182383e-05 0 -2.3358611957002005e-05 -2.1813367235747247e-05 0 -3.0010729806029258e-05 -3.1243418201392297e-05 0 -3.0568421657509896e-05 -1.9730632736144464e-05 0 -3.4670292711276196e-05 -2.7746505057558389e-05 0 -2.3358611957002005e-05 -2.1813367235747247e-05 0 -3.1678874792991782e-06 -2.4469501490827332e-05 0 -5.6396046597165097e-06 -3.3297151268442112e-05 0 2.7090585868186264e-06 -3.3756548699257241e-05 0 -3.1678874792991782e-06 -2.4469501490827332e-05 0 2.7090585868186264e-06 -3.3756548699257241e-05 0 3.4676933235780766e-06 -2.1703519031634799e-05 0 2.7090585868186264e-06 -3.3756548699257241e-05 0 -5.6396046597165097e-06 -3.3297151268442112e-05 0 -4.6396056997821011e-06 -4.3508602207743529e-05 0 -1.1869962720821427e-05 -3.9915942814948888e-05 0 -4.639605699782102e-06 -4.3508602207743529e-05 0 -5.6396046597165097e-06 -3.3297151268442112e-05 0 -1.1869962720821427e-05 -3.9915942814948888e-05 0 -1.0892134109116468e-05 -2.6927203210454291e-05 0 -1.6799623285926824e-05 -3.2093755425715864e-05 0 -1.1869962720821427e-05 -3.9915942814948888e-05 0 -5.6396046597165097e-06 -3.3297151268442112e-05 0 -1.0892134109116472e-05 -2.6927203210454291e-05 0 -3.1678874792991782e-06 -2.4469501490827332e-05 0 -1.0892134109116472e-05 -2.6927203210454291e-05 0 -5.6396046597165097e-06 -3.3297151268442112e-05 0 -3.1678874792991782e-06 -2.4469501490827332e-05 0 -7.728988267741418e-06 -1.8720702519936495e-05 0 -1.0892134109116472e-05 -2.6927203210454291e-05 0 -1.4056791331991109e-05 -1.8597407119657361e-05 0 -1.7439631936878982e-05 -2.5512151187837927e-05 0 -1.0892134109116472e-05 -2.6927203210454291e-05 0 -1.4056791331991109e-05 -1.8597407119657361e-05 0 -7.7289882677414163e-06 -1.8720702519936495e-05 0 -1.0501040144603487e-05 -1.4488923997402652e-05 0 -1.4056791331991109e-05 -1.8597407119657361e-05 0 -1.0892134109116472e-05 -2.6927203210454291e-05 0 -7.7289882677414163e-06 -1.8720702519936495e-05 0 -3.1678874792991782e-06 -2.4469501490827332e-05 0 -2.7551695124897645e-06 -1.6342761726179241e-05 0 -7.7289882677414163e-06 -1.8720702519936495e-05 0 -2.7551695124897645e-06 -1.6342761726179241e-05 0 -3.1678874792991782e-06 -2.4469501490827332e-05 0 3.4676933235780766e-06 -2.1703519031634799e-05 0 2.2239469364415752e-06 -1.3461813330293904e-05 0 -2.7551695124897645e-06 -1.6342761726179241e-05 0 3.4676933235780766e-06 -2.1703519031634799e-05 0 6.3430264517851974e-06 -1.1370576597686417e-05 0 2.2239469364415752e-06 -1.3461813330293904e-05 0 3.4676933235780766e-06 -2.1703519031634799e-05 0 6.3430264517851974e-06 -1.1370576597686417e-05 0 3.7081688873360889e-06 -9.6831768401371538e-06 0 4.5049250772825135e-06 -8.8210670366803847e-06 0 6.3430264517851974e-06 -1.1370576597686417e-05 0 3.4676933235780766e-06 -2.1703519031634799e-05 0 1.1519127674853767e-05 -2.3893899990066602e-05 0 5.5855689864770509e-06 -1.1253525976689543e-05 0 7.9360314240290485e-06 -1.6907918290122002e-05 0 1.1519127674853767e-05 -2.3893899990066602e-05 0 3.4676933235780766e-06 -2.1703519031634799e-05 0 8.5273116853782701e-06 -2.9758288017176967e-05 0 2.7090585868186264e-06 -3.3756548699257241e-05 0 8.5273116853782701e-06 -2.9758288017176967e-05 0 3.4676933235780766e-06 -2.1703519031634799e-05 0 7.9360314240290485e-06 -1.6907918290122002e-05 0 8.6775544340120882e-06 -2.3579067316688959e-05 0 1.1519127674853767e-05 -2.3893899990066602e-05 0 8.5273116853782701e-06 -2.9758288017176967e-05 0 1.5118113495465035e-05 -3.4272812071167838e-05 0 8.6775544340120882e-06 -2.3579067316688959e-05 0 9.6821471566656302e-06 -3.1453331979648773e-05 0 1.5118113495465035e-05 -3.4272812071167838e-05 0 8.5273116853782701e-06 -2.9758288017176967e-05 0 9.5880298855623598e-06 -4.0236568396017955e-05 0 2.7090585868186264e-06 -3.3756548699257241e-05 0 9.5880298855623598e-06 -4.0236568396017955e-05 0 8.5273116853782701e-06 -2.9758288017176967e-05 0 6.0792099418593273e-06 -1.2474461356398741e-05 0 4.8400247064951169e-06 -9.8252892574357697e-06 0 4.0529023959272445e-06 -1.3790921807883828e-05 0 2.3523121433029896e-06 -1.2949182762744567e-05 0 1.4935761347823374e-06 -1.7358238188095551e-05 0 4.0529023959272445e-06 -1.3790921807883828e-05 0 2.3523121433029896e-06 -1.2949182762744567e-05 0 4.0529023959272445e-06 -1.3790921807883828e-05 0 4.8400247064951169e-06 -9.8252892574357697e-06 0 3.7081688873360889e-06 -9.6831768401371538e-06 0 2.3523121433029896e-06 -1.2949182762744567e-05 0 4.8400247064951169e-06 -9.8252892574357697e-06 0 4.8400247064951169e-06 -9.8252892574357697e-06 0 6.1850161813841026e-06 -7.1311104110230079e-06 0 4.5049250772825135e-06 -8.8210670366803847e-06 0 3.7081688873360889e-06 -9.6831768401371538e-06 0 4.8400247064951169e-06 -9.825289257435768e-06 0 4.5049250772825135e-06 -8.8210670366803847e-06 0 6.3430264517851974e-06 -1.1370576597686417e-05 0 4.5049250772825135e-06 -8.8210670366803847e-06 0 5.2845501785198068e-06 -7.6070178413662359e-06 0 4.5049250772825135e-06 -8.8210670366803847e-06 0 6.1850161813841034e-06 -7.1311104110230079e-06 0 5.2845501785198068e-06 -7.6070178413662359e-06 0 6.1850161813841026e-06 -7.1311104110230079e-06 0 4.8400247064951169e-06 -9.8252892574357697e-06 0 7.3817297521161396e-06 -9.8123618331580947e-06 0 6.1850161813841026e-06 -7.1311104110230079e-06 0 7.3817297521161396e-06 -9.8123618331580947e-06 0 9.0392393373176472e-06 -6.5080062302251551e-06 0 6.1850161813841026e-06 -7.1311104110230079e-06 0 9.0392393373176472e-06 -6.5080062302251551e-06 0 8.1364545137063158e-06 -4.0758721956493662e-06 0 1.0340471775674756e-05 -2.4269944511966727e-06 0 9.0392393373176472e-06 -6.5080062302251551e-06 0 1.1434698527618505e-05 -4.9610651840798546e-06 0 1.0340471775674756e-05 -2.4269944511966727e-06 0 8.1364545137063158e-06 -4.0758721956493662e-06 0 9.0392393373176472e-06 -6.5080062302251551e-06 0 1.1695347424113623e-05 -8.9205930156644748e-06 0 1.1434698527618505e-05 -4.9610651840798546e-06 0 9.0392393373176472e-06 -6.5080062302251551e-06 0 1.1695347424113623e-05 -8.9205930156644748e-06 0 9.7497056609942911e-06 -9.6408127238702829e-06 0 1.1646262318650418e-05 -1.2769049721937839e-05 0 1.1695347424113623e-05 -8.9205930156644748e-06 0 9.0392393373176472e-06 -6.5080062302251551e-06 0 9.7497056609942911e-06 -9.6408127238702829e-06 0 9.4579861639685583e-06 -1.2547602011240256e-05 0 9.7497056609942911e-06 -9.6408127238702829e-06 0 7.3817297521161396e-06 -9.8123618331580947e-06 0 9.0392393373176472e-06 -6.5080062302251551e-06 0 7.3817297521161396e-06 -9.8123618331580947e-06 0 9.7497056609942911e-06 -9.6408127238702829e-06 0 9.4579861639685583e-06 -1.2547602011240256e-05 0 1.1646262318650418e-05 -1.2769049721937839e-05 0 9.7497056609942911e-06 -9.6408127238702829e-06 0 6.0792099418593273e-06 -1.2474461356398741e-05 0 7.3817297521161396e-06 -9.8123618331580947e-06 0 4.8400247064951169e-06 -9.8252892574357697e-06 0 9.4579861639685583e-06 -1.2547602011240256e-05 0 7.3817297521161396e-06 -9.8123618331580947e-06 0 7.9445060246217905e-06 -1.4979988518545736e-05 0 6.0792099418593273e-06 -1.2474461356398741e-05 0 7.9445060246217905e-06 -1.4979988518545736e-05 0 7.3817297521161396e-06 -9.8123618331580947e-06 0 6.0792099418593273e-06 -1.2474461356398741e-05 0 5.1281141217354609e-06 -1.6767187624471458e-05 0 7.9445060246217905e-06 -1.4979988518545736e-05 0 9.789686722776323e-06 -1.962275821925295e-05 0 1.0883452707623391e-05 -1.6164257897116833e-05 0 7.9445060246217905e-06 -1.4979988518545736e-05 0 9.789686722776323e-06 -1.962275821925295e-05 0 7.9445060246217905e-06 -1.4979988518545736e-05 0 7.0621433815214083e-06 -1.906312286082568e-05 0 5.1281141217354617e-06 -1.6767187624471458e-05 0 7.0621433815214083e-06 -1.906312286082568e-05 0 7.9445060246217905e-06 -1.4979988518545736e-05 0 1.3479657654623753e-05 -1.6525896672817036e-05 0 1.1646262318650418e-05 -1.2769049721937839e-05 0 1.0883452707623393e-05 -1.6164257897116836e-05 0 9.4579861639685583e-06 -1.2547602011240256e-05 0 1.0883452707623395e-05 -1.6164257897116836e-05 0 1.1646262318650418e-05 -1.2769049721937839e-05 0 9.4579861639685583e-06 -1.2547602011240256e-05 0 7.9445060246217905e-06 -1.4979988518545736e-05 0 1.0883452707623393e-05 -1.6164257897116836e-05 0 9.789686722776323e-06 -1.962275821925295e-05 0 1.3349097978669861e-05 -2.0384863090046061e-05 0 1.0883452707623393e-05 -1.6164257897116836e-05 0 1.3479657654623753e-05 -1.6525896672817036e-05 0 1.0883452707623393e-05 -1.6164257897116836e-05 0 1.3349097978669861e-05 -2.0384863090046061e-05 0 1.6885005726929586e-05 -2.2807954676170044e-05 0 1.3349097978669861e-05 -2.0384863090046061e-05 0 1.4865524364074027e-05 -2.4894639233205142e-05 0 9.789686722776323e-06 -1.962275821925295e-05 0 1.1736255265463698e-05 -2.4247047352640977e-05 0 1.3349097978669861e-05 -2.0384863090046061e-05 0 1.1736255265463698e-05 -2.4247047352640977e-05 0 1.4865524364074027e-05 -2.4894639233205142e-05 0 1.3349097978669861e-05 -2.0384863090046061e-05 0 6.1393678276565762e-06 -2.2553307074734746e-05 0 8.6180701596741734e-06 -2.3408953717118792e-05 0 7.0621433815214083e-06 -1.906312286082568e-05 0 9.789686722776323e-06 -1.962275821925295e-05 0 8.6180701596741734e-06 -2.3408953717118792e-05 0 1.1736255265463698e-05 -2.4247047352640977e-05 0 9.789686722776323e-06 -1.962275821925295e-05 0 7.0621433815214083e-06 -1.906312286082568e-05 0 8.6180701596741734e-06 -2.3408953717118792e-05 0 9.3886073127822955e-06 -2.8012851967264907e-05 0 1.1736255265463698e-05 -2.4247047352640977e-05 0 8.6180701596741734e-06 -2.3408953717118792e-05 0 6.1393678276565762e-06 -2.2553307074734746e-05 0 6.9141345145668099e-06 -2.569616480667089e-05 0 8.6180701596741734e-06 -2.3408953717118792e-05 0 9.3886073127822955e-06 -2.8012851967264907e-05 0 8.6180701596741734e-06 -2.3408953717118792e-05 0 6.9141345145668099e-06 -2.569616480667089e-05 0 6.1393678276565762e-06 -2.2553307074734746e-05 0 4.3568597696331739e-06 -2.4559761747387945e-05 0 6.9141345145668099e-06 -2.569616480667089e-05 0 6.1393678276565762e-06 -2.2553307074734746e-05 0 3.9853456737011152e-06 -2.0359037164240519e-05 0 4.3568597696331739e-06 -2.4559761747387945e-05 0 6.1393678276565762e-06 -2.2553307074734746e-05 0 7.0621433815214083e-06 -1.906312286082568e-05 0 3.9853456737011152e-06 -2.0359037164240519e-05 0 1.333675733499705e-06 -2.2428316703442222e-05 0 4.3568597696331739e-06 -2.4559761747387945e-05 0 3.9853456737011152e-06 -2.0359037164240519e-05 0 2.0263344429313608e-05 -5.75445817164502e-05 0 9.762212311022923e-06 -6.4690577500435973e-05 0 2.2442088381819631e-05 -7.0485975435967567e-05 0 1.0754867998189413e-05 -4.0000172566996584e-05 0 1.2071216559473132e-05 -4.8987366907979405e-05 0 1.333675733499705e-06 -2.2428316703442222e-05 0 1.859089591689503e-06 -2.7481841878394898e-05 0 4.3568597696331739e-06 -2.4559761747387945e-05 0 2.2442088381819631e-05 -7.0485975435967567e-05 0 9.762212311022923e-06 -6.4690577500435973e-05 0 1.3363699324546585e-05 -7.701843608284342e-05 0 2.0263344429313608e-05 -5.75445817164502e-05 0 1.0368073660899801e-05 -5.2848149292216664e-05 0 9.762212311022923e-06 -6.4690577500435973e-05 0 1.7858531780693655e-05 -4.548267858105476e-05 0 1.0368073660899801e-05 -5.2848149292216664e-05 0 2.0263344429313608e-05 -5.75445817164502e-05 0 1.4935761347823376e-06 -1.7358238188095551e-05 0 1.333675733499705e-06 -2.2428316703442222e-05 0 3.9853456737011152e-06 -2.0359037164240519e-05 0 9.6821471566656302e-06 -3.1453331979648773e-05 0 1.0754867998189413e-05 -4.0000172566996584e-05 0 1.7858531780693655e-05 -4.548267858105476e-05 0 9.5880298855623598e-06 -4.0236568396017955e-05 0 1.0368073660899801e-05 -5.2848149292216664e-05 0 2.927140529329643e-06 -4.6746300725483479e-05 0 1.0368073660899801e-05 -5.2848149292216664e-05 0 9.5880298855623598e-06 -4.0236568396017955e-05 0 1.5118113495465035e-05 -3.4272812071167838e-05 0 9.5880298855623598e-06 -4.0236568396017955e-05 0 1.7858531780693655e-05 -4.548267858105476e-05 0 1.4935761347823376e-06 -1.7358238188095551e-05 0 5.1281141217354609e-06 -1.6767187624471458e-05 0 4.0529023959272445e-06 -1.3790921807883828e-05 0 6.0792099418593273e-06 -1.2474461356398741e-05 0 4.0529023959272437e-06 -1.3790921807883828e-05 0 5.1281141217354617e-06 -1.6767187624471458e-05 0 5.1281141217354617e-06 -1.6767187624471458e-05 0 3.9853456737011152e-06 -2.0359037164240519e-05 0 7.0621433815214083e-06 -1.906312286082568e-05 0 1.4935761347823376e-06 -1.7358238188095551e-05 0 3.9853456737011152e-06 -2.0359037164240519e-05 0 5.1281141217354617e-06 -1.6767187624471458e-05 0 
</DataArray>
</PointData>
<CellData Scalars="region_id,cross_section_updated,displacement_divergence," Vectors="" Tensors="stress,">
<DataArray type="Float64" Name="region_id" format="ascii">
1 1 1 1 1 1 1 1 1 1 1 1 1 1 1 1 1 1 1 1 1 1 1 1 1 1 1 1 1 1 1 1 1 1 1 1 1 1 1 1 1 1 1 1 1 1 1 1 1 1 1 1 1 1 1 1 1 1 1 1 1 1 1 1 1 1 1 1 1 1 1 1 1 1 1 1 1 1 1 1 1 1 1 1 1 1 1 1 1 1 1 1 1 1 1 1 1 1 1 1 1 1 1 1 1 1 1 1 1 1 1 1 1 1 1 1 1 1 1 1 1 1 1 1 1 1 1 1 1 1 1 1 1 1 1 1 1 1 1 1 1 1 1 1 1 1 1 1 1 1 1 1 1 1 1 1 1 1 1 1 1 1 1 1 1 1 1 1 1 1 1 1 1 1 1 1 1 1 1 1 1 1 1 1 1 1 1 1 1 1 1 1 1 1 1 1 1 1 1 1 1 1 1 1 1 1 1 1 1 1 1 1 1 1 1 1 1 1 1 1 1 1 1 1 1 1 1 1 1 1 1 1 1 1 1 1 1 1 1 1 1 1 1 1 1 1 1 1 1 1 1 1 1 1 1 1 1 1 1 1 1 1 1 1 1 1 1 1 1 1 1 1 1 1 1 1 1 1 1 1 1 1 1 1 1 1 1 1 1 1 1 1 1 1 1 1 1 1 1 1 1 1 1 1 1 1 1 1 1 1 1 1 1 1 1 1 1 1 1 1 1 1 1 1 1 1 1 1 1 1 1 1 1 1 1 1 1 1 1 1 1 1 1 1 1 1 1 1 1 1 1 1 1 1 1 1 1 1 1 1 1 1 1 1 1 1 1 1 1 1 1 1 1 1 1 1 1 1 1 1 1 1 1 1 1 1 1 1 1 1 1 1 1 1 1 1 1 1 1 1 1 1 1 1 1 1 1 1 1 1 1 1 1 1 1 1 1 1 1 1 1 1 1 1 1 1 1 1 1 1 1 1 1 1 1 1 1 1 1 1 1 1 1 1 1 1 1 1 1 1 1 1 1 1 1 1 1 1 1 1 1 1 1 1 1 1 1 1 1 1 1 1 1 1 1 1 1 1 1 1 1 1 1 1 1 1 1 1 1 1 1 1 1 1 1 1 1 1 1 1 1 1 1 1 1 1 1 1 1 1 1 1 1 1 1 1 1 1 1 1 1 1 1 1 1 1 1 1 1 1 1 1 1 1 1 1 1 1 3 1 1 3 1 1 3 1 1 1 1 1 1 1 1 1 1 1 1 1 3 1 1 1 1 1 3 1 1 1 1 1 1 1 1 1 1 1 1 1 1 1 1 1 1 1 1 1 1 1 1 1 1 1 1 1 1 1 1 1 1 1 1 1 1 1 1 1 1 1 1 1 1 1 1 1 1 1 1 1 1 1 1 1 1 1 1 1 1 1 1 1 1 1 1 1 1 1 1 1 1 1 1 1 1 1 1 1 1 1 1 1 1 1 1 1 1 1 1 1 1 1 1 1 1 1 1 1 1 1 1 1 1 1 1 1 1 1 1 1 1 1 1 1 1 1 1 1 1 1 1 1 1 1 1 1 1 1 1 1 1 1 1 1 1 1 1 1 1 1 1 1 1 1 1 1 1 1 1 1 1 1 1 1 1 1 1 1 1 1 1 1 1 1 1 3 1 1 1 3 1 1 3 1 1 1 1 1 1 1 1 1 1 1 3 1 1 1 1 3 1 1 1 1 1 1 1 1 1 1 1 1 1 1 1 1 1 1 1 1 1 1 1 1 1 1 1 1 1 1 1 1 1 1 1 1 1 1 1 1 1 1 1 1 1 1 1 1 1 1 1 1 1 1 1 1 1 1 2 1 1 1 1 1 1 1 1 1 1 1 1 1 1 2 1 1 2 1 2 1 1 1 1 1 1 1 1 1 1 1 1 1 2 1 1 1 1 1 1 1 1 1 1 1 1 1 1 1 1 1 1 1 1 1 1 1 1 1 1 1 1 1 1 1 1 1 1 1 1 1 1 1 1 1 1 1 1 1 1 1 1 1 1 1 1 1 1 1 1 1 1 1 1 1 1 1 1 1 1 1 1 1 1 1 1 1 1 1 1 1 1 1 1 1 1 1 1 1 1 1 1 1 1 1 1 1 1 1 1 1 1 1 1 1 1 1 1 1 1 1 1 1 1 1 1 1 1 1 1 1 1 1 1 1 1 1 1 1 1 1 1 1 1 1 1 1 1 1 1 2 1 1 2 1 2 1 1 1 1 1 1 1 1 1 1 1 1 1 1 1 1 1 1 1 1 1 1 1 1 1 1 1 1 1 1 1 1 1 1 1 1 1 1 1 1 1 1 1 1 1 1 1 2 1 1 1 1 1 2 1 1 1 1 1 1 1 
</DataArray>
<DataArray type="Float64" Name="stress" NumberOfComponents="9" format="ascii">
-0.030488254959962845 0.0018429077731481008 0 0.0018429077731481008 -0.0040649393002009284 0 0 0 -0.008638298565040942 -0.029285309312383111 0.0027943987187977822 0 0.0027943987187977822 -0.0097438429848145918 0 0 0 -0.0097572880742994271 -0.031406349214938331 0.0031420940422308466 0 0.0031420940422308466 0.0018811099721777664 0 0 0 -0.0073813098106901417 -0.030416039919380185 0.0038891744992456461 0 0.0038891744992456461 -0.0040755362184030277 0 0 0 -0.0086228940344458029 -0.025156009553093685 0.0082335617081910426 0 0.0082335617081910426 -0.0083877499062487548 0 0 0 -0.0083859398648356114 -0.025152060962586442 0.008237727756094191 0 0.008237727756094191 -0.0083748062563731747 0 0 0 -0.008381716804739904 -0.029033678599151666 0.0079482731667294658 0 0.0079482731667294658 -0.0020135288542279407 0 0 0 -0.0077618018633449021 -0.029608580630240907 0.0071184095879462794 0 0.0071184095879462794 -0.0025581449457880573 0 0 0 -0.0080416813940072385 -0.02790765411021694 0.009308291963185852 0 0.009308291963185852 -0.0019891147738589701 0 0 0 -0.0074741922210189819 -0.02245393907383253 0.009654738197722449 0 0.009654738197722449 -0.00039499869125713544 0 0 0 -0.0057122344412724162 -0.032227992996733373 0.0099205350692788876 0 0.0099205350692788876 -0.0010399096752504861 0 0 0 -0.0083169756679959614 -0.02219162602525783 0.01078340409196518 0 0.01078340409196518 0.00064056036385388981 0 0 0 -0.0053877664153509867 -0.039822941269617551 0.0077384419632619411 0 0.0077384419632619411 -0.00051811063511780775 0 0 0 -0.010085262976183847 -0.031041065540946221 0.0081867346226963573 0 0.0081867346226963573 0.00049575731190331165 0 0 0 -0.0076363270572607301 -0.046842326985904077 0.0030257416521897065 0 0.0030257416521897065 -0.0015373060006644498 0 0 0 -0.01209490824664213 -0.037439382069347001 0.0038335833683438513 0 0.0038335833683438513 -0.00022570520270017921 0 0 0 -0.0094162718180117941 -0.034659050129058809 0.0051179072349243435 0 0.0051179072349243435 0.002149997522467524 0 0 0 -0.0081272631516478219 -0.034979090067168067 0.0079086390253709452 0 0.0079086390253709452 -0.0004764710924426499 0 0 0 -0.008863890289902681 -0.0044051824425501125 0.011432220844899104 0 0.011432220844899104 -0.0014660247710782549 0 0 0 -0.0014678018034070919 -0.0085180199116027047 0.013626678311785961 0 0.013626678311785961 -0.0015521450683216031 0 0 0 -0.002517541244981077 -0.0099964801419224307 0.010590377297573278 0 0.010590377297573278 -0.00096017306253567969 0 0 0 -0.002739163301114525 -0.017623756234740336 0.012136753682006401 0 0.012136753682006401 -0.0013208337117316046 0 0 0 -0.0047361474866179885 -0.018543893958685637 0.01105844364848298 0 0.01105844364848298 -0.0034402810556187491 0 0 0 -0.0054960437535760964 -0.011857649818364187 0.012293987764800406 0 0.012293987764800406 -0.0018603975123197489 0 0 0 -0.0034295118326709857 -0.012027376882647153 0.010938928258577695 0 0.010938928258577695 -0.0040130573282984323 0 0 0 -0.0040101085527363958 -0.019570578796650456 0.012206491210024352 0 0.012206491210024352 -0.00049662539367381631 0 0 0 -0.0050168010475810723 -0.021151302527842572 0.0098169167516101042 0 0.0098169167516101042 -0.00074221124485596146 0 0 0 -0.0054733784431746334 -0.017662094268491541 0.010691011225882313 0 0.010691011225882313 -0.0018213372828449724 0 0 0 -0.0048708578878341319 -0.0082138483984334244 0.010593944543203648 0 0.010593944543203648 -0.0004142140419634982 0 0 0 -0.0021570156100992298 -0.008650890866798825 0.011510207598656765 0 0.011510207598656765 -0.001319232203636507 0 0 0 -0.0024925307676088356 -0.0041037427729092267 0.013246631409992955 0 0.013246631409992955 -0.0012628538328654602 0 0 0 -0.00134164915144367 -0.00071900631936752061 0.010150778479529334 0 0.010150778479529334 5.2355677773868736e-05 0 0 0 -0.00016666266039841362 -0.0014514223547775458 0.012100819317195546 0 0.012100819317195546 -0.0010225343674707607 0 0 0 -0.00061848918056207989 -0.0017812759207196834 0.0095371771216969901 0 0.0095371771216969901 -5.0088389927205323e-05 0 0 0 -0.0004578410776617213 -0.0096085102200991132 0.012758062019225924 0 0.012758062019225924 -0.00086945524898252718 0 0 0 -0.0026194913672704101 -0.021277627261951267 0.012566240552368969 0 0.012566240552368969 -0.00061508119532867334 0 0 0 -0.0054731771143199867 -0.01716221805280306 0.012466601944648988 0 0.012466601944648988 -0.00074942749822736777 0 0 0 -0.0044779113877576101 -0.011656124112195715 0.010333317996402136 0 0.010333317996402136 0.00044041446640277065 0 0 0 -0.0028039274114482378 -0.021384458967565946 0.01027828070011606 0 0.01027828070011606 0.00086964125995482242 0 0 0 -0.0051287044269027818 -0.023866463258809076 0.012685691010859139 0 0.012685691010859139 -0.00036570308989708478 0 0 0 -0.0060580415871765393 -0.017668442794900607 0.01027311753442562 0 0.01027311753442562 -4.4020599667796839e-05 0 0 0 -0.0044281158486421017 -0.012752828535450131 0.01309685245092404 0 0.01309685245092404 0.00078382910600958283 0 0 0 -0.0029922498573601384 -0.012757160105125401 0.010271919228658315 0 0.010271919228658315 0.0014248262466166964 0 0 0 -0.0028330834646271737 -0.0036481415130490101 0.0098380431458372393 0 0.0098380431458372393 0.00079345926043041665 0 0 0 -0.0007136705631546475 -0.01174095909567832 0.013069897489186307 0 0.013069897489186307 -0.00042960280452307431 0 0 0 -0.0030426404750503477 -0.0093784194655667195 0.009197296156666453 0 0.009197296156666453 0.0018311502326303908 0 0 0 -0.0018868173082340865 0.0043811941702698691 0.0092887660251070731 0 0.0092887660251070731 0.00042716281651923593 0 0 0 0.0012020892466972737 -0.002404077254843387 0.011493482008457402 0 0.011493482008457402 0.0005989735305479138 0 0 0 -0.00045127593107386829 -0.04687354667823225 0.0035288535355688204 0 0.0035288535355688204 -0.0019202605533496925 0 0 0 -0.012198451807895487 -0.037249176071448627 0.0087656372475121598 0 0.0087656372475121598 6.67554324720529e-05 0 0 0 -0.0092956051597441469 -0.055262902516861293 0.0046059839292782873 0 0.0046059839292782873 -0.00020538941387950732 0 0 0 -0.013867072982685186 -0.037763428038022899 0.0062529672942375734 0 0.0062529672942375734 0.0015331078641137989 0 0 0 -0.009057580043477273 -0.029528617875561325 0.0091410629405039093 0 0.0091410629405039093 0.0010785434924689315 0 0 0 -0.0071125185957731079 -0.030697398413742714 0.010348086425840577 0 0.010348086425840577 -0.00048883954229257676 0 0 0 -0.0077965594890088315 -0.031337632225905333 0.011503354223106454 0 0.011503354223106454 -0.00037369943837153863 0 0 0 -0.0079278329160692093 -0.036098884912241821 0.007960827927449364 0 0.007960827927449364 0.00088875370788354946 0 0 0 -0.0088025328010895732 -0.026000222601224206 0.0096776270118964017 0 0.0096776270118964017 2.4667552672857918e-05 0 0 0 -0.0064938887621378456 -0.037841743765862683 0.010877690442238493 0 0.010877690442238493 -0.00047530440171304755 0 0 0 -0.0095792620418939309 -0.030348928638603667 0.0087774712506747954 0 0.0087774712506747954 -0.00034967042672573445 0 0 0 -0.0076746497663323521 -0.036858376941114546 0.0081694376035694842 0 0.0081694376035694842 0.00092540176436963634 0 0 0 -0.0089832437941862291 -0.05140374030465622 0.0065570102405923874 0 0.0065570102405923874 -0.00056430640387757081 0 0 0 -0.012992011677133444 -0.048495361219488969 0.006535647475434633 0 0.006535647475434633 -0.00073060959286632993 0 0 0 -0.012306492703088831 -0.046919487477234956 0.0038873142510110637 0 0.0038873142510110637 0.00049588157516390272 0 0 0 -0.011605901475517754 -0.063293637322835244 0.0045052253426227243 0 0.0045052253426227243 -0.00049359735103377683 0 0 0 -0.015946808668467247 -0.067686080764669962 0.0039503525472970313 0 0.0039503525472970313 -0.00041296949289883742 0 0 0 -0.017024762564392198 -0.049656114434436273 0.00503254654549741 0 0.00503254654549741 0.0014069952101246203 0 0 0 -0.012062279806077922 -0.057405667509147038 0.0035152156199223664 0 0.0035152156199223664 0.00083804834463710887 0 0 0 -0.01414190479112749 -0.078273066286418336 0.0028049617478016725 0 0.0028049617478016725 0.0012786360104197481 0 0 0 -0.019248607568999633 -0.060012480958849923 0.0079537186674472835 0 0.0079537186674472835 0.0017909338666209362 0 0 0 -0.014555386773057264 -0.059696310547522488 0.002424331583637751 0 0.002424331583637751 -0.0006761946425989096 0 0 0 -0.015093126297530363 -0.063685337296970623 0.0030610723918536725 0 0.0030610723918536725 0.0024905237815959526 0 0 0 -0.015298703378843679 -0.087879329352889252 0.00029097589722859747 0 0.00029097589722859747 -0.00076846145465450655 0 0 0 -0.022161947701885943 -0.037230005282532085 0.0049209651571592468 0 0.0049209651571592468 0.0030738331539806596 0 0 0 -0.008539043032137858 -0.030607565779083804 0.0111309868752678 0 0.0111309868752678 0.0022711075446582678 0 0 0 -0.0070841145586063902 -0.045434081204683494 0.0074321879638360672 0 0.0074321879638360672 -0.00014998097399500365 0 0 0 -0.011396015544669628 -0.044874969524877233 0.0084767081451104665 0 0.0084767081451104665 0.0014270506639201402 0 0 0 -0.010861979715239271 -0.03021274391689293 0.011564709028602725 0 0.011564709028602725 0.0017751331671377116 0 0 0 -0.0071094026874388046 -0.05160632767903657 0.010592014753475144 0 0.010592014753475144 0.0022955985998812656 0 0 0 -0.012327682269788805 -0.043358983083877853 0.0073556056158596127 0 0.0073556056158596127 -0.00048017722329522262 0 0 0 -0.010959790076793275 -0.038536600799994124 0.010985085105311687 0 0.010985085105311687 0.0011697513005738895 0 0 0 -0.0093417123748550518 -0.027791199424704694 0.011991855349355599 0 0.011991855349355599 0.00071205240964911792 0 0 0 -0.0067697867537638949 -0.018699533307539665 0.011338357912208982 0 0.011338357912208982 0.00089721966071753048 0 0 0 -0.0044505784117055266 -0.018504468060927263 0.0098377722890307939 0 0.0098377722890307939 0.001427956932263762 0 0 0 -0.0042691277821658739 -0.017256636166790351 0.0093535695404771968 0 0.0093535695404771968 0.0030136905706197809 0 0 0 -0.0035607363990426471 -0.0090498246982547957 0.011316284682799532 0 0.011316284682799532 0.0011365005993229048 0 0 0 -0.0019783310247329729 -0.029936161618566576 0.0097466016984251932 0 0.0097466016984251932 0.0014848554499061646 0 0 0 -0.0071128265421650993 -0.00081059334772486114 0.008706472959065327 0 0.008706472959065327 0.0032102511626303301 0 0 0 0.00059991445372636377 -0.002982973567827972 0.011790623397101997 0 0.011790623397101997 0.00029746587365572438 0 0 0 -0.00067137692354305931 -0.0072444145088741679 0.0082258985380597935 0 0.0082258985380597935 0.0040452406569096502 0 0 0 -0.00079979346299113158 0.0048425245330834879 0.0051846274122455014 0 0.0051846274122455014 0.0056183155772986694 0 0 0 0.0026152100275955385 0.0019948163165343126 0.010133789196910015 0 0.010133789196910015 0.0023628737245802059 0 0 0 0.0010894225102786295 -0.0058263333980583289 0.0082109486607675475 0 0.0082109486607675475 0.0066205827727391815 0 0 0 0.00019856234367021143 0.0059279397980535938 0.0058796194800799853 0 0.0058796194800799853 0.006382143216982876 0 0 0 0.0030775207537591161 0.0057850309606263597 0.0049166104568487308 0 0.0049166104568487308 0.010896937900693418 0 0 0 0.0041704922153299427 -0.01810988294172548 0.011583891130039383 0 0.011583891130039383 0.0022514855447608451 0 0 0 -0.0039645993492411543 -0.025561838151513177 0.007232633207365842 0 0.007232633207365842 0.0025744727494543783 0 0 0 -0.0057468413505147144 -0.0065476232434821492 0.0086893556368701878 0 0.0086893556368701878 0.0028670001587791233 0 0 0 -0.00092015577117574943 -0.013429040907693514 0.0058867058458433059 0 0.0058867058458433059 0.005160676728340613 0 0 0 -0.00206709104483822 -0.017189342880142355 0.011119428020270897 0 0.011119428020270897 0.0054970252207009393 0 0 0 -0.0029230794148603599 -0.024585000985709128 0.010223396700935847 0 0.010223396700935847 0.0070881971245994879 0 0 0 -0.0043742009652774291 -0.016158733439566281 0.0065519289755188795 0 0.0065519289755188795 0.014377019012756009 0 0 0 -0.0004454286067025609 -0.023949594376405495 0.0019981719959175637 0 0.0019981719959175637 0.0072115174178897044 0 0 0 -0.0041845192396289385 0.019764466076650333 0.00092164186866967694 0 0.00092164186866967694 0.013102505710613943 0 0 0 0.0082167429468160691 -0.0089814845747240649 0.0086078836947940177 0 0.0086078836947940177 0.0098959071334890694 0 0 0 0.00022860563969125027 0.0017559677652855092 0.0037406081117254131 0 0.0037406081117254131 0.010719235258959806 0 0 0 0.0031188007560613261 0.0039764701635850164 0.0047376946871951556 0 0.0047376946871951556 0.017909541022030406 0 0 0 0.0054715027964038557 0.015408459210213506 -0.0022473891928409123 0 -0.0022473891928409123 0.019684894199790103 0 0 0 0.008773338352500902 0.00010099296976784529 0.001914113852836366 0 0.001914113852836366 0.027919427958436528 0 0 0 0.0070051052320510999 -0.0021388274050835598 -0.0056429908480653129 0 -0.0056429908480653129 0.027439369781103062 0 0 0 0.0063251355940049103 0.0056405534343913211 -0.010135831676068657 0 -0.010135831676068657 0.022184455626477084 0 0 0 0.0069562522652171221 0.015251129775678829 -0.0048081772379394566 0 -0.0048081772379394566 0.042701821920697103 0 0 0 0.014488237924094011 -0.022381307717440554 -0.0013483563379168007 0 -0.0013483563379168007 0.01722405156105361 0 0 0 -0.0012893140390967534 -0.0055308528974469251 -0.00032921375104068978 0 -0.00032921375104068978 0.012975728277880072 0 0 0 0.0018612188451083006 -0.0079624218664200164 -0.008946360188765129 0 -0.008946360188765129 0.016169132191923091 0 0 0 0.0020516775813757826 -0.025344596340931419 0.0011533800135595518 0 0.0011533800135595518 0.0087923113637250472 0 0 0 -0.004138071244301586 -0.030589709261954409 -0.0067969081280012389 0 -0.0067969081280012389 0.0096809422581184967 0 0 0 -0.0052271917509589816 -0.043211874313479823 -0.0018598868886694556 0 -0.0018598868886694556 0.0065288748408237895 0 0 0 -0.0091707498681639701 -0.048981723508224231 0.0040758224276217364 0 0.0040758224276217364 0.0039848391140659967 0 0 0 -0.011249221098539541 -0.059466705858024965 -0.0059370640764355859 0 -0.0059370640764355859 0.0053474042943369993 0 0 0 -0.013529825390922026 -0.066252751119143444 0.0014905735544327309 0 0.0014905735544327309 0.001508438569574666 0 0 0 -0.016186078137392181 -0.093541285904123903 -2.1698159913197906e-05 0 -2.1698159913197906e-05 0.0020600553347045469 0 0 0 -0.022870307642354884 -0.069166112928120804 0.0024410992132835596 0 0.0024410992132835596 0.0019337761337305803 0 0 0 -0.016808084198597577 -0.067839183013471582 -0.00056746187566564243 0 -0.00056746187566564243 0.0016227651807156143 0 0 0 -0.016554104458189008 -0.071248685395752756 -0.00016092079420328836 0 -0.00016092079420328836 -0.00061491509338285066 0 0 0 -0.017965900122283912 -0.059213353998239349 0.0072741503452801795 0 0.0072741503452801795 0.0019649815282150596 0 0 0 -0.014312093117506114 -0.092704764294804343 0.0032400534153730546 0 0.0032400534153730546 0.0004416371803946384 0 0 0 -0.02306578177860244 -0.067710688333432759 0.0066128574517030636 0 0.0066128574517030636 0.001844352444329728 0 0 0 -0.016466583972275694 -0.045615737523395081 0.0096000304459874404 0 0.0096000304459874404 0.0039022299585456666 0 0 0 -0.010428376891212347 -0.035481896278593515 0.0076290616902611255 0 0.0076290616902611255 0.0065753835631782928 0 0 0 -0.0072266281788537822 -0.049973649604927797 0.0018697163040727258 0 0.0018697163040727258 0.0033295702633738267 0 0 0 -0.011661019835388475 0.015869713347248696 -0.001763177520531704 0 -0.001763177520531704 0.0407956623505666 0 0 0 0.014166343924453827 0.014886749394339746 -0.0032531919646231464 0 -0.0032531919646231464 0.033261707259680952 0 0 0 0.01203711416350518 0.014630151707805033 -0.0048079955321174046 0 -0.0048079955321174046 0.02883261779263057 0 0 0 0.0108656923751089 0.012343891409507025 0.00042532186857274562 0 0.00042532186857274562 0.03455652867148442 0 0 0 0.011725105020247855 0.017229483473545894 0.0056179256388925146 0 0.0056179256388925146 0.037649131868091643 0 0 0 0.013719653835409372 0.019080514529529753 0.0044329753919707272 0 0.0044329753919707272 0.045786836183761427 0 0 0 0.016216837678322792 0.012077039005463253 -0.0018079837437697246 0 -0.0018079837437697246 0.044208621064616954 0 0 0 0.014071415017520045 0.01065308036445425 -0.0011571132236193535 0 -0.0011571132236193535 0.04305180534159718 0 0 0 0.013426221426512865 0.014712473704720347 -0.0019606536136736481 0 -0.0019606536136736481 0.042279090575098675 0 0 0 0.014247891069954775 0.0130368272244549 -0.0011239758547358716 0 -0.0011239758547358716 0.040728897381637583 0 0 0 0.013441431151523117 0.0043671342207573238 -0.0019814368770404156 0 -0.0019814368770404156 0.039405819909739112 0 0 0 0.010943238532624112 0.010460077286788487 -0.0036494614443550698 0 -0.0036494614443550698 0.042377596072791596 0 0 0 0.013209418339895022 0.0085999041391126886 -0.0045608271375041157 0 -0.0045608271375041157 0.040634065669614555 0 0 0 0.012308492452181807 0.009562835778986329 -0.0079975032821825269 0 -0.0079975032821825269 0.042570878235800663 0 0 0 0.013033428503696747 0.0069869900323910605 -0.0046754718551072693 0 -0.0046754718551072693 0.048603220833872918 0 0 0 0.013897552716565988 0.036216986267129575 -0.034271124783793752 0 -0.034271124783793752 0.076186870920856714 0 0 0 0.028100964296996583 0.0016775505465650639 -0.018414413701498544 0 -0.018414413701498544 0.046546993711303247 0 0 0 0.012056136064467066 0.03404157136506368 -0.021713743123413412 0 -0.021713743123413412 0.042009396446340774 0 0 0 0.019012741952851114 0.0034634342504343968 -0.0079491981898313843 0 -0.0079491981898313843 0.043157595391056985 0 0 0 0.011655257410372849 0.038629913368302821 -0.0067048955686450987 0 -0.0067048955686450987 0.064029371453352746 0 0 0 0.025664821205413885 0.032731087881347813 -0.012878098451268305 0 -0.012878098451268305 0.03407664847477973 0 0 0 0.016701934089031881 0.056741842680001674 -0.018430153608311906 0 -0.018430153608311906 0.044591050376061536 0 0 0 0.025333223264015825 0.024673716383909458 -0.012518772477693091 0 -0.012518772477693091 0.033259554582476591 0 0 0 0.01448331774159653 0.01781151806193948 -0.001025183173426418 0 -0.001025183173426418 0.031615235027477179 0 0 0 0.012356688272354172 0.03623585259963464 -0.0078121810399650674 0 -0.0078121810399650674 0.025319387743062263 0 0 0 0.015388810085674227 0.017217199225235867 -0.0019871887572717774 0 -0.0019871887572717774 0.020385820661248017 0 0 0 0.0094007549716209702 0.023479592948842141 -0.0028169876312016881 0 -0.0028169876312016881 0.014634163071763316 0 0 0 0.0095284390051513582 0.016530988641009083 -0.011719108086109771 0 -0.011719108086109771 0.037476064543149383 0 0 0 0.013501763296039635 0.013960305242067577 -0.01193164237652344 0 -0.01193164237652344 0.026861858471497996 0 0 0 0.010205540928391391 0.024800141736588746 -0.0099733205856176056 0 -0.0099733205856176056 0.030821864803268484 0 0 0 0.013905501634964304 0.016063502982246021 -0.0045195812803592887 0 -0.0045195812803592887 0.015826706165954871 0 0 0 0.0079725522870502212 0.019667008434561675 -0.0045975490568812959 0 -0.0045975490568812959 0.029570735024891305 0 0 0 0.012309435864863248 0.019018069507070856 -0.0030790733583051645 0 -0.0030790733583051645 0.018480142933258496 0 0 0 0.0093745531100823381 0.018968573069969429 0.0031283832835778472 0 0.0031283832835778472 0.016176774167159069 0 0 0 0.0087863368092821227 0.015741867404947062 0.0015095937744745323 0 0.0015095937744745323 0.0085100016884099676 0 0 0 0.0060629672733392582 0.014937297254570802 -8.8575600008605759e-05 0 -8.8575600008605759e-05 0.014490267926435027 0 0 0 0.0073568912952514543 0.018584800728403246 -0.00064755183834208554 0 -0.00064755183834208554 0.011158051203828949 0 0 0 0.0074357129830580505 0.015757970819959163 0.0038669636949161474 0 0.0038669636949161474 0.012431161944450857 0 0 0 0.007047283191102505 0.0089746005284697949 0.0071114037867954817 0 0.0071114037867954817 0.0073342004172359332 0 0 0 0.0040772002364264292 0.013844410354199567 0.0027197149592603498 0 0.0027197149592603498 0.0069143587877097254 0 0 0 0.0051896922854773233 0.012401020309935142 0.0078191636808760748 0 0.0078191636808760748 0.0057294208607026331 0 0 0 0.0045326102926594447 0.0094585436108879303 0.0061727429163367731 0 0.0061727429163367731 0.0032544720354580337 0 0 0 0.0031782539115864962 0.0055906826461878303 0.010097463383568445 0 0.010097463383568445 0.0022891512044693405 0 0 0 0.0019699584626642905 0.018637603556025315 0.0026409067185684575 0 0.0026409067185684575 0.010789799618597988 0 0 0 0.0073568507936558241 0.01736328999419539 0.0017391967210023751 0 0.0017391967210023751 0.0095393359763193616 0 0 0 0.0067256564926286878 0.016644545788218626 0.005588562254730145 0 0.005588562254730145 0.0084490056251431741 0 0 0 0.006273387853340447 0.014899208541803833 0.0047263989361711854 0 0.0047263989361711854 0.0067910104043110708 0 0 0 0.0054225547365287282 0.018641278265802495 0.0036753365296476152 0 0.0036753365296476152 0.012322013466209605 0 0 0 0.0077408229330030234 0.020703525332771769 0.0074523415339921685 0 0.0074523415339921685 0.0074979553663997583 0 0 0 0.0070503701747928783 0.025323732438255517 0.0078230390929532011 0 0.0078230390929532011 0.012264795514232037 0 0 0 0.0093971319881218929 0.025663519264319333 0.0072333701852572603 0 0.0072333701852572603 0.010369432844840445 0 0 0 0.0090082380272899307 0.02133196328441268 0.0036783101358422582 0 0.0036783101358422582 0.014060329425740391 0 0 0 0.0088480731775382772 0.021413148038600012 0.0037159002554162583 0 0.0037159002554162583 0.018834620173475584 0 0 0 0.010061942053018896 0.018273469789587552 0.0019003445160188717 0 0.0019003445160188717 0.016340591985196086 0 0 0 0.0086535154436958878 0.02184064100334725 0.002743954371264486 0 0.002743954371264486 0.026834358287664086 0 0 0 0.012168749822752832 0.024236289186275746 0.0059897941455365183 0 0.0059897941455365183 0.020163421382877668 0 0 0 0.011099927642288355 0.016231501341158482 0.0011326108087914228 0 0.0011326108087914228 0.02420248902362819 0 0 0 0.010108497591196666 0.019009678351093639 -0.00030900446086904441 0 -0.00030900446086904441 0.033220629292608168 0 0 0 0.013057576910925444 0.015933825029866618 -0.0024954256251655659 0 -0.0024954256251655659 0.022224196150815109 0 0 0 0.0095395052951704265 0.02576534403785162 0.0091470586127248843 0 0.0091470586127248843 0.041968783684488267 0 0 0 0.016933531930584979 0.019010864960814715 0.005428166439684072 0 0.005428166439684072 0.027977534683465172 0 0 0 0.011747099911069973 0.021671558046495037 0.0040429386950503604 0 0.0040429386950503604 0.036833463492516601 0 0 0 0.014626255384752908 0.024193407664376963 0.0063612275930148687 0 0.0063612275930148687 0.020759759390341991 0 0 0 0.011238291763679726 0.027095000259227228 0.0095816609508413593 0 0.0095816609508413593 0.026368438750111804 0 0 0 0.013365859752334754 0.027979739675961884 0.0092639395566846659 0 0.0092639395566846659 0.02881972774132497 0 0 0 0.014199866854321713 0.029421685420847853 0.0093840423350964181 0 0.0093840423350964181 0.013929319752122343 0 0 0 0.010837751293242541 0.029878701767270088 0.0097986764844552841 0 0.0097986764844552841 0.016930456879279542 0 0 0 0.011702289661637402 0.03518002092336095 0.011192083463348924 0 0.011192083463348924 0.011877962135324029 0 0 0 0.011764495764671239 0.033674652288292452 0.0099305029833412807 0 0.0099305029833412807 0.0065345390570047193 0 0 0 0.010052297836324295 0.029664759949550978 0.0078900859788189268 0 0.0078900859788189268 0.0024426097764782828 0 0 0 0.0080268424315073205 0.029342975622030379 0.0095364750229990636 0 0.0095364750229990636 0.008442443384791342 0 0 0 0.0094463547517054467 0.030030881366037286 0.0085246555522673351 0 0.0085246555522673351 0.0072023339689450822 0 0 0 0.0093083038337455817 0.021813688752908674 0.0058647691619404373 0 0.0058647691619404373 0.0076193027664646848 0 0 0 0.0073582478798433389 0.022497648705855973 0.0081019050157618289 0 0.0081019050157618289 0.0038050646736263669 0 0 0 0.0065756783448705849 0.026016921399565181 0.0084667279200940603 0 0.0084667279200940603 0.0046348085795743822 0 0 0 0.0076629324947849022 0.02673882180426496 0.0086258274585741864 0 0.0086258274585741864 0.0068817500367444398 0 0 0 0.0084051429602523542 0.027384703540165378 0.0074433137045301131 0 0.0074433137045301131 0.0014799691822426526 0 0 0 0.007216168180602011 0.027276430254773901 0.0087573865786556328 0 0.0087573865786556328 0.0012494070231937257 0 0 0 0.0071314593194919031 0.021828533511230257 0.0081306372329617328 0 0.0081306372329617328 0.0011366894069696279 0 0 0 0.0057413057295499729 0.031257019241801118 0.0079683836386889775 0 0.0079683836386889775 0.00056895546292250881 0 0 0 0.0079564936761809084 0.030805463394565566 0.0064556243939551134 0 0.0064556243939551134 -0.00024521179962505059 0 0 0 0.0076400628987351293 0.035267302956461445 0.0074202074302202152 0 0.0074202074302202152 0.00070005266069700714 0 0 0 0.008991838904289607 0.032730072252742638 0.0069914876041236862 0 0.0069914876041236862 0.00012823741860205212 0 0 0 0.0082145774178361795 0.030884352729287388 0.0085994023733080537 0 0.0085994023733080537 0.0026944786899651685 0 0 0 0.0083947078548131382 0.0054583513206156046 0.009526508660340504 0 0.009526508660340504 0.0036931673715336552 0 0 0 0.0022878796730373156 0.011852286064454596 0.0082837566255000369 0 0.0082837566255000369 0.0013208026348840649 0 0 0 0.0032932721748346657 0.0059105969668151806 0.01002646838187371 0 0.01002646838187371 0.0012585214080709853 0 0 0 0.001792279593721538 0.016099576478780041 0.007705882456792084 0 0.007705882456792084 0.00040787506114688121 0 0 0 0.0041268628849817322 0.013115120200953848 0.0088350845393605094 0 0.0088350845393605094 0.0045390899496196985 0 0 0 0.0044135525376433858 0.016603168055622241 0.0081903802609390834 0 0.0081903802609390834 0.0037050491640669148 0 0 0 0.0050770543049222898 0.018201244087263292 0.0060210058598518003 0 0.0060210058598518003 0.0037802866427450732 0 0 0 0.0054953826825020913 0.018870865022694867 0.0093271834926550948 0 0.0093271834926550948 0.005465483208030017 0 0 0 0.0060840870576812298 0.021199179741194618 0.0073600425602255142 0 0.0073600425602255142 0.001139553666150088 0 0 0 0.00558468335183618 0.017561252510860478 0.0077650137413555545 0 0.0077650137413555545 0.0016129443016483988 0 0 0 0.0047935492031272193 0.021656773982147572 0.0091970657261303632 0 0.0091970657261303632 0.00055729600599638274 0 0 0 0.0055535174970359862 0.014965029951387338 0.010004328940451817 0 0.010004328940451817 0.0022476401251064031 0 0 0 0.0043031675191234362 0.013646770373706582 0.0090688603353860971 0 0.0090688603353860971 0.00044630473239332114 0 0 0 0.0035232687765249793 0.0068632806086065291 0.0095938425903914024 0 0.0095938425903914024 0.00047549288356129454 0 0 0 0.0018346933730419551 0.0058622487336438267 0.011214248046231633 0 0.011214248046231633 4.2148923519308434e-06 0 0 0 0.0014666159064989324 0.005549737242432403 0.0098783509069861608 0 0.0098783509069861608 0.00031270762755791076 0 0 0 0.0014656112174975776 -0.000278365632790923 0.011698190033497029 0 0.011698190033497029 -0.00012801052981722266 0 0 0 -0.00010159404065203728 0.0038359349834263083 0.012384364021322671 0 0.012384364021322671 -0.00035487174060225973 0 0 0 0.00087026581070601475 -0.00096924417023824122 0.01101713010576264 0 0.01101713010576264 0.00066768456228689932 0 0 0 -7.5389901987833741e-05 0.0041654929943632166 0.0096636128763817018 0 0.0096636128763817018 -0.0004226625201123671 0 0 0 0.00093570761856271237 0.010516400936060079 0.011162787114361767 0 0.011162787114361767 0.00022450707599667649 0 0 0 0.0026852270030141854 0.0094602946151322257 0.0097531968234117125 0 0.0097531968234117125 0.00058840036619224947 0 0 0 0.0025121737453311192 0.011549929371476867 0.011454556448042425 0 0.011454556448042425 0.00030500165103173466 0 0 0 0.0029637327556271513 0.015141876602576744 0.0085434825526104208 0 0.0085434825526104208 0.00035508956520993555 0 0 0 0.003874241541946669 0.016123739920910748 0.0095079726792427766 0 0.0095079726792427766 0.00098717019743686796 0 0 0 0.0042777275295869076 0.021111881791900485 0.0096148768689588941 0 0.0096148768689588941 0.00024139501703530214 0 0 0 0.0053383192022339451 0.01631196414468522 0.0087787846590441018 0 0.0087787846590441018 0.0028509889607163351 0 0 0 0.0047907382763503889 0.013979279213606371 0.011732614176131965 0 0.011732614176131965 0.0015206234412178249 0 0 0 0.0038749756637060494 0.012095481916894 0.010293829275884863 0 0.010293829275884863 0.0040318982855053294 0 0 0 0.0040318450505998317 0.0070112512612760716 0.013236646929924798 0 0.013236646929924798 0.00038084673775367131 0 0 0 0.0018480244997574353 0.0039768199934477402 0.011082152516969849 0 0.011082152516969849 0.001324059626473571 0 0 0 0.0013252199049803277 -0.00050673591669928367 0.013976136885653549 0 0.013976136885653549 -0.0010774210344661334 0 0 0 -0.00039603923779135165 0.030124360539932504 0.0060294259767525622 0 0.0060294259767525622 0.0016880815509661782 0 0 0 0.007953110522724665 0.031231499228800148 0.0066324383425166332 0 0.0066324383425166332 -0.00020278479262190313 0 0 0 0.0077571786090445613 0.026456319740854328 0.0075704103142697175 0 0.0075704103142697175 0.0002755152837802255 0 0 0 0.0066829587561586367 0.026652906890907248 0.0080784740835503528 0 0.0080784740835503528 0.00026668618858793555 0 0 0 0.0067298982698738002 0.021781609356815772 0.0081670724118598267 0 0.0081670724118598267 0.0017133881016152541 0 0 0 0.0058737493646077573 0.024959941737795015 0.0077503424926518979 0 0.0077503424926518979 0.0024385523417472139 0 0 0 0.0068496235198855608 0.019420331897155224 0.0088794002803465229 0 0.0088794002803465229 0.0064695842318539566 0 0 0 0.0064724790322522952 0.019552865006942637 0.0099849752197703374 0 0.0099849752197703374 0.0035944500687658115 0 0 0 0.0057868287689271129 0.023864832791762634 0.0077368265508325441 0 0.0077368265508325441 0.0079537259164787436 0 0 0 0.007954639677060343 0.024078924947406887 0.0076099468212079014 0 0.0076099468212079014 0.0037782323057573026 0 0 0 0.0069642893132910487 0.029608217067463548 0.0053328781697831642 0 0.0053328781697831642 0.0045565206183239785 0 0 0 0.0085411844214468846 0.027101605043908385 0.0067463608774309177 0 0.0067463608774309177 0.0011022070249500269 0 0 0 0.0070509530172146008 0.026116295224906334 0.0064003845624016958 0 0.0064003845624016958 0.0042793849049511772 0 0 0 0.0075989200324643787 0.02669651250290405 0.0060990056498957173 0 0.0060990056498957173 0.0088977138563364443 0 0 0 0.0088985565898101228 0.028428423465501205 0.0038182182787624913 0 0.0038182182787624913 0.0029347767427744696 0 0 0 0.0078408000520689171 0.03093450441151336 0.0018656912989683941 0 0.0018656912989683941 0.010304448979094247 0 0 0 0.010309738347651903 0.027990487001725795 0.0008075882291887302 0 0.0008075882291887302 0.0017680339189338253 0 0 0 0.0074396302301649054 0.033386347591680569 0.00061326826258992369 0 0.00061326826258992369 0.0030848424688706393 0 0 0 0.0091177975151378043 0.032956749230561792 0.0027280269541438249 0 0.0027280269541438249 0.0015940054625949583 0 0 0 0.0086376886732891858 0.033775486330691135 0.0040496493956346542 0 0.0040496493956346542 0.00036438351806987804 0 0 0 0.0085349674621902523 0.031967715211519476 0.0020777127448585106 0 0.0020777127448585106 -0.0011636415229313041 0 0 0 0.0077010184221470469 0.036639599072703831 0.0021950400153411022 0 0.0021950400153411022 0.00025884498403454888 0 0 0 0.0092246110141845951 0.03377263385075048 0.0036911434405326763 0 0.0036911434405326763 -0.0027674300255016463 0 0 0 0.0077513009563122074 0.034812122530406837 0.00058221432901945855 0 0.00058221432901945855 -0.0045809574690642285 0 0 0 0.0075577912653356548 0.032088087770818258 -0.0038456427699411835 0 -0.0038456427699411835 -0.0049519317671529797 0 0 0 0.0067840390009163178 0.034120984805168793 -0.0012408820597960345 0 -0.0012408820597960345 -0.00087993575941737717 0 0 0 0.0083102622614378563 0.032074393386244245 -0.00076625554385724155 0 -0.00076625554385724155 0.00019501457881748621 0 0 0 0.008067351991265433 0.03059940513639586 -0.0010399515290920739 0 -0.0010399515290920739 0.010201762178274256 0 0 0 0.010200291828667529 0.030157531298697124 -0.0037665400885649987 0 -0.0037665400885649987 0.010043713339973849 0 0 0 0.010050311159667742 0.027614265599426712 -0.0032136123345307415 0 -0.0032136123345307415 0.0021201210274748115 0 0 0 0.0074335966567253831 0.025022141660679634 -0.007777725742256005 0 -0.007777725742256005 0.0083384588217765756 0 0 0 0.0083401501206140545 0.030573565217524336 -0.0048078241361799905 0 -0.0048078241361799905 0.0016733539112660685 0 0 0 0.0080617297821976019 0.023640417247626451 -0.0076687400798561194 0 -0.0076687400798561194 -0.0010660539516528962 0 0 0 0.0056435908239933887 0.015083930485514719 -0.011470097156123809 0 -0.011470097156123809 0.0050228285489660966 0 0 0 0.005026689758620204 0.016218514462223256 -0.012795059492306251 0 -0.012795059492306251 -0.0034550502466382006 0 0 0 0.0031908660538962647 0.0070042180374576008 -0.016410381211177254 0 -0.016410381211177254 -0.0042157923818472373 0 0 0 0.00069710641390259044 0.016170159745854101 -0.01315794504145152 0 -0.01315794504145152 -0.0076450532848545 0 0 0 0.0021312766152499045 0.019912194400263507 -0.01052507982577601 0 -0.01052507982577601 -0.0052503316199852684 0 0 0 0.0036654656950695537 0.024523591243499152 -0.0084430822832669509 0 -0.0084430822832669509 -0.0013801913542163665 0 0 0 0.0057858499723206962 0.012982745080635339 -0.012694281672402372 0 -0.012694281672402372 -0.0052345618807813771 0 0 0 0.0019370457999634931 0.023863951840027459 -0.0085465109994040667 0 -0.0085465109994040667 -0.0055957365321339918 0 0 0 0.0045670538269733645 0.031864223117928255 -0.005107315282356294 0 -0.005107315282356294 -0.0069880617166385439 0 0 0 0.0062190403503224276 0.033440241229403443 -0.0027874257526200076 0 -0.0027874257526200076 -0.00346831001442479 0 0 0 0.007492982803744659 0.035160999384361478 -0.0040410294423547785 0 -0.0040410294423547785 -0.0051558250351308628 0 0 0 0.0075012935873076565 0.034137028798481475 -0.0034837110215847934 0 -0.0034837110215847934 -0.0081800419560774454 0 0 0 0.0064892467106010092 0.042393740399334578 -0.00025110092527333427 0 -0.00025110092527333427 -0.0066924155719901186 0 0 0 0.0089253312068361089 0.02786691738746544 -0.0093372582116873024 0 -0.0093372582116873024 -0.0099199728381024564 0 0 0 0.0044867361373407402 0.021580660340123639 -0.012928182680604274 0 -0.012928182680604274 -0.0085461143375641924 0 0 0 0.0032586365006398652 0.028036099071582922 -0.0089722043403916603 0 -0.0089722043403916603 -0.0073996256578122283 0 0 0 0.0051591183534426786 0.030400880439022414 -0.0066698418163986667 0 -0.0066698418163986667 -0.0073742276616729982 0 0 0 0.0057566631943373591 0.016606654167975334 -0.013437052992985456 0 -0.013437052992985456 -0.010284793066371666 0 0 0 0.001580465275400917 0.028402496064357512 -0.013526778251497805 0 -0.013526778251497805 -0.010874927896693816 0 0 0 0.0043818920419159257 0.034749179418821038 -0.010795257778540282 0 -0.010795257778540282 -0.0077078433155790133 0 0 0 0.0067603340258105089 0.031911740642192141 -0.0089636228287322088 0 -0.0089636228287322088 -0.011036170906402241 0 0 0 0.0052188924339474779 0.046779015386655708 -0.0041885884151012867 0 -0.0041885884151012867 -0.0063850467920224599 0 0 0 0.010098492148658305 0.034632285841615984 -0.013661313112378625 0 -0.013661313112378625 -0.0063336019040099237 0 0 0 0.0070746709844015151 0.033114736322317831 -0.012792726063568634 0 -0.012792726063568634 -0.0094548326207333361 0 0 0 0.005914975925396128 0.039420672052790477 -0.00056414298604742384 0 -0.00056414298604742384 -0.0064372402744308759 0 0 0 0.0082458579445898947 0.040893398490250733 -0.0062778687158235157 0 -0.0062778687158235157 -0.0081152092805345105 0 0 0 0.0081945473024290505 0.046106042802647157 0.00092587153746353807 0 0.00092587153746353807 -0.0077790691845116599 0 0 0 0.0095817434045338719 0.053510503800625636 0.0046033375877772512 0 0.0046033375877772512 -0.0015761900729881484 0 0 0 0.012983578431909382 0.045260504223868125 0.0062947906349921498 0 0.0062947906349921498 -0.00053784209598299647 0 0 0 0.011180665531971293 0.047709179413192609 0.0061038874564741004 0 0.0061038874564741004 8.7972946686913286e-05 0 0 0 0.011949288089969878 0.042887867628409453 0.0043265997142738878 0 0.0043265997142738878 -0.0044276667717278676 0 0 0 0.0096150502141704088 0.042926775400935695 0.008040489192165351 0 0.008040489192165351 0.00095325982953371139 0 0 0 0.010970008807617348 0.044864820150036948 0.010466731843520956 0 0.010466731843520956 0.00583426832011677 0 0 0 0.012674772117538436 0.040588201103717234 0.0078807780145937912 0 0.0078807780145937912 0.00091472091100874842 0 0 0 0.010375730503681499 0.039829700311343398 0.010955094491132428 0 0.010955094491132428 0.0075136114913284813 0 0 0 0.011835827950667965 0.03529800078369888 0.0081800936121190788 0 0.0081800936121190788 0.0022760099104116305 0 0 0 0.0093935026735276206 0.034593186108401786 0.0082765250881703129 0 0.0082765250881703129 0.0020242323662565736 0 0 0 0.0091543546186645883 0.037755970426918951 0.0055309751148247665 0 0.0055309751148247665 -0.0026999375924233347 0 0 0 0.0087640082086239031 0.039532816071201959 0.0067562667441879451 0 0.0067562667441879451 -4.7532155000924725e-05 0 0 0 0.0098713209790502621 0.034118506214938928 0.0051734277191187918 0 0.0051734277191187918 -0.002810177806819707 0 0 0 0.0078270821020298073 0.038657179173797171 0.0041045107974949299 0 0.0041045107974949299 -0.0010721169635048646 0 0 0 0.009396265552573068 0.035859245605610615 0.0024075375462518939 0 0.0024075375462518939 -0.0047114843140264595 0 0 0 0.0077869403228960389 0.03830139577462225 0.001358944824687896 0 0.001358944824687896 -0.0030599471601759883 0 0 0 0.00881036215361157 0.037428849503934596 -0.0019137564844131276 0 -0.0019137564844131276 -0.0051695880106430846 0 0 0 0.0080648153733228773 0.039133389960671415 0.0031967928412072267 0 0.0031967928412072267 -0.0042149434610848375 0 0 0 0.0087296116248966483 0.041997074850653217 0.0040392297821235041 0 0.0040392297821235041 -0.0033843113038099131 0 0 0 0.0096531908867108253 -0.068006377313848482 -0.0053131986001127614 0 -0.0053131986001127614 -0.002873148186045997 0 0 0 -0.017719881374973621 -0.04709900557081742 -0.013781203172431785 0 -0.013781203172431785 -0.0013098083154621677 0 0 0 -0.012102203471569902 -0.05167359045170105 -0.0064691181981576772 0 -0.0064691181981576772 -0.00049083351534310888 0 0 0 -0.013041105991761037 -0.046421590908139493 -0.0088151944460932684 0 -0.0088151944460932684 0.0036922992656966691 0 0 0 -0.010682322910610702 -0.040426766234603832 -0.0060748992624243339 0 -0.0060748992624243339 0.0032845478320125895 0 0 0 -0.009285554600647809 -0.038754239884739236 -0.0043973696287030739 0 -0.0043973696287030739 -0.004856826298981768 0 0 0 -0.01090276654593025 -0.037536031455185748 -0.0057854049169616395 0 -0.0057854049169616395 -0.012487924461598191 0 0 0 -0.012505988979195984 -0.039462409087329113 -0.0071944159401673953 0 -0.0071944159401673953 -0.0046990149324409713 0 0 0 -0.011040356004942522 -0.038572089282909595 -0.01220160199977151 0 -0.01220160199977151 -0.0034349102350855094 0 0 0 -0.010501749879498775 -0.035794782771861947 -0.013006724351024342 0 -0.013006724351024342 -0.0022204278714760481 0 0 0 -0.0095038026608344969 -0.030705969680937487 -0.013027721975293144 0 -0.013027721975293144 -0.0102393750538852 0 0 0 -0.010236336183705671 -0.030699995596721003 -0.013032472230997457 0 -0.013032472230997457 -0.010220188965227247 0 0 0 -0.010230046140487063 -0.034378985094641122 -0.01536683004113933 0 -0.01536683004113933 -0.0043215145247859424 0 0 0 -0.0096751249048567661 -0.023926258161406366 -0.015893702123181447 0 -0.015893702123181447 -0.0013901135267785636 0 0 0 -0.0063290929220462273 -0.038956024053631598 -0.014233538275328233 0 -0.014233538275328233 0.00055209268594601235 0 0 0 -0.0096009828419213964 -0.056368957886377927 -0.014378666853643656 0 -0.014378666853643656 -0.0025065831930610877 0 0 0 -0.014718885269859747 -0.022850610543048835 -0.018928542513597976 0 -0.018928542513597976 -0.0013447969279538619 0 0 0 -0.0060488518677506743 -0.041687660589825176 -0.017472283108557973 0 -0.017472283108557973 -0.00422315721197105 0 0 0 -0.011477704450449062 -0.020481844926702221 -0.016527610154906516 0 -0.016527610154906516 -0.0039059446945002296 0 0 0 -0.0060969474053006109 -0.016300562057826755 -0.016673991783437436 0 -0.016673991783437436 -0.0059107253809755067 0 0 0 -0.0055528218597005637 -0.02008700090756739 -0.019687368181040096 0 -0.019687368181040096 -0.0041994556793156779 0 0 0 -0.00607161414672076 -0.018297369883241571 -0.017919436761192873 0 -0.017919436761192873 -0.0024580529718759639 0 0 0 -0.005188855713779382 -0.019307903408068827 -0.016942819609381418 0 -0.016942819609381418 -0.0049179543553835095 0 0 0 -0.0060564644408630823 -0.0083822632386693682 -0.014933098605379856 0 -0.014933098605379856 -0.0028012829821521703 0 0 0 -0.0027958865552053852 -0.0076230170069629625 -0.01763312089120992 0 -0.01763312089120992 -0.0046938203802788184 0 0 0 -0.0030792093468104461 -0.0038490208784929172 -0.014309082632631163 0 -0.014309082632631163 -0.0022864233797265723 0 0 0 -0.0015338610645548711 -0.0045061933027842963 -0.018511777952512191 0 -0.018511777952512191 -0.0039658632819653747 0 0 0 -0.0021180141461874177 0.0037060369416356078 -0.013992686555881559 0 -0.013992686555881559 0.0012366043467798124 0 0 0 0.0012356603221038551 0.011001345096223152 -0.011896708723127989 0 -0.011896708723127989 -0.0015186977783689173 0 0 0 0.0023706618294635599 0.0043099165125852282 -0.017714145872767782 0 -0.017714145872767782 -0.0061462197439880323 0 0 0 -0.00045907580785069929 0.000184801280182674 -0.017803950652972071 0 -0.017803950652972071 -0.0060229423496380025 0 0 0 -0.0014595352673638304 0.00076002721329742045 -0.01477757400022077 0 -0.01477757400022077 -0.0057965218183590426 0 0 0 -0.0012591236512654045 0.011044481257413105 -0.017450138503358595 0 -0.017450138503358595 -0.010477039581867006 0 0 0 0.00014186041888653023 0.01782908723423593 -0.014581943720763241 0 -0.014581943720763241 -0.0073529218044211808 0 0 0 0.0026190413574536872 0.0013807937901605025 -0.020781771192225948 0 -0.020781771192225948 -0.011029973519115173 0 0 0 -0.0024122949322386658 0.016836520351310398 -0.018169579867665601 0 -0.018169579867665601 -0.012111782528208312 0 0 0 0.0011811844557755233 0.0020897795033306167 -0.019534369806111816 0 -0.019534369806111816 -0.0054039082601683476 0 0 0 -0.00082853218920942925 -0.0041874246594257661 -0.023956274398301496 0 -0.023956274398301496 -0.0093402330268418793 0 0 0 -0.0033819144215669131 0.015617645974459936 -0.016499326657547487 0 -0.016499326657547487 -0.0054214815157813401 0 0 0 0.0025490411146696541 -0.0029261668767732972 -0.021524912330881878 0 -0.021524912330881878 -0.004835383531940636 0 0 0 -0.001940387602178479 6.594483923741401e-05 -0.026045191019753857 0 -0.026045191019753857 -0.0042804833154353322 0 0 0 -0.001053634619049483 -0.025670908724248084 -0.022770401543450929 0 -0.022770401543450929 -0.0097403492960132509 0 0 0 -0.0088528145050653321 -0.022523972187287959 -0.023268518034762972 0 -0.023268518034762972 -0.006481193397067514 0 0 0 -0.00725129139608887 -0.024130092674416782 -0.018969754793069241 0 -0.018969754793069241 -0.0025251657206737943 0 0 0 -0.0066638145987726397 -0.0021307323343415611 -0.01850473167101311 0 -0.01850473167101311 -0.003965473549506552 0 0 0 -0.0015240514709620283 -0.01474018276145039 -0.02039599100712073 0 -0.02039599100712073 -0.0074740514511618672 0 0 0 -0.0055535585531530617 -0.038283540030770481 -0.019368088008065356 0 -0.019368088008065356 -0.0044603813866861408 0 0 0 -0.010685980354364159 -0.035509523422213481 -0.01739791888923771 0 -0.01739791888923771 0.0012521828725257089 0 0 0 -0.0085643351374219343 -0.050743474194468584 -0.016412919557396322 0 -0.016412919557396322 -0.00064313854382352931 0 0 0 -0.01284665318457303 -0.038495742076197353 -0.023761109818815816 0 -0.023761109818815816 -0.0011454653791077157 0 0 0 -0.0099103018638262569 -0.04930005696887698 -0.019007005315636264 0 -0.019007005315636264 -0.0051430959760889253 0 0 0 -0.013610788236241473 -0.02689475403794879 -0.027337409337311123 0 -0.027337409337311123 -0.0023698277293940015 0 0 0 -0.007316145441835703 -0.048586752868368069 -0.021040328585907958 0 -0.021040328585907958 0.0017050970808306296 0 0 0 -0.011720413946884355 -0.076243772212395283 -0.01501311777441372 0 -0.01501311777441372 -0.0048227125489036654 0 0 0 -0.020266621190324755 -0.083386491821454939 -0.018117735342966297 0 -0.018117735342966297 -0.0032738373981693117 0 0 0 -0.021665082304906068 -0.10009200658273139 -0.0095066423455463026 0 -0.0095066423455463026 -0.00096391495555885054 0 0 0 -0.025263980384572556 -0.071795429648491518 -0.0075820245088387157 0 -0.0075820245088387157 8.6156418009901425e-05 0 0 0 -0.017927318307620413 -0.082743097744431643 -0.0085897223391676637 0 -0.0085897223391676637 -0.00072399936843685342 0 0 0 -0.020866774278217134 -0.051417039611624381 -0.017029876677980095 0 -0.017029876677980095 -0.00064658674835376545 0 0 0 -0.01301590658999453 -0.070497029166279146 -0.0070140367615682195 0 -0.0070140367615682195 -0.0041448438311409317 0 0 0 -0.018660468249355008 -0.051736555917948998 -0.011116919264521859 0 -0.011116919264521859 0.0027218855504004824 0 0 0 -0.012253667591887129 -0.11125890561497621 -0.0091994265659519486 0 -0.0091994265659519486 0.0048980955649906566 0 0 0 -0.0265902025124964 -0.16257422659044019 -0.0025647076030145891 0 -0.0025647076030145891 -0.00083600942067577066 0 0 0 -0.040852559002778982 -0.10298066188452473 -0.020892861240444011 0 -0.020892861240444011 0.0044201841552624407 0 0 0 -0.024640119432315609 -0.10507527812613097 -0.0075370300933683756 0 -0.0075370300933683756 0.00037689145217348341 0 0 0 -0.026174596668489369 -0.13775901928121437 -0.0077631835195594266 0 -0.0077631835195594266 0.0014825264368332203 0 0 0 -0.034069123211095238 -0.11644817907788857 -0.0091833671891983545 0 -0.0091833671891983545 -0.00056654687810423366 0 0 0 -0.029253681488998214 -0.079018140978680568 -0.0095959749775056287 0 -0.0095959749775056287 0.001345673913416614 0 0 0 -0.019418116766315986 -0.092871886132166709 -0.0084473842570528604 0 -0.0084473842570528604 0.001114825771138854 0 0 0 -0.022939265090256955 -0.089083497451073565 -0.022121925094682051 0 -0.022121925094682051 0.0015038098881002548 0 0 0 -0.021894921890743328 -0.053128299289069134 -0.023317958920546725 0 -0.023317958920546725 0.0012659106228487121 0 0 0 -0.012965597166555107 -0.053411339374689844 -0.021871692857200642 0 -0.021871692857200642 -0.0011531107573728994 0 0 0 -0.013641112533015689 -0.036167178436607536 -0.022062398020476225 0 -0.022062398020476225 -0.0068328343131211847 0 0 0 -0.010750003187432182 -0.053305088811404687 -0.031126977967960906 0 -0.031126977967960906 0.0052473048021415558 0 0 0 -0.012014446002315791 -0.071129021101044076 -0.015957719253993113 0 -0.015957719253993113 0.00088963097226513362 0 0 0 -0.01755984753219475 -0.060596361866342638 -0.014107126753453061 0 -0.014107126753453061 0.0041342123114982612 0 0 0 -0.014115537388711087 -0.012430314936357621 -0.025837570024856156 0 -0.025837570024856156 0.0058418345995630977 0 0 0 -0.0016471200841986292 -0.0082983980818863295 -0.023134796871839329 0 -0.023134796871839329 0.017150252336523314 0 0 0 0.0022129635636592496 0.012207467094192067 -0.029360120749206277 0 -0.029360120749206277 0.0020533120376522579 0 0 0 0.0035651947829610821 -0.044535651939314871 -0.023115075283031493 0 -0.023115075283031493 0.0053892865299965302 0 0 0 -0.0097865913523295951 -0.017041050259307921 -0.02842427690386802 0 -0.02842427690386802 0.0019246250024651853 0 0 0 -0.0037791063142106921 -0.040362615375493072 -0.030291460229084455 0 -0.030291460229084455 -0.0020241589478687868 0 0 0 -0.010596693580840475 -0.018459603879525131 -0.030992320308687583 0 -0.030992320308687583 -0.0052994512856598779 0 0 0 -0.0059397637912962462 -0.014219185363749904 -0.02390573812334507 0 -0.02390573812334507 -0.0026326472701708875 0 0 0 -0.0042129581584801935 0.0064958881299564813 -0.028544521442792035 0 -0.028544521442792035 -0.0021925294033496544 0 0 0 0.0010758396816517059 -0.017044584456802913 -0.024703622704647092 0 -0.024703622704647092 -0.00034456603268876763 0 0 0 -0.0043472876223729215 0.0072675189479087582 -0.021430921516357785 0 -0.021430921516357785 -0.0034880617347492491 0 0 0 0.00094486430328987858 0.03006854995961028 -0.025443170459521335 0 -0.025443170459521335 -0.003274665479222269 0 0 0 0.0066984711200970062 0.020395906316129354 -0.02398310039150894 0 -0.02398310039150894 -0.0057469032102167687 0 0 0 0.0036622507764781445 0.040388246608812073 -0.019041828124889273 0 -0.019041828124889273 -0.0054389332374129296 0 0 0 0.0087373283428497789 0.020509285662484965 -0.01674294452123368 0 -0.01674294452123368 -0.007261492244169325 0 0 0 0.0033119483545789117 0.031378500665098757 -0.015583794575655185 0 -0.015583794575655185 0.00010639239913708999 0 0 0 0.0078712232660589562 0.053104232922564595 -0.020748757880574294 0 -0.020748757880574294 0.0022140735043990889 0 0 0 0.013829576606740911 0.013941274224774449 -0.021777796435949414 0 -0.021777796435949414 0.005896204500642141 0 0 0 0.0049593696813541466 0.042481781093411421 -0.025864073428890889 0 -0.025864073428890889 0.007945598012947197 0 0 0 0.01260684477658966 0.040978569201859202 -0.014495205780866834 0 -0.014495205780866834 0.01346542108765604 0 0 0 0.013610997572378811 0.062053894880782612 -0.0093040754357687841 0 -0.0093040754357687841 0.032887733271856026 0 0 0 0.02373540703815967 0.071659119815394606 -0.021387853664563177 0 -0.021387853664563177 0.02294222665962381 0 0 0 0.023650336618754618 0.02386694185703004 -0.018499365579811189 0 -0.018499365579811189 0.021243063606043971 0 0 0 0.011277501365768501 0.011274659786301003 -0.031292344921701368 0 -0.031292344921701368 0.022929076680320987 0 0 0 0.0085509341166554939 0.045245706473508826 -0.030989981684316957 0 -0.030989981684316957 0.053808232683759172 0 0 0 0.024763484789317003 0.062839486657781912 -0.019442961046551951 0 -0.019442961046551951 0.10428691185495498 0 0 0 0.041781599628184229 0.067645663765486946 0.013154236800721142 0 0.013154236800721142 0.086739185570002569 0 0 0 0.038596212333872372 0.051218813568293942 0.0078116424838798326 0 0.0078116424838798326 0.11495783551865235 0 0 0 0.041544162271736629 0.038190059615251293 0.0037807417912854996 0 0.0037807417912854996 0.07069912321316274 0 0 0 0.027222295707103439 0.020563272574735097 -0.018504968901817465 0 -0.018504968901817465 0.052906667587410298 0 0 0 0.018367485040536338 0.037910283406677805 -0.0057171535465919202 0 -0.0057171535465919202 0.052625394306386186 0 0 0 0.022633919428265967 0.0020625508029558648 0.014945280272147546 0 0.014945280272147546 0.061048108140727253 0 0 0 0.015777664735920793 -0.01655835891651769 0.00090824432504979513 0 0.00090824432504979513 0.035690189713488252 0 0 0 0.0047829576992426404 -0.040469723265995017 0.0082605559149035342 0 0.0082605559149035342 0.045221075482803408 0 0 0 0.0011878380542020839 -0.019030129428693143 -0.01677774508332848 0 -0.01677774508332848 0.017427245149809645 0 0 0 -0.0004007210697208885 -0.045565741894169842 -0.0088909371728702474 0 -0.0088909371728702474 0.018298008382621189 0 0 0 -0.006816933377887191 -0.0083740451287627332 -0.013536532832870207 0 -0.013536532832870207 0.050252485291426285 0 0 0 0.010469610040665864 -0.041493402339054394 -0.027803924790747149 0 -0.027803924790747149 0.021763753599236831 0 0 0 -0.0049324121849543944 -0.075354946775470638 -0.022900988177949867 0 -0.022900988177949867 0.0095267494268304609 0 0 0 -0.016457049337160093 -0.08439941774021828 -0.0067141707942432183 0 -0.0067141707942432183 0.0076595179947591685 0 0 0 -0.019184974936364785 -0.057232735354789732 -0.021084655719187995 0 -0.021084655719187995 0.019522580274092927 0 0 0 -0.0094275387701741875 -0.079190010329511673 0.0042383434772390038 0 0.0042383434772390038 0.017975014086315216 0 0 0 -0.015303749060799066 -0.052856094423122654 -0.00019431539402872677 0 -0.00019431539402872677 0.010153672075526532 0 0 0 -0.010675605586899048 -0.10411534148964541 0.014849930965949873 0 0.014849930965949873 0.0077589877774323357 0 0 0 -0.02408908842805324 -0.083327135914972622 0.0023964917067916813 0 0.0023964917067916813 0.026661030889983672 0 0 0 -0.014166526256247286 -0.085958832448560785 -0.00674273630871014 0 -0.00674273630871014 0.0099311503357601971 0 0 0 -0.019006920528200133 -0.12103203401603593 0.0025067091759796434 0 0.0025067091759796434 0.0074584762954839068 0 0 0 -0.028393389430137972 -0.11859316310324178 -0.0021003927402196698 0 -0.0021003927402196698 0.0046605303511916274 0 0 0 -0.028483158188012503 -0.17617346532129602 0.0005187382302377807 0 0.0005187382302377807 0.0049419340652683275 0 0 0 -0.042807882814006909 -0.12664155688837186 -0.0050194683503783366 0 -0.0050194683503783366 0.0027487576199290431 0 0 0 -0.030973199817110678 -0.17642953314018589 -0.0071866354225919452 0 -0.0071866354225919452 0.0032454267794637115 0 0 0 -0.043296026590180503 -0.13097230739488339 -0.0007201426147358525 0 -0.0007201426147358525 -0.0013533079463078843 0 0 0 -0.033081403835297771 -0.10196237477040182 -0.017051655021462581 0 -0.017051655021462581 0.006438062063526144 0 0 0 -0.023881078176718938 -0.12040272554955606 -0.015812378495006635 0 -0.015812378495006635 0.0046945249496204711 0 0 0 -0.028927050149983903 0.052945729556505686 0.019371712492872509 0 0.019371712492872509 0.022638248780833391 0 0 0 0.01889599458433476 0.054780052658879627 0.020263994698445548 0 0.020263994698445548 0.027012870238291173 0 0 0 0.0204482307242927 0.058342439839692978 0.022250022599267207 0 0.022250022599267207 0.028063779705186587 0 0 0 0.021601554886219895 0.044459947205174245 0.019227310773432989 0 0.019227310773432989 0.035495007826411518 0 0 0 0.019988738757896446 0.033348097197989965 0.015208019584212709 0 0.015208019584212709 0.041183002734669752 0 0 0 0.018632774983164933 0.039083190524542052 0.016215619199551858 0 0.016215619199551858 0.024265693567392575 0 0 0 0.015837221022983669 0.027588658735098411 0.011446328716469013 0 0.011446328716469013 0.028847748596666022 0 0 0 0.014109101832941107 0.044826055214894765 0.017366589793895909 0 0.017366589793895909 0.026221724706554358 0 0 0 0.017761944980362272 0.035503937044082418 0.012125074091282264 0 0.012125074091282264 0.014340168779349398 0 0 0 0.01246102645585795 0.035581044213993329 0.013560682196388309 0 0.013560682196388309 0.023244657370638251 0 0 0 0.014706425396157897 0.035103703841442846 0.0097779578188589497 0 0.0097779578188589497 0.00683351146568692 0 0 0 0.010484303826782428 0.041672584158040149 0.013932044462956365 0 0.013932044462956365 0.0156188059016284 0 0 0 0.014322847514917128 0.043714584254756342 0.011420359914117068 0 0.011420359914117068 0.0047904927565553292 0 0 0 0.012126269252827906 0.043920243046359393 0.013960799285788965 0 0.013960799285788965 0.014592881199255007 0 0 0 0.014628281061403608 0.05040077660994513 0.015443136820064842 0 0.015443136820064842 0.01299683130777201 0 0 0 0.01584940197942929 0.052889065513182676 0.0094732511747500497 0 0.0094732511747500497 0.0024755961517465078 0 0 0 0.013841165416232305 0.046833619281089992 0.0072319858019672008 0 0.0072319858019672008 0.0020476638245893099 0 0 0 0.012220320776419838 0.04480375282873876 -0.0033171653669075061 0 -0.0033171653669075061 -0.0070991608657981244 0 0 0 0.0094261479907351634 0.057379457701126992 0.0017504526662007018 0 0.0017504526662007018 0.0011599923483106983 0 0 0 0.014634862512359431 0.055243430674602995 0.0024548825754645278 0 0.0024548825754645278 4.7130122635404698e-05 0 0 0 0.013822640199309601 0.057264327285201123 0.012867696959320021 0 0.012867696959320021 0.010618795704902331 0 0 0 0.016970780747525855 0.04225484127653565 -0.0085697108332604861 0 -0.0085697108332604861 -0.0044845639348455911 0 0 0 0.0094425693354225088 0.051685586380041851 -0.01091112708844629 0 -0.01091112708844629 -0.0036557004192144626 0 0 0 0.012007471490206855 0.057406929908480731 -0.0035779411376257271 0 -0.0035779411376257271 0.0051175806848810391 0 0 0 0.015631127648340449 0.065414186723928208 -0.0070516386989241007 0 -0.0070516386989241007 0.010189043127885433 0 0 0 0.018900807462953428 0.076568154120771961 0.0044879847953722182 0 0.0044879847953722182 0.021411425705978787 0 0 0 0.024494894956687704 0.065581851433803046 0.014221671614422098 0 0.014221671614422098 0.012597207553724052 0 0 0 0.01954476474688176 0.074181740579657041 0.0089108621071208455 0 0.0089108621071208455 0.010202276745323629 0 0 0 0.021096004331245179 0.063320088602546787 0.012957563245164654 0 0.012957563245164654 0.018485873360282609 0 0 0 0.020451490490707359 0.080582358049034769 0.017234378478593035 0 0.017234378478593035 0.022233685660570296 0 0 0 0.025704010927401252 0.068089679710867629 0.027425316326478287 0 0.027425316326478287 0.049419721307099596 0 0 0 0.029377350254491813 0.10129331449307905 0.028182009158755607 0 0.028182009158755607 0.045204512885984108 0 0 0 0.036624456844765799 0.082323540626054376 0.027800553223069457 0 0.027800553223069457 0.073410899611429561 0 0 0 0.038933610059371009 0.06303982653264055 0.031884289605235434 0 0.031884289605235434 0.080032196230075459 0 0 0 0.035768005690678992 0.074922544244193992 0.025725941916438202 0 0.025725941916438202 0.05174114244329156 0 0 0 0.031665921671871419 0.098579952597482617 -0.0040442057483910526 0 -0.0040442057483910526 0.035408722598376352 0 0 0 0.033497168798964715 0.099644347581743301 0.0074465287317939249 0 0.0074465287317939249 0.061430363394779558 0 0 0 0.040268677744130704 0.10479548535803258 -0.021459368630239693 0 -0.021459368630239693 0.052304771720608823 0 0 0 0.039275064269660348 0.18128297028057144 -0.0094662517439857916 0 -0.0094662517439857916 0.094117716609619512 0 0 0 0.068850171722547759 0.11712089848890281 -0.0054065746833275308 0 -0.0054065746833275308 0.22245342562278086 0 0 0 0.084893581027920884 0.1709400976015209 0.079311224665474064 0 0.079311224665474064 0.15846632056032778 0 0 0 0.082351604540462142 0.085035952608980447 0.048207114152099287 0 0.048207114152099287 0.13705263324436312 0 0 0 0.055522146463335885 0.041858238726697305 0.022693911224545428 0 0.022693911224545428 0.075057793410076928 0 0 0 0.029229008034193569 0.081789715863475707 0.03177329288438771 0 0.03177329288438771 0.074537507882101645 0 0 0 0.039081805936394341 0.044239193959021206 -0.012346112862847328 0 -0.012346112862847328 0.15740846238935957 0 0 0 0.050411914087095194 0.031234139998386271 -0.012893998618702685 0 -0.012893998618702685 0.08683783743832045 0 0 0 0.029517994359176694 0.032148870386872308 -0.012907480513367436 0 -0.012907480513367436 0.093570655543728593 0 0 0 0.031429881482650232 0.045711367144860578 0.022653370932606637 0 0.022653370932606637 0.088375256237591432 0 0 0 0.033521655845613015 0.046503406382865382 0.02190988156872288 0 0.02190988156872288 0.048643731250844507 0 0 0 0.023786784408427471 0.039343695683913396 0.018356891582765201 0 0.018356891582765201 0.078390202309754742 0 0 0 0.029433474498417031 0.027197547301575184 0.01059894262639593 0 0.01059894262639593 0.051225112839439556 0 0 0 0.019605665035253669 0.03792949798231135 0.0185091572821314 0 0.0185091572821314 0.06250194385354256 0 0 0 0.025107860458963491 0.041751990599658326 0.019125913779877338 0 0.019125913779877338 0.034876146503740948 0 0 0 0.019157034275849819 0.051266019987835761 0.025712124159978644 0 0.025712124159978644 0.053088439273431355 0 0 0 0.026088614815316762 0.026547347629387846 0.012290591585812329 0 0.012290591585812329 0.037506477284998563 0 0 0 0.016013456228596623 0.026487890205989864 0.011214128423731196 0 0.011214128423731196 0.054492703542168862 0 0 0 0.02024514843703968 0.027259327622604593 -0.01212811641329313 0 -0.01212811641329313 0.059196957232572275 0 0 0 0.021614071213794217 0.019611569981932881 0.00024679257291296752 0 0.00024679257291296752 0.055527781041506748 0 0 0 0.018784837755859905 0.017357551601893072 0.0021138765071410676 0 0.0021138765071410676 0.047388753338973577 0 0 0 0.01618657623521667 0.028273798025522493 0.0076895880252545396 0 0.0076895880252545396 0.072428068905167051 0 0 0 0.025175466732672378 0.022335635751539323 -0.010673034718090401 0 -0.010673034718090401 0.045749382802428955 0 0 0 0.017021254638492064 0.021309804455937394 -0.010289727902178856 0 -0.010289727902178856 0.038471819423449766 0 0 0 0.014945405969846781 0.035661432702038837 -0.021884140578039481 0 -0.021884140578039481 0.04263300341052937 0 0 0 0.01957360902814204 0.030262625481517556 -0.020030129540294019 0 -0.020030129540294019 0.021380651020399544 0 0 0 0.012910819125479256 0.022221408017674325 -0.013329677872983135 0 -0.013329677872983135 0.018713260756367315 0 0 0 0.010233667193510425 0.036270326825246682 -0.02001251949649438 0 -0.02001251949649438 0.022608444425407409 0 0 0 0.014719692812663526 0.036552774685487677 -0.019388605635836914 0 -0.019388605635836914 0.02348698406134472 0 0 0 0.015009939686708124 0.028499113327239367 -0.014777993022679924 0 -0.014777993022679924 0.0086185353545382704 0 0 0 0.0092794121704444094 0.055829622656866557 -0.0094187911227060737 0 -0.0094187911227060737 0.010933008692422974 0 0 0 0.016690657837322348 0.04577289324329821 -0.01413539548344505 0 -0.01413539548344505 0.0020543213572509211 0 0 0 0.011956803650137307 0.049919550058060147 -0.017623434142291394 0 -0.017623434142291394 0.0085733876771678652 0 0 0 0.014623234433807003 0.067569132940916085 -0.031790657449957668 0 -0.031790657449957668 0.031107566645421095 0 0 0 0.024669174896584288 0.026720949855342305 -0.012682743408127237 0 -0.012682743408127237 0.059544395210832976 0 0 0 0.021566336266543813 0.040642316928957749 -0.025132262399759856 0 -0.025132262399759856 0.039663874515177756 0 0 0 0.020076547861033904 0.041192465559139482 -0.027771187784866223 0 -0.027771187784866223 0.049025725053019123 0 0 0 0.022554547653039644 0.046528827851774056 -0.034324744651187268 0 -0.034324744651187268 0.074780824093843165 0 0 0 0.030327412986404283 0.028745078378506348 -0.030108755892477801 0 -0.030108755892477801 0.099175746485722291 0 0 0 0.031980206216057211 0.055586993551815123 -0.029491844951725316 0 -0.029491844951725316 0.098922565230154136 0 0 0 0.038627389695492328 0.078730733397544023 -0.0070198199554082977 0 -0.0070198199554082977 0.28489724959820145 0 0 0 0.090906995748936348 0.068635052537000404 -0.010974708912792647 0 -0.010974708912792647 -0.010976512309859077 0 0 0 0.014414635056785349 0.09016968120016014 -0.048220482352076141 0 -0.048220482352076141 0.059189028182278211 0 0 0 0.037339677345609584 0.1604901045545542 0.10714604620478546 0 0.10714604620478546 0.18339226054822363 0 0 0 0.085970591275694452 0.087462529374889686 -0.069294544441469985 0 -0.069294544441469985 0.12112789332056376 0 0 0 0.052147605673863374 0.005695198452316262 0.0010630566795411626 0 0.0010630566795411626 0.015699952686934616 0 0 0 0.0053487877848127198 0.27280689860838025 0.08643642708945122 0 0.08643642708945122 0.050884941267217876 0 0 0 0.080922959968899533 0.14212591088669171 0.022673874606109756 0 0.022673874606109756 0.027098163447125137 0 0 0 0.04230601858345414 0.013465765193445741 0.002603703341412974 0 0.002603703341412974 0.040452705626057107 0 0 0 0.013479617704875713 0.022799633356212781 0.0042060925360508095 0 0.0042060925360508095 0.035337899542430495 0 0 0 0.014534383224660788 0.1485151898416146 0.023850929199040621 0 0.023850929199040621 0.024223000148211105 0 0 0 0.043184547497456371 0.01950756153610186 0.0037239255960652999 0 0.0037239255960652999 0.058257526486997127 0 0 0 0.019441272005774751 0.0332681848095841 0.0080821632923114839 0 0.0080821632923114839 0.0430566014060213 0 0 0 0.01908119655390135 0.11111990931018767 0.022288315084258603 0 0.022288315084258603 0.016803105817750685 0 0 0 0.031980753781984561 0.055627377470877731 -0.016280753878769372 0 -0.016280753878769372 -0.0041182860256127884 0 0 0 0.012877272861316236 0.055409135123302852 0.0045991297259980191 0 0.0045991297259980191 0.026231026010890501 0 0 0 0.020410040283548356 0.054480094679238936 -0.0052326887418662482 0 -0.0052326887418662482 0.018994373332379244 0 0 0 0.018368617002904597 0.054391583355049407 -0.0017792378693611971 0 -0.0017792378693611971 0.012040768910432431 0 0 0 0.016608088066370437 0.045623035323827832 0.0045383007277352838 0 0.0045383007277352838 0.018872442227184205 0 0 0 0.016123869387753065 0.053609846886612078 0.0043294446660578356 0 0.0043294446660578356 0.045127763300452595 0 0 0 0.024684402546766238 0.050578357600556872 0.0079742488382056054 0 0.0079742488382056054 0.052426876761186569 0 0 0 0.025751308590435867 0.052548371509803349 0.0018110229071428285 0 0.0018110229071428285 0.019410251278609181 0 0 0 0.017989655697103174 0.10197101796981217 0.019055546592976924 0 0.019055546592976924 0.019449684219188468 0 0 0 0.030355175547250035 0.1104574420731248 0.01299224850307934 0 0.01299224850307934 0.048425096997911199 0 0 0 0.039720634767759 0.13403038971703396 0.0093913107084833743 0 0.0093913107084833743 0.044706246995046328 0 0 0 0.044684159178020044 0.025068422202925988 0.0045165377466153539 0 0.0045165377466153539 0.075027311854429471 0 0 0 0.025023933514338865 0.12119030392742691 0.011799024241602509 0 0.011799024241602509 0.051515018537131585 0 0 0 0.043176330616139458 0.11094991914402855 0.0084561142448245086 0 0.0084561142448245086 0.050231830395086829 0 0 0 0.040295437384778726 0.091298553976839836 0.019988482890139103 0 0.019988482890139103 0.048909320892830621 0 0 0 0.03505196871741767 0.11726778959412987 0.010867404043509183 0 0.010867404043509183 0.064691918527997938 0 0 0 0.045489927030532007 0.064495034407774265 0.0079144698172457228 0 0.0079144698172457228 0.070354692122624241 0 0 0 0.033712431632599626 0.030787294194362609 0.005117166978965965 0 0.005117166978965965 0.092166925086663923 0 0 0 0.030738554820256631 0.09823355550860674 0.010482384740879036 0 0.010482384740879036 0.064930438942874424 0 0 0 0.040790998612870111 0.050869969383030324 0.0061555655414239352 0 0.0061555655414239352 0.033811046506174391 0 0 0 0.021170253972301191 0.046590010333574294 0.0028806819500925424 0 0.0028806819500925424 0.01742653959349949 0 0 0 0.016004137481768488 0.060009365916351948 0.0036532715241156255 0 0.0036532715241156255 0.060061515192948667 0 0 0 0.030017720277325161 0.052080631188306026 0.0037811172799224677 0 0.0037811172799224677 0.036030898286778745 0 0 0 0.022027882368771234 0.058470762200108106 0.0058626250430003184 0 0.0058626250430003184 0.039630661703439651 0 0 0 0.024525355975886926 0.044036720525531016 0.002279197475413719 0 0.002279197475413719 0.012321553575451505 0 0 0 0.014089568525245712 0.039750091423231299 0.0018295247012860838 0 0.0018295247012860838 0.014068982959056564 0 0 0 0.013454768595571931 0.046305676210423558 0.0025688135682844088 0 0.0025688135682844088 0.01312635701592002 0 0 0 0.014858008306585874 0.039623735789109542 -0.0053045929401195624 0 -0.0053045929401195624 0.0021526801022244968 0 0 0 0.01044410397283351 0.038612295277418829 -0.0016867018251751353 0 -0.0016867018251751353 0.0032592488687394061 0 0 0 0.010467886036539531 0.028383502888930628 -0.0034627670240797229 0 -0.0034627670240797229 0.00048842252651626339 0 0 0 0.0072179813538617299 0.031289841355261944 -0.0059402646490151478 0 -0.0059402646490151478 0.0022972106835570383 0 0 0 0.0083967630097047524 0.03030162809436418 -0.010061680692523951 0 -0.010061680692523951 0.0017545773403753184 0 0 0 0.0080140513586848816 0.034858967581371886 -0.0045321332024117755 0 -0.0045321332024117755 0.0027724742286191414 0 0 0 0.0094078604524977499 0.038673453537982572 -0.0085633480445148069 0 -0.0085633480445148069 0.0013109537810456207 0 0 0 0.0099961018297570481 0.028399934072313393 -0.011053346536083128 0 -0.011053346536083128 0.00036388302481404899 0 0 0 0.0071909542742818744 0.037895468772997223 -0.014165086433148788 0 -0.014165086433148788 0.005714054699450799 0 0 0 0.010902380868112002 0.028828087767574687 -0.014285357549290403 0 -0.014285357549290403 0.0086127056057332396 0 0 0 0.009360198343326992 0.040159305145706148 -0.0093531852502437215 0 -0.0093531852502437215 0.0013847745951745538 0 0 0 0.010386019935220175 0.044776965527091504 -0.0024637329134752362 0 -0.0024637329134752362 0.0028134278496415865 0 0 0 0.011897598344183295 0.047775519522469181 -0.0044024632324316526 0 -0.0044024632324316526 0.0066615513129534357 0 0 0 0.013609267708855659 -0.10442412114006139 0.0071869416390639707 0 0.0071869416390639707 0.0002676576099582828 0 0 0 -0.026039115882525721 -0.12728922829408729 0.011612811073079037 0 0.011612811073079037 0.0021465750289895169 0 0 0 -0.03128566331627447 -0.088570946096153014 0.02838578045519613 0 0.02838578045519613 0.0097665941513294108 0 0 0 -0.019701087986205956 -0.15941940888393458 0.011051212865936799 0 0.011051212865936799 0.0024572513869736134 0 0 0 -0.039240539374240102 -0.15967875869040971 0.0075489259727192781 0 0.0075489259727192781 0.0055401176683328446 0 0 0 -0.038534660255519271 -0.09998330492760428 0.00733108614914596 0 0.00733108614914596 0.0013764353727842155 0 0 0 -0.024651717388705044 -0.10715973857012961 0.013546508648488165 0 0.013546508648488165 0.0025708039802825322 0 0 0 -0.026147233647461687 -0.078070440301228505 0.026942760672869437 0 0.026942760672869437 0.015324940646552543 0 0 0 -0.015686374913669032 -0.049093297208702258 0.026118633314394721 0 0.026118633314394721 0.014814871835498455 0 0 0 -0.0085696063433008951 -0.032577734602764419 0.035932718857927926 0 0.035932718857927926 0.031221773979286493 0 0 0 -0.00033899015586941195 -0.04904211496801214 0.022138791353847331 0 0.022138791353847331 0.0034337741045780135 0 0 0 -0.011402085215858615 -0.042755477378334156 0.039169677869464237 0 0.039169677869464237 0.012896302265332338 0 0 0 -0.0074647937782504614 -0.068649352534665087 0.020388866746147649 0 0.020388866746147649 0.0006314926130359666 0 0 0 -0.017004464980407308 -0.030929905661764165 0.030609419612215416 0 0.030609419612215416 0.0034808639325245583 0 0 0 -0.0068622604323099051 0.035472039054111282 0.048561527646565517 0 0.048561527646565517 0.012931036249236638 0 0 0 0.012100768825837049 0.0024658241487931498 0.037794224855877218 0 0.037794224855877218 0.0096683141675630857 0 0 0 0.0030335345790890589 0.051331071409543627 0.05675781531727099 0 0.05675781531727099 0.033715668224758577 0 0 0 0.021261684908575551 0.0017979730394961368 0.041829587620894781 0 0.041829587620894781 0.011827945333631185 0 0 0 0.0034064795932818304 -0.042615104024521622 0.018842453064512155 0 0.018842453064512155 0.016350439082225776 0 0 0 -0.0065661662355739336 -0.0084265732703250711 0.040234231108694285 0 0.040234231108694285 0.046860173245465597 0 0 0 0.0096083999937851723 0.0013932350769803939 0.030955766231218873 0 0.030955766231218873 0.032273830752934191 0 0 0 0.0084167664574787207 0.04142862117362367 0.051855470778479851 0 0.051855470778479851 0.075385391510003563 0 0 0 0.029203503170906808 0.05683189195501176 0.056459652993966561 0 0.056459652993966561 0.12479722425881346 0 0 0 0.045407279053456318 0.09385170171297591 0.066466274815271287 0 0.066466274815271287 0.043538510094460969 0 0 0 0.034347552951859206 0.10593143280069162 0.061173244700097773 0 0.061173244700097773 0.045730185737355017 0 0 0 0.037915404634511651 0.061040875418999219 0.037916673601428863 0 0.037916673601428863 0.012753816817311359 0 0 0 0.018448673059077714 0.085296769570539888 0.046484612243913592 0 0.046484612243913592 0.017377151338370256 0 0 0 0.025668480227227453 0.10554920005261459 0.01995858763647651 0 0.01995858763647651 0.019123456097356328 0 0 0 0.031168164037492785 0.051549481334852085 0.032228819316724833 0 0.032228819316724833 0.0061330655665776806 0 0 0 0.014420636725357466 0.052833177620705274 0.038272865875056183 0 0.038272865875056183 0.0057920805025974964 0 0 0 0.01465631453082572 0.083264380825222251 0.025084371344117506 0 0.025084371344117506 0.016727375332220351 0 0 0 0.02499793903936065 0.081839684404070634 0.023449444104382655 0 0.023449444104382655 0.020969570161869955 0 0 0 0.025702313641485119 0.085342184956114675 0.018373624855600068 0 0.018373624855600068 0.026600187024084843 0 0 0 0.027985592995049879 0.072596503426548775 0.026239241416892045 0 0.026239241416892045 0.022356433771958617 0 0 0 0.023738234299626959 0.051852850308377718 0.02904155676355942 0 0.02904155676355942 0.010852692751275317 0 0 0 0.01567638576491337 0.051515929577605091 0.03478578548354716 0 0.03478578548354716 0.0062482865571631407 0 0 0 0.014441054033692113 0.017676202822242831 0.029631097498375114 0 0.029631097498375114 0.0041064344617049997 0 0 0 0.0054456593209868676 0.021442622163743041 0.033684731535228885 0 0.033684731535228885 0.0046776930908389858 0 0 0 0.0065300788136454235 0.016473624238662721 0.031398765724151678 0 0.031398765724151678 0.0036859526678827415 0 0 0 0.0050398942266365321 -0.016040392094177847 0.035937831044200341 0 0.035937831044200341 0.0026911808282426009 0 0 0 -0.0033373028164838114 0.019201758523385792 0.038128930030646213 0 0.038128930030646213 0.0038640484267178365 0 0 0 0.0057664517375258795 0.029703897352531428 0.030517594679770443 0 0.030517594679770443 0.0010836187921809959 0 0 0 0.0076968790361782169 -0.003741213090781681 0.033052928496117462 0 0.033052928496117462 0.0012792011583842022 0 0 0 -0.00061550298309931417 -0.01452719437189498 0.041634252892634505 0 0.041634252892634505 0.0052640131874599483 0 0 0 -0.0023157952961088135 -0.038823783038981818 0.025372586976399936 0 0.025372586976399936 -0.0012866898363852464 0 0 0 -0.010027618218841794 -0.050901207249129721 0.03319387216929337 0 0.03319387216929337 0.0052832605254200526 0 0 0 -0.011404486680927528 -0.046063908478999105 0.021193214662399699 0 0.021193214662399699 9.5085436404129808e-05 0 0 0 -0.011492205760648799 -0.044631683994143911 0.032501456266928797 0 0.032501456266928797 0.0011659265087533566 0 0 0 -0.010866439371347625 -0.014958424867315578 0.032450283580912065 0 0.032450283580912065 -0.00088516392885296113 0 0 0 -0.0039608971990420239 -0.011593319878540759 0.035241020917122778 0 0.035241020917122778 -0.0045232979217096903 0 0 0 -0.0040291544500626053 -0.029207483141601043 0.026887374957555221 0 0.026887374957555221 0.0019368548391387463 0 0 0 -0.0068176570756156574 -0.041075749854588839 0.022236488716178782 0 0.022236488716178782 -0.0020192340651901119 0 0 0 -0.010773745979944738 -0.055887468520174455 0.026974438184253713 0 0.026974438184253713 0.0014084059823686879 0 0 0 -0.013619765634451442 -0.07931318685759714 0.0099413310416289428 0 0.0099413310416289428 4.9518739178022741e-05 0 0 0 -0.019815917029604835 -0.04693093269171178 0.010454088990399457 0 0.010454088990399457 0.0023133386269726941 0 0 0 -0.011154398516185049 -0.064819021679895616 0.010708342327493403 0 0.010708342327493403 0.0025060095619102718 0 0 0 -0.015578253029496336 -0.1075891028179301 0.0092737682886017466 0 0.0092737682886017466 6.3890248144904405e-05 0 0 0 -0.026881303142446189 -0.08135378053355935 0.022785194553318955 0 0.022785194553318955 0.0019947957642745262 0 0 0 -0.019839746192320984 -0.078893653373559247 0.011960936319380111 0 0.011960936319380111 -0.00096068853403341592 0 0 0 -0.019963585476898138 -0.012091426323945886 0.011792929095367777 0 0.011792929095367777 0.004170796918550379 0 0 0 -0.0019801573513485993 -0.032321298427783862 0.0091256301847495447 0 0.0091256301847495447 -0.0027489409859140501 0 0 0 -0.0087675598534244781 -0.015378496946826026 0.016528633731617226 0 0.016528633731617226 0.0014835088731119939 0 0 0 -0.003473747018428508 -0.040047594749227589 0.0095499619834927083 0 0.0095499619834927083 0.002127452578331912 0 0 0 -0.0094800355427242522 -0.037707740215705998 0.0077049966730211583 0 0.0077049966730211583 0.00044635075270438307 0 0 0 -0.0093153473657501262 -0.061619691712855085 0.0099764821509965573 0 0.0099764821509965573 0.0004063781034417957 0 0 0 -0.015303328402353156 -0.052201324527882287 0.018179530025648649 0 0.018179530025648649 -0.0010322864777227991 0 0 0 -0.013308402751400994 -0.040051003841404587 0.016158728049141757 0 0.016158728049141757 -0.00042103131512627456 0 0 0 -0.010118008789132604 -0.02649504940747871 0.025851660718183789 0 0.025851660718183789 -0.00068679103305324674 0 0 0 -0.0067954601101332113 -0.024029022880560191 0.019709819066944467 0 0.019709819066944467 0.0029923084209233508 0 0 0 -0.0052591786149094322 -0.014298016221148346 0.023039237629467496 0 0.023039237629467496 -0.00041699260542760186 0 0 0 -0.0036787522066441536 -0.003720808943494136 0.022253775922325358 0 0.022253775922325358 0.0023022561414864917 0 0 0 -0.00035463820050218864 -0.0032409039188849853 0.02071629154049881 0 0.02071629154049881 0.001022847361273449 0 0 0 -0.00055451413940321714 -0.018734300765738232 0.023432159092616089 0 0.023432159092616089 0.0006199222631939616 0 0 0 -0.0045285946256362619 -0.0013877780892506131 0.02210790525305617 0 0.02210790525305617 0.0019431513123358002 0 0 0 0.00013884330577162984 0.01962280500685365 0.023028206130086618 0 0.023028206130086618 0.0049794468588801877 0 0 0 0.0061505629664333483 0.020900154647726099 0.02431839487782339 0 0.02431839487782339 0.0083286653716210246 0 0 0 0.0073072050048368364 0.037481678090214521 0.023825396801289145 0 0.023825396801289145 0.0094036019159022821 0 0 0 0.011721320001529145 -0.0018707193220839358 0.02764842907871734 0 0.02764842907871734 0.0012269448382231651 0 0 0 -0.00016094362096552572 -0.0046654244427666303 0.031912379789955425 0 0.031912379789955425 -0.0012470697287012555 0 0 0 -0.0014781235428666939 0.016364058611028742 0.026109337779881114 0 0.026109337779881114 0.0027983074944788466 0 0 0 0.0047905915263766197 0.014948364904807375 0.024736822975932382 0 0.024736822975932382 0.0052460941487997501 0 0 0 0.0050486147634016144 0.032903997259269346 0.031253775773155912 0 0.031253775773155912 0.0060786876303759452 0 0 0 0.0097456712224116004 0.017911376261761092 0.026891906181460895 0 0.026891906181460895 0.0083184149442381283 0 0 0 0.0065574478015002491 0.05222539143747551 0.020858579458996829 0 0.020858579458996829 0.020656978380613006 0 0 0 0.018220592454521789 0.051932131375562296 0.023588027855998561 0 0.023588027855998561 0.023709574949067669 0 0 0 0.018910426581157713 0.04726890645441939 0.026595567032513277 0 0.026595567032513277 0.010330290451537216 0 0 0 0.014399799226489041 0.062313139295581799 0.025651208144528037 0 0.025651208144528037 0.024653421869384573 0 0 0 0.021741640291241371 0.080926030809795213 0.01406237733199911 0 0.01406237733199911 0.049168548733764972 0 0 0 0.032523644885890102 0.063465184024612764 0.018007355003050673 0 0.018007355003050673 0.028267731430252852 0 0 0 0.022933228863716515 0.072057481132580925 0.022110839314300579 0 0.022110839314300579 0.049100897292680301 0 0 0 0.030289594606315084 0.041998277487461211 0.028099764149062567 0 0.028099764149062567 0.017939146326549249 0 0 0 0.014984355953502559 0.051025266589527218 0.0233619762881489 0 0.0233619762881489 0.02671760360866493 0 0 0 0.019435717549547871 0.08023134942338106 0.0095248517682229306 0 0.0095248517682229306 0.042732095153923844 0 0 0 0.030740861144326059 0.05583170749659172 0.0042854536791223641 0 0.0042854536791223641 0.027673347763189859 0 0 0 0.020876263814945339 0.088992034257614899 0.017048849970898949 0 0.017048849970898949 0.044424774120071786 0 0 0 0.033354202094421498 0.07048920995367336 0.0092119893370861128 0 0.0092119893370861128 0.029272009811205812 0 0 0 0.024940304941219793 0.098004867061443068 -0.0060236577751546783 0 -0.0060236577751546783 0.054976139679065561 0 0 0 0.038245251685127268 0.10750135752791934 0.010181487223816621 0 0.010181487223816621 0.055309019201063236 0 0 0 0.040702594182245644 0.077072219942635412 -0.0077109511464055203 0 -0.0077109511464055203 0.013618973294630186 0 0 0 0.0226727983093164 0.044931346512173231 0.00049538428303691484 0 0.00049538428303691484 0.014630763947877767 0 0 0 0.014890527615012861 0.018771353556495951 0.013305830035579058 0 0.013305830035579058 -0.0027440970127008413 0 0 0 0.004006814135948833 0.01834954345343931 0.0076511434291172036 0 0.0076511434291172036 -0.0040095273217453098 0 0 0 0.0035850040329235 0.036916898404818266 0.0052904360438681408 0 0.0052904360438681408 -0.013479393270035445 0 0 0 0.0058593762836958163 0.019474282476788396 0.019846173512549692 0 0.019846173512549692 0.0020214037124550721 0 0 0 0.005373921547310756 0.045208275648832785 0.015612792886482318 0 0.015612792886482318 0.0097632369986087042 0 0 0 0.013742878161860261 0.021886989104376697 0.017231440590383729 0 0.017231440590383729 0.0080952291593083814 0 0 0 0.0074955545659212142 0.044253769498213025 0.018546419528477465 0 0.018546419528477465 0.013200483077119074 0 0 0 0.014363563143833025 0.001325438176094762 0.019300620777315425 0 0.019300620777315425 -0.00059905668895243736 0 0 0 0.00018159537178563667 -0.015826667644715048 0.014113137802320708 0 0.014113137802320708 -0.002136373981051376 0 0 0 -0.0044907604064420015 0.0031670422025698031 0.013162986047213165 0 0.013162986047213165 -0.002710563590216708 0 0 0 0.00011411965308827376 -0.0032050076995491228 0.013625186732523664 0 0.013625186732523664 0.0018126835706784306 0 0 0 -0.00034808103221761755 0.0023389860560161235 0.014446054067542846 0 0.014446054067542846 -0.0072721050701085588 0 0 0 -0.0012332797535237194 0.0062644313998028167 0.0066499058491733543 0 0.0066499058491733543 -0.016877566109800846 0 0 0 -0.0026532836774992852 0.0027264534247679021 0.004607013625543388 0 0.004607013625543388 -0.0092319463856502335 0 0 0 -0.0016263732402204717 0.010092441880242387 0.0076986723890235531 0 0.0076986723890235531 -0.0043622193381569474 0 0 0 0.0014325556355210267 0.0020050047265678383 0.0088679244704117366 0 0.0088679244704117366 -0.0054471539491531829 0 0 0 -0.00086053730564605857 -0.0029327118868369695 0.006375124146347666 0 0.006375124146347666 -0.003131145144005032 0 0 0 -0.0015159642577109445 0.0027236779036594605 0.0028610571696532361 0 0.0028610571696532361 -0.0018733107599793186 0 0 0 0.0002125917859197024 0.00093361726103236009 0.0018612838269786991 0 0.0018612838269786991 -7.6137801841014152e-05 0 0 0 0.00021436986479761444 -0.00085946998725150436 0.0023497028129979254 0 0.0023497028129979254 -0.00061698701851931048 0 0 0 -0.00036911425144259269 0.00074724818236293622 0.0041458122389892438 0 0.0041458122389892438 0.0028360267029989839 0 0 0 0.00089581872134014695 -0.0088797447028023946 0.0060688878216056908 0 0.0060688878216056908 0.0035044525115779379 0 0 0 -0.0013438230478062252 -0.0080950549200489164 0.0066838788526213389 0 0.0066838788526213389 -0.0007491832587902536 0 0 0 -0.0022110595447095704 -0.023527658997803957 0.0073435769809806076 0 0.0073435769809806076 -0.001446767892244516 0 0 0 -0.0062436067225122294 0.031689611257598449 0.00039153859570961735 0 0.00039153859570961735 0.0053755777002491012 0 0 0 0.0092662972394619292 0.04984286097195631 0.0031287564249753985 0 0.0031287564249753985 0.026676684623982316 0 0 0 0.019129886398984691 0.052494165339147414 0.0060911014437994154 0 0.0060911014437994154 0.022141482065733742 0 0 0 0.018658911851220317 0.041826535328494091 0.0078418485881271982 0 0.0078418485881271982 0.010957851392040883 0 0 0 0.013196096680133686 0.026994754448196545 0.003114026482826604 0 0.003114026482826604 -0.0026088222898797975 0 0 0 0.0060964830395791036 0.017854103837974269 -0.00053479294208541583 0 -0.00053479294208541583 -0.0019642369639014112 0 0 0 0.0039724667185181556 0.01842018778668647 -0.0046314286295592866 0 -0.0046314286295592866 -0.0056166564266902919 0 0 0 0.0032008828399989753 0.02764884871612705 -0.0012487025227955612 0 -0.0012487025227955612 0.00080668980802056645 0 0 0 0.0071138846310367931 0.020799335214617354 -0.0040020354918355872 0 -0.0040020354918355872 0.00046662385931461881 0 0 0 0.0053164897684829793 0.021850253732213616 -0.0047969815653161885 0 -0.0047969815653161885 0.00047124845872106857 0 0 0 0.0055803755477336417 0.037904091967718684 0.0012952457035586284 0 0.0012952457035586284 0.0064283557241490152 0 0 0 0.011083111922966904 0.036606606727620533 0.00086649229567939455 0 0.00086649229567939455 0.006029319115450904 0 0 0 0.010658981460767908 0.028247128312620141 0.0026095715008843667 0 0.0026095715008843667 0.0060115662656177737 0 0 0 0.0085646736445595187 0.041415714607646259 0.0052631302274385328 0 0.0052631302274385328 0.020230831225438006 0 0 0 0.015411636458271039 0.047307907279077188 0.0048782225962792636 0 0.0048782225962792636 0.019454434479456495 0 0 0 0.016690585439633476 0.055061406424496556 0.00456217447243773 0 0.00456217447243773 0.042689134449655275 0 0 0 0.024437635218537951 0.070602893202110245 0.0043521089502105426 0 0.0043521089502105426 0.077813986459217221 0 0 0 0.037104219915331943 0.084067248798739391 0.0035287764441129799 0 0.0035287764441129799 0.092232880270394557 0 0 0 0.044075032267283376 0.068756996114287261 0.0076684152320998233 0 0.0076684152320998233 0.047620023824351321 0 0 0 0.029094254984659673 0.095669769916234326 0.021114794754936383 0 0.021114794754936383 0.059696173046501766 0 0 0 0.038841485740684245 0.12060914585171445 0.0079508496616128525 0 0.0079508496616128525 0.087747547025041506 0 0 0 0.052089173219189044 0.082331435710221362 0.0076758517475727928 0 0.0076758517475727928 0.082796745481344081 0 0 0 0.041282045297891395 0.036727481391575695 0.0055512175167213738 0 0.0055512175167213738 0.10996329846949818 0 0 0 0.036672694965268461 0.085975872834126332 0.017876899172515337 0 0.017876899172515337 0.046009027630320887 0 0 0 0.032996225116111888 0.10186427711600288 0.013243290429183041 0 0.013243290429183041 0.091307371852876518 0 0 0 0.048292912242219987 0.1014009399081818 0.005814334658664766 0 0.005814334658664766 0.084841150086651496 0 0 0 0.046560522498708151 0.042966277354844498 0.0058018424517339998 0 0.0058018424517339998 0.12872519075016473 0 0 0 0.042922867026252302 0.10260413109079669 0.007845044249465194 0 0.007845044249465194 0.097180556194817691 0 0 0 0.04994617182140354 0.12098357106998492 0.012355283910022755 0 0.012355283910022755 0.093989999067337848 0 0 0 0.053743392534330692 0.049672029959868053 0.0059283880319898064 0 0.0059283880319898064 0.1485593690120621 0 0 0 0.049557849742982545 0.097564089942864474 0.018823026726674019 0 0.018823026726674019 0.080741842139780751 0 0 0 0.044576483020660973 0.062097020669377292 0.0060598552862061728 0 0.0060598552862061728 0.051558715497079133 0 0 0 0.028413934041614089 0.096705955669950827 0.0070034558006943359 0 0.0070034558006943359 0.10181044127765437 0 0 0 0.049629099236901286 0.066096709046837621 0.012610400503649727 0 0.012610400503649727 0.037852932608588796 0 0 0 0.02598741041385666 0.081089527736128708 0.0042585944432332878 0 0.0042585944432332878 0.053788376965680507 0 0 0 0.033719476175452401 0.093385158654477676 0.014958630843447895 0 0.014958630843447895 0.0550559507252667 0 0 0 0.037110277344935952 0.070260512055242974 0.0030820540633273441 0 0.0030820540633273441 0.042372988247940446 0 0 0 0.028158375075795827 0.12745731858953011 0.010114718713742976 0 0.010114718713742976 0.10551271073256396 0 0 0 0.05824250733052358 0.11887975062031145 0.0025757588242734664 0 0.0025757588242734664 0.11688881723713518 0 0 0 0.058942141964361622 0.10680125317391592 -0.001188138435573749 0 -0.001188138435573749 0.062975821387261988 0 0 0 0.042444268640294547 0.13155839209325171 0.0018092727442162726 0 0.0018092727442162726 0.11440703761150317 0 0 0 0.061491357426188831 0.056405671970840329 0.0058198367777653973 0 0.0058198367777653973 0.16962693422267308 0 0 0 0.056508151548378356 0.16354858713542736 0.0083622463075930242 0 0.0083622463075930242 0.1245105375995279 0 0 0 0.072014781183738774 0.14845782161415588 0.013056047918987179 0 0.013056047918987179 0.12004570011899052 0 0 0 0.067125880433286822 0.11597575102230925 -0.0012399725887513036 0 -0.0012399725887513036 0.097608122518183293 0 0 0 0.053395968385122922 0.1370475670146869 0.016266912140652234 0 0.016266912140652234 0.10944077187518442 0 0 0 0.061622084722467774 0.065521784952125295 0.005836899673423112 0 0.005836899673423112 0.19335946350991989 0 0 0 0.064720312115511297 0.19699771678724431 0.00066415060587088348 0 0.00066415060587088348 0.13471992442287029 0 0 0 0.082929410302528206 0.15055192691493133 -0.014577452199174612 0 -0.014577452199174612 0.11299038464726743 0 0 0 0.065885577890549579 0.077560012068830786 0.015352042111116737 0 0.015352042111116737 0.022141064735773819 0 0 0 0.024925269201151123 0.13432683597569495 0.015819406588062801 0 0.015819406588062801 0.11953228763965784 0 0 0 0.063464780903838169 0.18851945387744135 0.00056780636451692068 0 0.00056780636451692068 0.12830673056353614 0 0 0 0.079206546110244469 0.13513925132697918 0.021908640616926767 0 0.021908640616926767 0.096395713176452125 0 0 0 0.057883741125857813 0.10114679602289933 -0.0052844961494096787 0 -0.0052844961494096787 0.029165232040696765 0 0 0 0.032578007015899024 0.026365893531339335 0.0059080104535768618 0 0.0059080104535768618 -0.025109690572574062 0 0 0 0.00031405073969137387 0.060012383076314013 0.014527341400123961 0 0.014527341400123961 -0.0087579891290001655 0 0 0 0.012813598486828448 0.045540482439370103 -0.0004730918608821244 0 -0.0004730918608821244 -0.051852435100451018 0 0 0 -0.0015779881652702563 0.048248938618250983 0.0021517470828298357 0 0.0021517470828298357 0.014108221221930395 0 0 0 0.015589289960045397 0.039790609242882885 0.0020269480989972832 0 0.0020269480989972832 -0.018267379445003451 0 0 0 0.0053808074494698654 0.032022920926401965 0.0045913439619771901 0 0.0045913439619771901 -0.0074652318080909996 0 0 0 0.0061394222795776998 0.037994811896041647 0.0023268955888166298 0 0.0023268955888166298 0.010406787255600403 0 0 0 0.012100399787910499 0.055699276561304412 0.011292038472757199 0 0.011292038472757199 0.012998273488363354 0 0 0 0.017174387512416844 0.017203039739113621 0.00081306834248723314 0 0.00081306834248723314 -0.01892657318887081 0 0 0 -0.0004308833624393632 0.019353818400453849 0.0011436262859737534 0 0.0011436262859737534 -0.0051043247766109114 0 0 0 0.0035623734059607622 0.01871003742618732 0.004906522200677943 0 0.004906522200677943 -0.027306568292676969 0 0 0 -0.0021491327166224816 0.022819865263429495 0.00081595995748662276 0 0.00081595995748662276 -0.010034566993412319 0 0 0 0.0031963245675042939 0.013012368634557681 -0.00160985328413632 0 -0.00160985328413632 -0.021523545673743927 0 0 0 -0.0021277942597965893 0.018122017398992663 -0.0038982830286312803 0 -0.0038982830286312803 -0.039149861120786111 0 0 0 -0.0052569609304483622 0.014025881747043634 0.0010206337478050331 0 0.0010206337478050331 -0.07083112785809452 0 0 0 -0.01420131152776275 0.014004792551941203 -0.0028737349262324408 0 -0.0028737349262324408 -0.043508257841907039 0 0 0 -0.0073758663224915422 0.01110173060754267 -0.0032555023342446532 0 -0.0032555023342446532 -0.073070784322754073 0 0 0 -0.015492263428802822 0.011467002746254285 0.0017231515656885854 0 0.0017231515656885854 -0.044802812192074715 0 0 0 -0.0083339523614551769 0.0087347810790366631 -0.0062848905727515003 0 -0.0062848905727515003 -0.028778922092990045 0 0 0 -0.0050110352534883107 0.010528253503477081 -0.00097609602279175034 0 -0.00097609602279175034 -0.043740948442684946 0 0 0 -0.0083031737348019385 0.039901029334103361 -0.011463137498199216 0 -0.011463137498199216 -0.025799299701728985 0 0 0 0.0035254324080935795 0.029756923881310238 -0.00014299255867017413 0 -0.00014299255867017413 -0.056374601538515368 0 0 0 -0.0066544194143012825 0.018082418611517548 -0.007103968416453027 0 -0.007103968416453027 -0.031208221221094234 0 0 0 -0.0032814506523941578 0.029827121816914492 -0.0053008676656454701 0 -0.0053008676656454701 0.0015588125741734515 0 0 0 0.0078464835977720138 0.022454602093132353 -0.0047158272510041677 0 -0.0047158272510041677 -0.027463191795919828 0 0 0 -0.0012521474256968479 0.019051182286745821 -0.0060212311009540387 0 -0.0060212311009540387 -0.0095949316181178634 0 0 0 0.0023640626671569687 0.022250599361629285 -0.0074474898126479228 0 -0.0074474898126479228 0.0048515664476693754 0 0 0 0.0067755414523246391 0.03228325571453021 -0.010577487469641822 0 -0.010577487469641822 -0.0015328940476223574 0 0 0 0.0076875904167269943 0.016092113570326472 -0.0024248146119017489 0 -0.0024248146119017489 -0.023109541750884199 0 0 0 -0.0017543570451393764 0.015337345732019336 -0.006360963186377494 0 -0.006360963186377494 -0.010617174060451262 0 0 0 0.0011800429178920324 0.010322450795104132 -0.0049456724807436514 0 -0.0049456724807436514 -0.012344872980184496 0 0 0 -0.00050560554627010479 0.017143016180520887 -0.0028985301167657185 0 -0.0028985301167657185 -0.0089697354733859758 0 0 0 0.0020433201767837139 0.016568605119908764 -0.0049040194038262874 0 -0.0049040194038262874 -0.0020182246648958735 0 0 0 0.003637595113753167 0.017669802407240254 -0.0062609408355223939 0 -0.0062609408355223939 -0.0039027085185809884 0 0 0 0.0034417734721648441 0.015940513997164563 -0.0073177108004696678 0 -0.0073177108004696678 0.00041312881934207901 0 0 0 0.0040884107041267437 0.012718743840142162 -0.0049860688783883167 0 -0.0049860688783883167 -0.0053267921367646104 0 0 0 0.0018479879258444035 0.01798512878203376 -0.008268898371236344 0 -0.008268898371236344 -0.0025878367510124844 0 0 0 0.0038493230077552842 0.015567446713097233 -0.0091753766506001422 0 -0.0091753766506001422 -0.0041261392139765318 0 0 0 0.0028603268747802724 0.023437157199901137 -0.011175024799769229 0 -0.011175024799769229 0.0041119408092904486 0 0 0 0.0068872745022978688 0.028494267261767903 -0.0094625826463384521 0 -0.0094625826463384521 0.018051328057754334 0 0 0 0.011636398829880601 0.01983191692513403 -0.0087324707735122048 0 -0.0087324707735122048 0.0052600119265752143 0 0 0 0.0062729822129273249 0.017638768086867485 -0.010084862850250176 0 -0.010084862850250176 0.0045437011829405627 0 0 0 0.0055456173174520396 0.019757675579861078 -0.011209150489048532 0 -0.011209150489048532 0.006420614144180492 0 0 0 0.0065445724310103648 0.023110093591571415 -0.011217990233120201 0 -0.011217990233120201 0.017211337347875055 0 0 0 0.010080357734861614 0.020429593823931565 -0.011898933793354716 0 -0.011898933793354716 0.0060213705544773233 0 0 0 0.0066127410946022272 0.018293953786658934 -0.010430154906178976 0 -0.010430154906178976 0.001217064772943699 0 0 0 0.0048777546399006166 0.024207696633161774 -0.0084724436857919194 0 -0.0084724436857919194 0.0016453477254469995 0 0 0 0.006463261089652228 0.017315475846142903 -0.0071898981821275632 0 -0.0071898981821275632 -0.00054705577172713821 0 0 0 0.004192105018603955 0.021818623701343076 -0.0051538683240731076 0 -0.0051538683240731076 -0.00026154995883520549 0 0 0 0.0053892684356269815 0.019573638548979116 -0.0085722707404083387 0 -0.0085722707404083387 0.0010512107494730638 0 0 0 0.0051562123246130798 0.049318484919866901 -0.013471441109268123 0 -0.013471441109268123 0.047177068093843477 0 0 0 0.024123888253427594 0.019018971412219091 -0.0085105315706262563 0 -0.0085105315706262563 0.056949838745621074 0 0 0 0.018992202539460042 0.060413395172776052 -0.012128884274481777 0 -0.012128884274481777 0.041670652500767291 0 0 0 0.02552101191838585 0.038709262875819078 -0.011509586064419319 0 -0.011509586064419319 0.0413507735246188 0 0 0 0.020015009100109477 0.027716197230775286 -0.0097742422000477447 0 -0.0097742422000477447 0.038934948509889544 0 0 0 0.016662786435166221 0.021988215159497504 -0.013716476981500442 0 -0.013716476981500442 0.015892858615249805 0 0 0 0.0094702684436867579 0.024480930322674482 -0.012084044323045412 0 -0.012084044323045412 0.022367579004215044 0 0 0 0.011712127331722361 0.028420159620695246 -0.010605405655329858 0 -0.010605405655329858 0.015435992656265218 0 0 0 0.010964038069240123 0.042800369587611908 -0.0071018889765013526 0 -0.0071018889765013526 0.046854047668120236 0 0 0 0.022413604313933022 0.033817023812180547 -0.012426576146650672 0 -0.012426576146650672 0.031190614076974876 0 0 0 0.016251909472288828 0.046628503888087355 -0.0080907382315730247 0 -0.0080907382315730247 0.030832276285550297 0 0 0 0.019365195043409431 0.036320281623855255 -0.013832812122203997 0 -0.013832812122203997 0.01826210216551627 0 0 0 0.013645595947342881 0.055325350368048143 -0.0099843954474392871 0 -0.0099843954474392871 0.056827293583821992 0 0 0 0.028038160987967575 0.077715815592087456 -0.010714341749834435 0 -0.010714341749834435 0.057500754022466127 0 0 0 0.033804142403638382 0.053020179698014425 -0.010054696276551311 0 -0.010054696276551311 0.044006712593599229 0 0 0 0.024256723072903497 0.051899258580109756 -0.017947882360313083 0 -0.017947882360313083 0.043073998830237867 0 0 0 0.023743314352586989 0.027213169042211077 -0.0088004537597632191 0 -0.0088004537597632191 0.081440559724356293 0 0 0 0.027163432191641843 0.056926663790683563 -0.011284901363708966 0 -0.011284901363708966 0.052346063979793467 0 0 0 0.027318181942619313 0.063129869933071792 -0.013796671009508876 0 -0.013796671009508876 0.049291186500481032 0 0 0 0.028105264108388317 0.02284822258417217 -0.0087796315352160759 0 -0.0087796315352160759 0.068428505641741855 0 0 0 0.02281918205647851 0.07359682541947965 -0.0076501555929380238 0 -0.0076501555929380238 0.062173283502701793 0 0 0 0.033942527230545361 0.032169591496820665 -0.0085562611246132736 0 -0.0085562611246132736 0.096431045960298778 0 0 0 0.032150159364279854 0.10483155396447286 -0.0089979052939459497 0 -0.0089979052939459497 0.068189386603332292 0 0 0 0.043255235141951287 0.085764364595765225 -0.013998652663677058 0 -0.013998652663677058 0.066596931418653374 0 0 0 0.038090324003604709 0.068070381140359348 -0.0057504734020186188 0 -0.0057504734020186188 0.052120700184848268 0 0 0 0.030047770331302015 0.042077174393558125 -0.0060872464559076911 0 -0.0060872464559076911 0.022810669929316685 0 0 0 0.016221961080718661 0.05735805119052112 -0.013474057582978149 0 -0.013474057582978149 0.025975747783361758 0 0 0 0.020833449743470733 0.07310632466281633 -0.0064659297313278685 0 -0.0064659297313278685 0.066150321767899922 0 0 0 0.034814161607679001 0.067648331115000154 -0.0015596589487814616 0 -0.0015596589487814616 0.031521714950104598 0 0 0 0.024792511516276171 0.048433756038988696 -0.012847816705073872 0 -0.012847816705073872 -0.00087322817257240448 0 0 0 0.011890131966604045 0.086210300222389916 -0.014157680627933211 0 -0.014157680627933211 0.064833999330855652 0 0 0 0.037761074888311388 0.12298284767840922 -0.0021785971973902196 0 -0.0021785971973902196 0.06997185250518545 0 0 0 0.048238675045898682 0.088293771706089902 -0.016755618658371052 0 -0.016755618658371052 0.046370882039887061 0 0 0 0.033666163436494229 0.065568835279085996 0.0031216231642076653 0 0.0031216231642076653 0.0041654122486440848 0 0 0 0.017433561881932513 0.085915426899417946 -0.014471442720590311 0 -0.014471442720590311 0.060389104411965211 0 0 0 0.036576132827845942 0.03831821468552199 -0.0083867274275956447 0 -0.0083867274275956447 0.11416004796600406 0 0 0 0.038119565662881522 0.12484447580213254 -0.0035702024969775795 0 -0.0035702024969775795 0.078354214922154775 0 0 0 0.050799672681071772 0.09604489621563328 0.0067464671570787171 0 0.0067464671570787171 0.06229984040389791 0 0 0 0.039586184154882798 0.07058497431108135 -0.0078980622658418875 0 -0.0078980622658418875 0.027876836125116711 0 0 0 0.024615452609049626 0.049476232092944522 0.00359615480235842 0 0.00359615480235842 0.0028229804374320842 0 0 0 0.013074803132594039 0.045073558653963564 -0.008702792926213565 0 -0.008702792926213565 0.013623857797600003 0 0 0 0.014674354112890864 0.060636216997993264 -0.00016323964532116708 0 -0.00016323964532116708 0.025932755084415504 0 0 0 0.021642243020602248 0.027579472260003346 -0.0022392725273607805 0 -0.0022392725273607805 0.0024815578020440654 0 0 0 0.0075152575155117418 0.01044185414862675 -0.0067274433482749085 0 -0.0067274433482749085 -0.0070233718280969804 0 0 0 0.00085462058013241471 0.011783229273942153 -0.0094014602818849654 0 -0.0094014602818849654 -0.0029992464520240958 0 0 0 0.0021959957054793477 0.023455983845245217 -0.0046596343439277987 0 -0.0046596343439277987 -0.01195460586095716 0 0 0 0.0028753444960720139 0.027615694956106829 -0.013676226526209367 0 -0.013676226526209367 0.0037298961723974955 0 0 0 0.0078363977821261921 0.010445881171555038 -0.014905448779918062 0 -0.014905448779918062 0.0020532993697559565 0 0 0 0.0031247951353278736 0.0099237194942791707 -0.014939568864714148 0 -0.014939568864714148 0.00045645294096963163 0 0 0 0.0025950431088122006 0.021008927175713898 -0.016355731089372383 0 -0.016355731089372383 0.005600415976874995 0 0 0 0.0066523357881472789 0.041742668709402714 -0.012602114733803682 0 -0.012602114733803682 0.020564593971337863 0 0 0 0.015576815670185123 0.053591687293427781 -0.016082677576323423 0 -0.016082677576323423 0.023429393293045386 0 0 0 0.01925527014661832 0.032459680750328346 -0.0075749771542674149 0 -0.0075749771542674149 0.010530598147909132 0 0 0 0.010747569724559147 0.00038315195162574867 -0.0026691488812902175 0 -0.0026691488812902175 0.0019013731663037881 0 0 0 0.00057113127948227316 -0.00050363994576108073 -0.0014559707634866914 0 -0.0014559707634866914 -0.00045131197884673568 0 0 0 -0.00023873798115203737 0.00046497066802030074 -0.001148255707341006 0 -0.001148255707341006 -2.8381482101089415e-05 0 0 0 0.00010914729647991385 0.0017727352434944166 -0.0018790360833778053 0 -0.0018790360833778053 -0.0012882534203435547 0 0 0 0.00012112045578782649 -0.0025813917546104737 -0.0043707936465571251 0 -0.0043707936465571251 -0.002293312634791711 0 0 0 -0.0012186760973504907 0.00097639988696873736 -0.0061515236158576903 0 -0.0061515236158576903 -0.0044048368223448264 0 0 0 -0.00085710923384407778 0.0063518980858296992 -0.0051779012818616021 0 -0.0051779012818616021 -0.0032547928913713164 0 0 0 0.00077427629861404057 0.0012871167855541276 -0.003160169636067689 0 -0.003160169636067689 -0.0061479112501351095 0 0 0 -0.0012151986161455231 0.0034636813885747623 -0.0050166463647611792 0 -0.0050166463647611792 -0.012229837663592921 0 0 0 -0.002191539068754484 0.00046369952950642279 -0.010826691835100155 0 -0.010826691835100155 -0.0067920632251317059 0 0 0 -0.0015820909239063763 -0.0038931553101640426 -0.01494965019524841 0 -0.01494965019524841 -0.0017102431350368708 0 0 0 -0.0014008496113002145 -0.012744371736830074 -0.010444048808118334 0 -0.010444048808118334 -0.0022555581441765504 0 0 0 -0.0037499824702516005 0.0011300792415630534 -0.009406957785010106 0 -0.009406957785010106 -0.0025543154404839008 0 0 0 -0.00035605904973012859 -0.0025663073923870017 -0.0095733930226351571 0 -0.0095733930226351571 0.00096598975306688706 0 0 0 -0.00040007940982994539 -0.0063435731071372486 -0.0046316893817255345 0 -0.0046316893817255345 -0.00083515731951611105 0 0 0 -0.0017946826066634475 -0.015552842048963234 -0.0049112698512371036 0 -0.0049112698512371036 -0.0011337598335203758 0 0 0 -0.0041716504706208468 -0.0057715027870091085 -0.003862392340662657 0 -0.003862392340662657 0.0021272010747392933 0 0 0 -0.00091107542806745379 -0.026837508168146007 -0.0054323737836973847 0 -0.0054323737836973847 0.0023662567252675792 0 0 0 -0.0061178128607193294 -0.0090454363836387497 -0.0076390862007950089 0 -0.0076390862007950089 0.0026882452064360685 0 0 0 -0.0015892977943007258 -0.012352683790611441 -0.011516362710524364 0 -0.011516362710524364 0.0016169514525816719 0 0 0 -0.0026839330845074838 -0.022982899654837394 -0.0061809292495678125 0 -0.0061809292495678125 -0.0021932367988730661 0 0 0 -0.0062940341134277017 -0.014830888062491221 -0.014030841286458873 0 -0.014030841286458873 -0.00065194703756032979 0 0 0 -0.0038707087750129432 -0.0027341637094298044 -0.015121229617615223 0 -0.015121229617615223 0.0026310412553369744 0 0 0 -2.5780613523207485e-05 -0.0055899600173417996 -0.018218021486569924 0 -0.018218021486569924 0.0022870084165398374 0 0 0 -0.00082573790020046278 -0.0053348508580681742 -0.017560672878447425 0 -0.017560672878447425 0.0021691199045348331 0 0 0 -0.0007914327383834463 -0.0155537576507945 -0.014415491353977572 0 -0.014415491353977572 -0.00075692767601361066 0 0 0 -0.0040776713317020284 -0.015782390866270979 -0.016788996100648226 0 -0.016788996100648226 0.0015718309461729696 0 0 0 -0.0035526399800245301 -0.0055573923752292725 -0.020224865333514641 0 -0.020224865333514641 0.0054798995963758201 0 0 0 -1.9373194713276365e-05 -0.020195398870103354 -0.016426217862209935 0 -0.016426217862209935 0.0010948680050211212 0 0 0 -0.0047751327162705026 -0.025978976278341226 -0.010315649094069901 0 -0.010315649094069901 0.001001959809249886 0 0 0 -0.0062442541172728072 -0.03041966253740791 -0.0085767022549084193 0 -0.0085767022549084193 -0.0018110852446802106 0 0 0 -0.0080576869455220024 -0.031103087896969139 -0.0085648825829570674 0 -0.0085648825829570674 0.0031174576481651783 0 0 0 -0.0069964075622009902 -0.042107664571071068 -0.0046930648540484702 0 -0.0046930648540484702 -0.00048826056995743272 0 0 0 -0.010648981285257042 -0.02769183023589894 -0.0045660339321169641 0 -0.0045660339321169641 0.00098761866407537369 0 0 0 -0.0066760528929560303 0.030714080234966634 -0.020020473486292101 0 -0.020020473486292101 0.014220944358200649 0 0 0 0.011233756148291751 0.020490272313211322 -0.017725028476060167 0 -0.017725028476060167 0.012181087020106229 0 0 0 0.0081678398333295821 0.034776064175507049 -0.019261299398217135 0 -0.019261299398217135 0.028487619421003529 0 0 0 0.015815920899127534 0.027329432376175244 -0.020630277099413008 0 -0.020630277099413008 0.013760931822694999 0 0 0 0.010272591049717561 0.0062451286136753215 -0.018085837559809158 0 -0.018085837559809158 0.0036936552461193095 0 0 0 0.0024846959649487133 0.0058799120753246781 -0.018105953871858094 0 -0.018105953871858094 0.0025989072007661651 0 0 0 0.002119704819022572 0.018089444495711926 -0.021043020186880756 0 -0.021043020186880756 0.0069099844686146827 0 0 0 0.0062498572410817355 0.013829253090827165 -0.022160732567157448 0 -0.022160732567157448 0.0069012418130387498 0 0 0 0.005182623725966562 0.0038759414506485679 -0.019641601589758473 0 -0.019641601589758473 0.0054079808882612213 0 0 0 0.0023209805847273501 0.0025816919035945851 -0.018648040158461471 0 -0.018648040158461471 0.0023175902398433479 0 0 0 0.0012248205358593722 0.0027974930897152195 -0.017553914753280164 0 -0.017553914753280164 0.0048741066452924198 0 0 0 0.0019178999337517988 0.027180107139654908 -0.020511610597073689 0 -0.020511610597073689 0.012539108925258891 0 0 0 0.0099298040162283385 0.015986303288817449 -0.018943134501827275 0 -0.018943134501827275 0.012992408929372923 0 0 0 0.0072446780545475375 0.042610371095267552 -0.016048525303481775 0 -0.016048525303481775 0.024668170113754995 0 0 0 0.016819635302255498 0.030228798058639317 -0.018588424646142965 0 -0.018588424646142965 0.022582812935898922 0 0 0 0.013202902748634449 0.040006303619360972 -0.015332536252769091 0 -0.015332536252769091 0.020619084386712672 0 0 0 0.015156347001518244 0.027543477832739804 -0.020782399590849265 0 -0.020782399590849265 0.014632600233956961 0 0 0 0.010544019516674163 0.030768530937542601 -0.0160759098467953 0 -0.0160759098467953 0.015707617935559873 0 0 0 0.011619037218275716 0.037659146926338094 -0.018554231986504882 0 -0.018554231986504882 0.015791749005526601 0 0 0 0.013362723982966229 0.01665342327970043 -0.021835737749614448 0 -0.021835737749614448 0.0093016135013392898 0 0 0 0.006488759195260041 0.018789596459825808 -0.017431868954891128 0 -0.017431868954891128 0.012415223707546108 0 0 0 0.0078012050418430068 0.014046194885109331 -0.022757931208343463 0 -0.022757931208343463 0.0069686504430175877 0 0 0 0.0052537113320319517 -0.0020267375228577023 -0.021783565778031366 0 -0.021783565778031366 0.0044196791587138851 0 0 0 0.00059823540896408733 -0.005246404634024605 -0.016800448732831819 0 -0.016800448732831819 0.0030971428874378079 0 0 0 -0.00053731543664671359 0.013735800606268667 -0.017984512686462534 0 -0.017984512686462534 0.0073334563429532373 0 0 0 0.0052673142373054205 0.0022013978823675062 -0.023384741276881671 0 -0.023384741276881671 0.0040443227919959579 0 0 0 0.0015614301685908938 0.011514593802762464 -0.017442728661392515 0 -0.017442728661392515 0.0061663007722656954 0 0 0 0.0044202236437569722 -0.0053207441797094579 -0.018347467334471512 0 -0.018347467334471512 0.0029604608627986639 0 0 0 -0.00059007082922774012 -0.0041777360966308019 -0.020982906011292331 0 -0.020982906011292331 0.0079420520924236016 0 0 0 0.00094107899894818603 0.033631863631795322 -0.019082485639550402 0 -0.019082485639550402 0.010725711347804312 0 0 0 0.011089393744899811 0.036704344662206373 -0.01551514690803385 0 -0.01551514690803385 0.016443390132352964 0 0 0 0.013286933698639841 0.031945641999453933 -0.015821906754867887 0 -0.015821906754867887 0.018118222941184481 0 0 0 0.012515966235159603 0.012656747084644399 -0.021609408559111976 0 -0.021609408559111976 0.0087220126072675708 0 0 0 0.0053446899229780687 0.02922022218364384 -0.017922666773828144 0 -0.017922666773828144 0.010791056511424868 0 0 0 0.01000281967376726 -0.044111840328609875 -0.0084150832781595408 0 -0.0084150832781595408 0.0020101692427845208 0 0 0 -0.01052541777145638 -0.051760180325307298 -0.0044791914084033602 0 -0.0044791914084033602 -0.00072735256150949917 0 0 0 -0.013121883221704185 -0.043072746736692515 -0.0048310014540882129 0 -0.0048310014540882129 -0.0013682140068266291 0 0 0 -0.011110240185879729 -0.055449074698878276 -0.0057326733271074902 0 -0.0057326733271074902 0.0018392877788846462 0 0 0 -0.013402446729998463 -0.032741187877183497 -0.0074291126578697742 0 -0.0074291126578697742 -0.0019104110899186288 0 0 0 -0.0086628997417754761 -0.020295558053851859 -0.013928072000004531 0 -0.013928072000004531 0.0020596868834314996 0 0 0 -0.0045589677926051175 -0.032811407952636706 -0.014413982936687719 0 -0.014413982936687719 0.001963001199630332 0 0 0 -0.0077121016882516491 -0.015421227102193402 -0.015365894405227842 0 -0.015365894405227842 0.0010307936007432073 0 0 0 -0.0035976083753626042 -0.018628189535356832 -0.019992976562715981 0 -0.019992976562715981 0.0038117482293273941 0 0 0 -0.0037041103265074704 -0.021885675654726933 -0.017306316292052815 0 -0.017306316292052815 0.0034410547020122806 0 0 0 -0.0046111552381786769 -0.01873829548657957 -0.014930769799675947 0 -0.014930769799675947 0.0035873740243039798 0 0 0 -0.0037877303655688976 -0.019756288547783246 -0.019520287358815946 0 -0.019520287358815946 0.0069271162527590746 0 0 0 -0.0032072930737559735 -0.027579568343860893 -0.011539983973335499 0 -0.011539983973335499 0.0019946459824113014 0 0 0 -0.0063962305903624388 -0.037633312859813584 -0.014483640140576459 0 -0.014483640140576459 0.0032319574135837303 0 0 0 -0.0086003388615574772 -0.037248557999154053 -0.01219383570839816 0 -0.01219383570839816 0.0010335083877230922 0 0 0 -0.0090537624028577124 -0.037822940306705133 -0.012998108978405254 0 -0.012998108978405254 0.0022115239917269713 0 0 0 -0.008902854078744582 -0.054618266970408835 -0.007606576951612376 0 -0.007606576951612376 0.0013684680090255696 0 0 0 -0.013312449740345844 -0.052759003997271847 -0.0045650810083007198 0 -0.0045650810083007198 0.00071259811467416778 0 0 0 -0.013011601470649503 -0.065657194439435185 -0.0074687192631096577 0 -0.0074687192631096577 0.0011893598226691005 0 0 0 -0.016116958654191493 -0.088960840524298201 -0.004321114099131074 0 -0.004321114099131074 0.0015082876289194136 0 0 0 -0.021863138223844725 -0.074952108135329265 -0.005352159911325787 0 -0.005352159911325787 0.0013509035580352435 0 0 0 -0.018400301144323505 -0.061794643771656665 -0.0025030809449255731 0 -0.0025030809449255731 0.00034201196139360679 0 0 0 -0.015363157952565765 -0.054599743807763654 -0.012349220722595977 0 -0.012349220722595977 0.0044302100242750719 0 0 0 -0.012542383445872145 -0.043820056239089245 -0.0081461498077615158 0 -0.0081461498077615158 0.0011230281172027734 0 0 0 -0.01067425703047159 -0.023498912682066053 -0.012356171635884983 0 -0.012356171635884983 0.0039299190327093392 0 0 0 -0.0048922484123391508 -0.027434937210985111 -0.017234572741485293 0 -0.017234572741485293 0.0080097741773943465 0 0 0 -0.0048562907583976633 -0.024915757512157646 -0.015000974577972614 0 -0.015000974577972614 0.014173454383195561 0 0 0 -0.0026855757822405041 -0.033557912750823468 -0.0084913337443732195 0 -0.0084913337443732195 0.00095676079380152546 0 0 0 -0.0081502879892554753 -0.033903636841331554 -0.01033819642069439 0 -0.01033819642069439 0.0060431815341115691 0 0 0 -0.0069651138268050569 -0.04714799202162348 -0.00076671351159231238 0 -0.00076671351159231238 0.0076936008969583636 0 0 0 -0.0098635977811662445 -0.048449354801937503 -0.010652241410313637 0 -0.010652241410313637 0.0061906107874937222 0 0 0 -0.010564686003610949 -0.062907905148433696 -0.0056225504367817813 0 -0.0056225504367817813 0.0015153623022687301 0 0 0 -0.015348135711541283 -0.058256811494541316 -0.0019429162047929355 0 -0.0019429162047929355 0.0014088551115682968 0 0 0 -0.014211989095743283 -0.086804524976960257 -0.002366231980447778 0 -0.002366231980447778 0.0021061725095285477 0 0 0 -0.021174588116857906 0.015856045177956135 -0.017019057441510166 0 -0.017019057441510166 0.012221929341894477 0 0 0 0.0070194936299626809 0.041911323989825527 -0.029610443925198585 0 -0.029610443925198585 0.024870120438675813 0 0 0 0.016695361107125356 0.014520043372701665 -0.022353637906659729 0 -0.022353637906659729 0.012852241166244657 0 0 0 0.0068430711347365683 0.011304024153930198 -0.017244719456113722 0 -0.017244719456113722 0.0061005088516701833 0 0 0 0.0043511332514001022 -0.0093915018904747183 -0.0176021761773037 0 -0.0176021761773037 0.0062113530638374659 0 0 0 -0.00079503720665929922 -0.0077250924257593057 -0.018239035941990722 0 -0.018239035941990722 0.011380296581813609 0 0 0 0.00091380103901356202 0.0090995160760015473 -0.023095144431859393 0 -0.023095144431859393 0.01521581969726471 0 0 0 0.0060788339433165764 -0.0074170630569068974 -0.011448089318767785 0 -0.011448089318767785 0.01563069140064377 0 0 0 0.002053407085934239 -0.029869777546028015 -0.0064529361268563512 0 -0.0064529361268563512 0.006433859805635378 0 0 0 -0.0058589794350981939 -0.021158194963024599 -0.0033483977770349116 0 -0.0033483977770349116 0.010972354348717725 0 0 0 -0.0025464601535767108 -0.012402556202597254 -0.016376732502520433 0 -0.016376732502520433 0.018496344150123023 0 0 0 0.0015234469868814493 0.013195174486442918 -0.018793466383544347 0 -0.018793466383544347 0.022704151507442094 0 0 0 0.0089748314984712529 0.014011496125699879 -0.017210368368493024 0 -0.017210368368493024 0.023783182734275821 0 0 0 0.0094486697149938903 0.035528509051035551 -0.024401634426800489 0 -0.024401634426800489 0.035177573198797135 0 0 0 0.017676520562458178 0.050003810303119962 -0.040818106716999314 0 -0.040818106716999314 0.073342210418686632 0 0 0 0.030836505180451633 -0.04278940136593852 0.0086058901716739855 0 0.0086058901716739855 0.040262680026927511 0 0 0 -0.000631680334752735 0.1216500135810025 -0.039530675461214776 0 -0.039530675461214776 0.033679562466618518 0 0 0 0.038832394011905275 0.0028985557284871375 -0.0016074268960109958 0 -0.0016074268960109958 0.0085452375894580837 0 0 0 0.0028609483294863057 0.059848469175033815 -0.020849915566437449 0 -0.020849915566437449 0.0065720219192577367 0 0 0 0.016605122773572907 0.052347282611682949 -0.015520799745518205 0 -0.015520799745518205 0.015605814192746204 0 0 0 0.016988274201107295 0.0071246670439101363 -0.0041687212201484813 0 -0.0041687212201484813 0.021326543659091497 0 0 0 0.0071128026757504076 0.082969419159974744 -0.011937227693883778 0 -0.011937227693883778 0.018573164960801858 0 0 0 0.02538564603019422 0.0099137241656201795 -0.005889145516918352 0 -0.005889145516918352 0.029676878562610719 0 0 0 0.0098976506820577237 0.057590326235241768 -0.010679902322457635 0 -0.010679902322457635 0.021141760157015965 0 0 0 0.019683021598064426 0.052507579645319824 -0.017586997601579002 0 -0.017586997601579002 0.01259961312821678 0 0 0 0.016276798193384179 0.0020473523102167018 -0.010422137374985152 0 -0.010422137374985152 0.013256888774238584 0 0 0 0.003826060271113832 -0.011363062983872241 -0.014010022240725454 0 -0.014010022240725454 0.02086991559370488 0 0 0 0.0023767131524581875 0.0027581039550826497 -0.010945276438300372 0 -0.010945276438300372 0.017406395171269157 0 0 0 0.005041124781587969 -0.024452285232406321 -0.013663488619582255 0 -0.013663488619582255 0.013417975920899688 0 0 0 -0.0027585773278766546 0.0034358212306929078 -0.004051181008580193 0 -0.004051181008580193 0.027475504171256049 0 0 0 0.007727831350487234 -0.0010748832816420903 -0.0021660539075597923 0 -0.0021660539075597923 0.0073102811801733919 0 0 0 0.0015588494746328271 -0.01400531292211362 -0.0074077050895847499 0 -0.0074077050895847499 0.073611858982069817 0 0 0 0.01490163651498904 0.0030261417064056497 0.0033686639930596701 0 0.0033686639930596701 0.028831527421738098 0 0 0 0.0079644172820359342 0.010213506767646173 -0.0051316579083601141 0 -0.0051316579083601141 0.011650210816719075 0 0 0 0.0054659293960913138 0.014952823604826831 -0.0064454956652597907 0 -0.0064454956652597907 0.029765146534614512 0 0 0 0.011179492534860336 0.011105019374866326 -0.0058608843676123262 0 -0.0058608843676123262 0.028301731034391341 0 0 0 0.0098516876023144045 0.017084800262353025 -0.0083026532150338034 0 -0.0083026532150338034 0.031594178965397901 0 0 0 0.012169744806937735 0.016104548527714889 -0.0079102278309971172 0 -0.0079102278309971172 0.042600631347541509 0 0 0 0.0146762949688141 0.025476804859894876 -0.015722633027885697 0 -0.015722633027885697 0.032339693415868204 0 0 0 0.014454124568940761 0.027333865327910819 -0.017339975229324053 0 -0.017339975229324053 0.019218165215860387 0 0 0 0.011638007635942801 0.020662948442072046 -0.010521932054952707 0 -0.010521932054952707 0.018706407900540095 0 0 0 0.0098423390856530457 0.020456542475262983 -0.014325369716868278 0 -0.014325369716868278 0.015353821843374332 0 0 0 0.0089525910796593305 0.019190086253173172 -0.010240708079692531 0 -0.010240708079692531 0.01439020225274415 0 0 0 0.0083950721264793166 0.020717009674275158 -0.013537181155116901 0 -0.013537181155116901 0.0090889663529172479 0 0 0 0.0074514940067981084 0.0085285100647420828 -0.013479048360404984 0 -0.013479048360404984 0.014345509869229611 0 0 0 0.0057185049834929183 0.01767858956112793 -0.012646081699616132 0 -0.012646081699616132 0.011165744349942108 0 0 0 0.0072110834777675131 0.016119352360182984 -0.014281476520209703 0 -0.014281476520209703 0.0074323383135097287 0 0 0 0.0058879226684231817 0.010940794937719461 -0.013981225664921479 0 -0.013981225664921479 0.011370128927377654 0 0 0 0.0055777309662742858 0.018067033456289627 -0.015460765737024471 0 -0.015460765737024471 0.0064820651270297014 0 0 0 0.0061372746458298322 0.017067023462495251 -0.014390097515618303 0 -0.014390097515618303 0.0077076958167966447 0 0 0 0.006193679819822967 0.015531398239513772 -0.015276363116969338 0 -0.015276363116969338 0.011517118343938371 0 0 0 0.0067621291458630217 0.027276732651712376 -0.013409544291769958 0 -0.013409544291769958 0.0054901234643663921 0 0 0 0.0081917140290197477 0.023092769697625276 -0.014769783378370593 0 -0.014769783378370593 0.010152580576562431 0 0 0 0.0083113375685469337 0.02162223761324486 -0.014099516129030418 0 -0.014099516129030418 0.0064815366399763041 0 0 0 0.007025943563305298 0.023998962919091024 -0.013579871782017167 0 -0.013579871782017167 0.0042850780362125168 0 0 0 0.0070710102388259061 0.025388530821849241 -0.014376686361137203 0 -0.014376686361137203 0.0050144649776237282 0 0 0 0.0076007489498682492 0.022725847136811278 -0.0083529321318273619 0 -0.0083529321318273619 -0.0013358902838853659 0 0 0 0.0053474892132314711 0.019381494088860557 -0.013049312831633325 0 -0.013049312831633325 0.0026396342466709632 0 0 0 0.0055052820838828731 0.025338929292693782 -0.010962965611866021 0 -0.010962965611866021 0.0036461482925848263 0 0 0 0.007246269396319685 0.016022241308878804 -0.01381240346394999 0 -0.01381240346394999 0.012631464006517601 0 0 0 0.0071634263288490874 0.020512806219848162 -0.013256756964977981 0 -0.013256756964977981 0.0071436565259969109 0 0 0 0.0069141156864612752 0.016224325218972914 -0.015029200578655227 0 -0.015029200578655227 0.0077058834035844542 0 0 0 0.0059825521556393438 0.017645610663588079 -0.012465149158621014 0 -0.012465149158621014 0.0058746653420976847 0 0 0 0.0058800690014214063 0.01752245764786392 -0.01337022010630267 0 -0.01337022010630267 0.012630821696868577 0 0 0 0.0075383198361831383 0.020260965216449323 -0.01266529131645967 0 -0.01266529131645967 0.013694405601912263 0 0 0 0.008488842704590327 0.020293849666409541 -0.012699523232112986 0 -0.012699523232112986 0.022746354541830938 0 0 0 0.010760051052060154 0.015131256155343276 -0.013992242567271107 0 -0.013992242567271107 0.020447202641969864 0 0 0 0.0088946146993283404 0.016701038237826649 -0.013374744170511293 0 -0.013374744170511293 0.017588449390025462 0 0 0 0.0085723719069630278 0.019648580967446372 -0.010004619772701923 0 -0.010004619772701923 0.034519131000097791 0 0 0 0.013541927991886027 0.057672457274496214 -0.011146765471402253 0 -0.011146765471402253 0.03357775886310399 0 0 0 0.022812554034399968 0.015655672079586944 -0.0079744310519166712 0 -0.0079744310519166712 0.046882769930838654 0 0 0 0.015634610502606401 0.023336669201458493 -0.011250372773945517 0 -0.011250372773945517 0.036383520680228321 0 0 0 0.014930047470421703 0.04432304117516489 -0.014378384081713103 0 -0.014378384081713103 0.037018582956613644 0 0 0 0.020335406032944758 0.045636554644621796 -0.012226254431200734 0 -0.012226254431200734 0.030896950096407805 0 0 0 0.019133376185257456 0.060541419105321237 -0.0092244510969844984 0 -0.0092244510969844984 0.027716247804287053 0 0 0 0.022064416727402003 0.0065230693611523782 -0.011749652423274831 0 -0.011749652423274831 0.0298028337655456 0 0 0 0.0090814757816745084 0.012673886381390009 -0.0071272995930438269 0 -0.0071272995930438269 0.037953005010312506 0 0 0 0.012656722847925628 0.050594444557607809 -0.010518559655103565 0 -0.010518559655103565 0.026926000844685771 0 0 0 0.019380111350573381 0.044755126414712465 -0.015905799656507902 0 -0.015905799656507902 0.013907284160391442 0 0 0 0.014665602643775921 0.06583672432028731 -0.0092761360154067218 0 -0.0092761360154067218 0.022123402706230144 0 0 0 0.021990031756629391 0.0039880996841478063 -0.011803491279701345 0 -0.011803491279701345 0.021022603934514855 0 0 0 0.0062526759046656506 0.0087955961324363216 -0.015443052164818338 0 -0.015443052164818338 0.011390674429168635 0 0 0 0.0050465676404012269 0.0082870133333659002 -0.014770072111479432 0 -0.014770072111479432 0.01438814375446551 0 0 0 0.0056687892719578803 0.012647905732867004 -0.012224315429891372 0 -0.012224315429891372 0.023949048948043616 0 0 0 0.0091492386702276829 
</DataArray>
<DataArray type="Float64" Name="cross_section_updated" format="ascii">
1 1 1 1 1 1 1 1 1 1 1 1 1 1 1 1 1 1 1 1 1 1 1 1 1 1 1 1 1 1 1 1 1 1 1 1 1 1 1 1 1 1 1 1 1 1 1 1 1 1 1 1 1 1 1 1 1 1 1 1 1 1 1 1 1 1 1 1 1 1 1 1 1 1 1 1 1 1 1 1 1 1 1 1 1 1 1 1 1 1 1 1 1 1 1 1 1 1 1 1 1 1 1 1 1 1 1 1 1 1 1 1 1 1 1 1 1 1 1 1 1 1 1 1 1 1 1 1 1 1 1 1 1 1 1 1 1 1 1 1 1 1 1 1 1 1 1 1 1 1 1 1 1 1 1 1 1 1 1 1 1 1 1 1 1 1 1 1 1 1 1 1 1 1 1 1 1 1 1 1 1 1 1 1 1 1 1 1 1 1 1 1 1 1 1 1 1 1 1 1 1 1 1 1 1 1 1 1 1 1 1 1 1 1 1 1 1 1 1 1 1 1 1 1 1 1 1 1 1 1 1 1 1 1 1 1 1 1 1 1 1 1 1 1 1 1 1 1 1 1 1 1 1 1 1 1 1 1 1 1 1 1 1 1 1 1 1 1 1 1 1 1 1 1 1 1 1 1 1 1 1 1 1 1 1 1 1 1 1 1 1 1 1 1 1 1 1 1 1 1 1 1 1 1 1 1 1 1 1 1 1 1 1 1 1 1 1 1 1 1 1 1 1 1 1 1 1 1 1 1 1 1 1 1 1 1 1 1 1 1 1 1 1 1 1 1 1 1 1 1 1 1 1 1 1 1 1 1 1 1 1 1 1 1 1 1 1 1 1 1 1 1 1 1 1 1 1 1 1 1 1 1 1 1 1 1 1 1 1 1 1 1 1 1 1 1 1 1 1 1 1 1 1 1 1 1 1 1 1 1 1 1 1 1 1 1 1 1 1 1 1 1 1 1 1 1 1 1 1 1 1 1 1 1 1 1 1 1 1 1 1 1 1 1 1 1 1 1 1 1 1 1 1 1 1 1 1 1 1 1 1 1 1 1 1 1 1 1 1 1 1 1 1 1 1 1 1 1 1 1 1 1 1 1 1 1 1 1 1 1 1 1 1 1 1 1 1 1 1 1 1 1 1 1 1 1 1 1 1 1 1 1 1 1 1 1 1 1 1 1 1 1 1 1 1 1 1 1 1 1 1 1 1 1 1 1 1 1 0.0020258779122553049 1 1 0.0020674327198029535 1 1 0.0020970406362030561 1 1 1 1 1 1 1 1 1 1 1 1 1 0.0021250084458502268 1 1 1 1 1 0.0021535709256660178 1 1 1 1 1 1 1 1 1 1 1 1 1 1 1 1 1 1 1 1 1 1 1 1 1 1 1 1 1 1 1 1 1 1 1 1 1 1 1 1 1 1 1 1 1 1 1 1 1 1 1 1 1 1 1 1 1 1 1 1 1 1 1 1 1 1 1 1 1 1 1 1 1 1 1 1 1 1 1 1 1 1 1 1 1 1 1 1 1 1 1 1 1 1 1 1 1 1 1 1 1 1 1 1 1 1 1 1 1 1 1 1 1 1 1 1 1 1 1 1 1 1 1 1 1 1 1 1 1 1 1 1 1 1 1 1 1 1 1 1 1 1 1 1 1 1 1 1 1 1 1 1 1 1 1 1 1 1 1 1 1 1 1 1 1 1 1 1 0.0021832265087605744 1 1 1 0.0022145058093097809 1 1 0.0022475037981726986 1 1 1 1 1 1 1 1 1 1 1 0.0022827969566857368 1 1 1 1 0.0023215978784860212 1 1 1 1 1 1 1 1 1 1 1 1 1 1 1 1 1 1 1 1 1 1 1 1 1 1 1 1 1 1 1 1 1 1 1 1 1 1 1 1 1 1 1 1 1 1 1 1 1 1 1 1 1 1 1 1 1 1 0.0010474470452577012 1 1 1 1 1 1 1 1 1 1 1 1 1 1 0.0010678464094158932 1 1 0.0010570116544815792 1 0.0010803511082450236 1 1 1 1 1 1 1 1 1 1 1 1 1 0.0010950506028789032 1 1 1 1 1 1 1 1 1 1 1 1 1 1 1 1 1 1 1 1 1 1 1 1 1 1 1 1 1 1 1 1 1 1 1 1 1 1 1 1 1 1 1 1 1 1 1 1 1 1 1 1 1 1 1 1 1 1 1 1 1 1 1 1 1 1 1 1 1 1 1 1 1 1 1 1 1 1 1 1 1 1 1 1 1 1 1 1 1 1 1 1 1 1 1 1 1 1 1 1 1 1 1 1 1 1 1 1 1 1 1 1 1 1 1 1 1 1 1 1 1 1 1 1 1 1 1 1 1 1 1 1 1 1 1 1 0.0010071053615749647 1 1 0.0010177671762291764 1 0.0010247240348506914 1 1 1 1 1 1 1 1 1 1 1 1 1 1 1 1 1 1 1 1 1 1 1 1 1 1 1 1 1 1 1 1 1 1 1 1 1 1 1 1 1 1 1 1 1 1 1 0.0010390601992852904 1 1 1 1 1 0.0010316203527029836 1 1 1 1 1 1 1 
</DataArray>
<DataArray type="Float64" Name="displacement_divergence" format="ascii">
-2.1595746412602359e-05 -2.4393220185748562e-05 -1.8453274526725355e-05 -2.1557235086114506e-05 -2.0964849662089023e-05 -2.0954292011849759e-05 -1.9404504658362251e-05 -2.0104203485018104e-05 -1.8685480552547457e-05 -1.4280586103181036e-05 -2.0792439169989918e-05 -1.3469416038377471e-05 -2.521315744045962e-05 -1.9090817643151805e-05 -3.0237270616605315e-05 -2.3540679545029492e-05 -2.0318157879119565e-05 -2.2159725724756707e-05 -3.6695045085177299e-06 -6.2938531124526893e-06 -6.8479082527863151e-06 -1.1840368716544966e-05 -1.3740109383940237e-05 -8.5737795816774658e-06 -1.002527138184099e-05 -1.2542002618952679e-05 -1.3683446107936586e-05 -1.217714471958533e-05 -5.3925390252480799e-06 -6.2313269190220812e-06 -3.3541228786091793e-06 -4.1665665099603181e-07 -1.5462229514051846e-06 -1.1446026941543098e-06 -6.5487284181760228e-06 -1.3682942785799972e-05 -1.1194778469394024e-05 -7.0098185286205885e-06 -1.2821761067256943e-05 -1.5145103967941363e-05 -1.1070289621605248e-05 -7.4806246434003617e-06 -7.0827086615679423e-06 -1.784176407886624e-06 -7.6066011876258603e-06 -4.7170432705852104e-06 3.0052231167431825e-06 -1.1281898276846721e-06 -3.0496129519738685e-05 -2.3239012899360358e-05 -3.4667682456712993e-05 -2.2643950108693184e-05 -1.7781296489432762e-05 -1.9491398722522061e-05 -1.981958229017303e-05 -2.2006332002723937e-05 -1.623472190534462e-05 -2.3948155104734864e-05 -1.9186624415830899e-05 -2.2458109485465579e-05 -3.2480029192833623e-05 -3.076623175772208e-05 -2.9014753688794393e-05 -3.9867021671168145e-05 -4.2561906410980508e-05 -3.0155699515194767e-05 -3.5354761977818713e-05 -4.812151892249911e-05 -3.6388466932643149e-05 -3.7732815743825974e-05 -3.8246758447109234e-05 -5.5404869254714853e-05 -2.1347607580344662e-05 -1.7710286396515998e-05 -2.8490038861674051e-05 -2.7154949288098213e-05 -1.7773506718597042e-05 -3.0819205674472026e-05 -2.7399475191983191e-05 -2.3354280937137628e-05 -1.692446688440973e-05 -1.1126446029263835e-05 -1.0672819455414666e-05 -8.9018409976066226e-06 -4.9458275618324391e-06 -1.7782066355412759e-05 1.4997861343159021e-06 -1.678442308857651e-06 -1.9994836574778227e-06 6.5380250689888472e-06 2.7235562756965744e-06 4.9640585917554186e-07 7.6938018843977933e-06 1.0426230538324865e-05 -9.9114983731028847e-06 -1.4367103376286731e-05 -2.3003894279393836e-06 -5.1677276120955338e-06 -7.3076985371508756e-06 -1.0935502413193584e-05 -1.1135715167563795e-06 -1.0461298099072362e-05 2.0541857367040182e-05 5.7151409922813896e-07 7.7970018901533307e-06 1.3678756991009658e-05 2.1933345881252274e-05 1.7512763080127817e-05 1.5812838985012354e-05 1.7390630663042752e-05 3.6220594810235031e-05 -3.2232850977418888e-06 4.6530471127707407e-06 5.129193953439502e-06 -1.0345178110753993e-05 -1.3067979377397447e-05 -2.292687467040993e-05 -2.8123052746348862e-05 -3.3824563477305078e-05 -4.0465195343480405e-05 -5.7175769105887071e-05 -4.2020210496493968e-05 -4.1385261145472669e-05 -4.4914750305709731e-05 -3.5780232793765289e-05 -5.7664454446506056e-05 -4.1166459930689337e-05 -2.6070942228030813e-05 -1.8066570447134468e-05 -2.9152549588471339e-05 3.5415859811134575e-05 3.0092785408762932e-05 2.7164230937772241e-05 2.9312762550619694e-05 3.429913458852345e-05 4.0542094195806915e-05 3.5178537543800116e-05 3.3565553566282177e-05 3.5619727674886926e-05 3.3603577878807825e-05 2.7358096331560301e-05 3.3023545849737567e-05 3.0771231130454518e-05 3.2583571259241845e-05 3.4743881791414981e-05 7.0252410742491429e-05 3.0140340161167659e-05 4.7531854882127784e-05 2.9138143525932097e-05 6.4162053013534765e-05 4.1754835222579704e-05 6.3333058160039554e-05 3.6208294353991353e-05 3.0891720680885425e-05 3.8472025214185551e-05 2.3501887429052424e-05 2.3821097512878402e-05 3.3754408240099063e-05 2.5513852320978482e-05 3.4763754087410766e-05 1.9931380717625563e-05 3.0773589662158116e-05 2.3436382775205874e-05 2.1965842023205308e-05 1.5157418183348146e-05 1.8392228238128642e-05 1.8589282457645131e-05 1.7618207977756273e-05 1.0193000591066069e-05 1.2974230713693316e-05 1.1331525731648618e-05 7.9456347789662269e-06 4.9248961566607324e-06 1.8392126984139569e-05 1.6814141231571704e-05 1.5683469633351131e-05 1.3556386841321824e-05 1.9352057332507591e-05 1.7625925436982209e-05 2.3492829970304721e-05 2.2520595068224854e-05 2.2120182943845706e-05 2.5154855132547248e-05 2.163378860923975e-05 3.0421874556882068e-05 2.7749819105720888e-05 2.5271243977991712e-05 3.2643942277313629e-05 2.384876323792608e-05 4.2333829826462404e-05 2.9367749777674939e-05 3.656563846188224e-05 2.8095729409199329e-05 3.3414649380836941e-05 3.5499667135804275e-05 2.7094378233106353e-05 2.9255724154093529e-05 2.9411239411678098e-05 2.5130744590810716e-05 2.0067106078768297e-05 2.3615886879263625e-05 2.327075958436394e-05 1.8395619699608343e-05 1.6439195862176473e-05 1.9157331236962219e-05 2.1012857400630876e-05 1.804042045150503e-05 1.7828648298729752e-05 1.4353264323874931e-05 1.9891234190452272e-05 1.9100157246837825e-05 2.2479597260724025e-05 2.0536443544590431e-05 2.0986769637032845e-05 5.7196991825932943e-06 8.2331804370866509e-06 4.4806989843038458e-06 1.0317157212454334e-05 1.1033881344108467e-05 1.2692635762305705e-05 1.3738456706255231e-05 1.5210217644203067e-05 1.3961708379590457e-05 1.1983873007818051e-05 1.3883793742589968e-05 1.0757918797808597e-05 8.8081719413124463e-06 4.5867334326048847e-06 3.6665397662473523e-06 3.6640280437439602e-06 -2.5398510163008968e-07 2.1756645267650347e-06 -1.8847475496958896e-07 2.3392690464067752e-06 6.7130675075354689e-06 6.2804343633278012e-06 7.4093318890678739e-06 9.6856038548666662e-06 1.0694318823967257e-05 1.3345798005584871e-05 1.1976845690875972e-05 9.6874391592651231e-06 1.007961262649958e-05 4.6200612493935878e-06 3.3130497624508199e-06 -9.9009809447838401e-07 1.9882776306811651e-05 1.9392946522611408e-05 1.6707396890396614e-05 1.6824745674684489e-05 1.4684373411519391e-05 1.7124058799713895e-05 1.6181197580630743e-05 1.4467071922317777e-05 1.9886599192650858e-05 1.741072328322762e-05 2.135296105361721e-05 1.7627382543036506e-05 1.8997300081160954e-05 2.2246391474525312e-05 1.9602000130172297e-05 2.5774345869129751e-05 1.8599075575412264e-05 2.2794493787844505e-05 2.1594221683222963e-05 2.1337418655475632e-05 1.9252546055367615e-05 2.306152753546149e-05 1.9378252390780513e-05 1.8894478163339123e-05 1.6960097502290801e-05 2.0775655653594629e-05 2.0168379978163582e-05 2.5500729571668825e-05 2.5125777899169356e-05 1.8583991641813451e-05 2.0850375301535131e-05 2.0154324455494004e-05 1.4108977059983472e-05 1.2566724396550509e-05 7.9771651347406647e-06 1.7427660347564723e-06 5.3281915381247575e-06 9.1636642376738738e-06 1.4464624930801742e-05 4.8426144999087471e-06 1.1417634567433418e-05 1.5547600875806074e-05 1.8732457009361631e-05 1.8753233968269141e-05 1.6223116776502521e-05 2.2313328017090274e-05 1.1216840343351863e-05 8.1465912515996678e-06 1.2897795883606685e-05 1.4391657985843394e-05 3.9511631885022925e-06 1.0954730104789821e-05 1.6900835064526267e-05 1.3047231084868682e-05 2.524623037164578e-05 1.7686677461003785e-05 1.4787439813490317e-05 2.0614644861474742e-05 2.0486368256072622e-05 2.3954358511334692e-05 3.2458946079773435e-05 2.7951663829928219e-05 2.9873220224924729e-05 2.4037625535425982e-05 2.7425022019043377e-05 3.1686930293846109e-05 2.5939326259203719e-05 2.9589569876669902e-05 2.3483756683819063e-05 2.288588654666146e-05 2.1910020521559775e-05 2.467830244762565e-05 1.9567705255074519e-05 2.3490663881432681e-05 1.9467350807240101e-05 2.2025905384028918e-05 2.016203843330719e-05 2.18240290622416e-05 2.4132977216777064e-05 -4.4299703437434045e-05 -3.0255508678924751e-05 -3.2602764979402588e-05 -2.670580727652675e-05 -2.3213886501619525e-05 -2.7256916364825625e-05 -3.1264972447989956e-05 -2.7600890012356301e-05 -2.6254374698746937e-05 -2.3759506652086229e-05 -2.559084045926418e-05 -2.5575115351217657e-05 -2.4187812262141896e-05 -1.5822732305115587e-05 -2.40024571048035e-05 -3.679721317464934e-05 -1.5122129669376685e-05 -2.8694261126122644e-05 -1.5242368513251518e-05 -1.3882054649251409e-05 -1.517903536680192e-05 -1.2972139284448464e-05 -1.5141161102157706e-05 -6.9897163880134627e-06 -7.698023367026111e-06 -3.8346526613871788e-06 -5.2950353654685384e-06 3.0891508052596378e-06 5.926654573658894e-06 -1.1476895196267466e-06 -3.6488381684095727e-06 -3.1478091281635153e-06 3.5465104721630442e-07 6.5476033936342148e-06 -6.0307373305966621e-06 2.9529611394387979e-06 -2.071330473023588e-06 -8.4547860539172935e-06 6.3726027866741378e-06 -4.850969005446205e-06 -2.6340865476236978e-06 -2.2132036262663341e-05 -1.8128228490222165e-05 -1.6659536496931588e-05 -3.8101286774050663e-06 -1.3883896382882643e-05 -2.6714950885910398e-05 -2.1410837843554836e-05 -3.2116632961432605e-05 -2.4775754659565625e-05 -3.4026970590603686e-05 -1.8290363604589237e-05 -2.930103486721087e-05 -5.0666552975811821e-05 -5.4162705762265172e-05 -6.3159950961431342e-05 -4.4818295769050992e-05 -5.2166935695542832e-05 -3.2539766474986353e-05 -4.6651170623387541e-05 -3.063416897971781e-05 -6.6475506281240892e-05 -0.00010213139750694744 -6.1600298580789074e-05 -6.5436491671223363e-05 -8.5172808027738066e-05 -7.3134203722495574e-05 -4.8545291915789972e-05 -5.7348162725642321e-05 -5.4737304726858352e-05 -3.2413992916387737e-05 -3.4102781332539229e-05 -2.6875007968580456e-05 -3.0036115005789473e-05 -4.3899618830486875e-05 -3.5288843471777637e-05 -4.117800210496581e-06 5.5324089091481331e-06 8.9129869574027049e-06 -2.446647838082398e-05 -9.4477657855267176e-06 -2.6491733952101173e-05 -1.4849409478240591e-05 -1.0532395396200495e-05 2.6895992041292646e-06 -1.086821905593229e-05 2.3621607582246939e-06 1.6746177800242518e-05 9.1556269411953523e-06 2.184332085712446e-05 8.2798708864472738e-06 1.9678058165147402e-05 3.4573941516852264e-05 1.2398424203385364e-05 3.1517111941474133e-05 3.4027493930947038e-05 5.9338517595399151e-05 5.9125841546886471e-05 2.8193753414421277e-05 2.1377335291638755e-05 6.1908711973292501e-05 0.00010445399907046065 9.6490530834680987e-05 0.00010386040567934136 6.8055739267758688e-05 4.5918712601340847e-05 5.658479857066493e-05 3.9444161839802001e-05 1.1957394248106649e-05 2.9695951355052401e-06 -1.0018026743022278e-06 -1.7042333444717981e-05 2.6174025101664708e-05 -1.2331030462385975e-05 -4.114262334290028e-05 -4.796243734091183e-05 -2.3568846925435506e-05 -3.8259372651997762e-05 -2.6689013967247594e-05 -6.0222721070133148e-05 -3.5416315640618082e-05 -4.7517301320500302e-05 -7.0983473575344895e-05 -7.1207895470031294e-05 -0.00010701970703501731 -7.7432999542776943e-05 -0.00010824006647545134 -8.2703509588244375e-05 -5.9702695441797254e-05 -7.2317625374959763e-05 4.7239986460836911e-05 5.1120576810731759e-05 5.4003887215549737e-05 4.9971846894741171e-05 4.6581937457912303e-05 3.959305255745915e-05 3.5272754582352783e-05 4.4404862450905719e-05 3.1152566139644851e-05 3.6766063490394718e-05 2.621075956695609e-05 3.5807118787292832e-05 3.0315673132069802e-05 3.6570702653508956e-05 3.9623504948573172e-05 3.4602913540580773e-05 3.0550801941049588e-05 2.3565369976837899e-05 3.6587156280898555e-05 3.4556600498274003e-05 4.2426951868814716e-05 2.3606423338556305e-05 3.0018678725517097e-05 3.9077819120851116e-05 4.7252018657383528e-05 6.1237237391719207e-05 4.8861911867204411e-05 5.2740010828112969e-05 5.1128726226768394e-05 6.4260027318503157e-05 7.3443375636229554e-05 9.1561142111914426e-05 9.7334025148427476e-05 8.9420014226697532e-05 7.9164804179678526e-05 8.3742921997411807e-05 0.00010067169436032676 9.8187660674150926e-05 0.00017212542930636929 0.00021223395256980227 0.00020587901135115543 0.00013880536615833966 7.3072520085483815e-05 9.7704514840985895e-05 0.00012602978521773813 7.3794985897941728e-05 7.8574703706625601e-05 8.3804139614032533e-05 5.9466961021068771e-05 7.358368624604258e-05 4.9014162588134229e-05 6.276965114740876e-05 4.7892585689624547e-05 6.5221537038291907e-05 4.0033640571491576e-05 5.0612871092599192e-05 5.4035178034485531e-05 4.6962094389649785e-05 4.0466440588041658e-05 6.2938666831680924e-05 4.2553136596230214e-05 3.7363514924616931e-05 4.8934022570355086e-05 3.2277047813698167e-05 2.5584167983776064e-05 3.6799232031658818e-05 3.752484921677021e-05 2.3198530426110983e-05 4.1726644593305829e-05 2.9892009125343226e-05 3.6558086084517428e-05 6.167293724146074e-05 5.3915840666359565e-05 5.0191369652584666e-05 5.6386369132599147e-05 7.5818532466010802e-05 7.9950515540142903e-05 9.6568474238730874e-05 0.00022726748937234087 3.6036587641963402e-05 9.3349193364023988e-05 0.00021492647818923614 0.00013036901418465844 0.013371969462031799 0.00020230739992224862 0.00010576504645863544 0.033699044262189275 3.6335958061652036e-05 0.00010796136874364104 0.048603180014436864 4.7702991384753477e-05 7.9951884454961073e-05 3.2193182153290547e-05 5.1025100708870883e-05 4.5921542507261455e-05 4.1520220165926054e-05 4.0309673469382621e-05 6.1711006366915478e-05 6.4378271476089736e-05 4.4974139242757874e-05 7.5887938868125131e-05 9.9301586919397838e-05 0.00011171039794505028 0.06255983378584716 0.00010794082654034913 0.00010073859346194718 8.7629921793543715e-05 0.0001137248175763295 8.428107908149896e-05 0.076846387050641576 0.00010197749653217513 5.2925634930752911e-05 4.0010343704421089e-05 7.504430069331299e-05 5.5069705921928047e-05 6.1313389939717249e-05 3.522392131311421e-05 3.3636921488929895e-05 3.7145020766464595e-05 2.6110259932083831e-05 2.6169715091348806e-05 1.8044953384654255e-05 2.0991907524261892e-05 2.0035128396712215e-05 2.3519651131244317e-05 2.4990254574392562e-05 1.7977385685704695e-05 2.7255952170280023e-05 2.3400495858317486e-05 2.5965049838050353e-05 2.9743995860458323e-05 3.4023169272139135e-05 -6.5097789706314519e-05 -7.8214158290686175e-05 -4.925271996551457e-05 -9.8101348435600212e-05 -9.6336650638798298e-05 -6.1629293471762844e-05 -6.5368084118654318e-05 -3.9215937284172364e-05 -2.1424015858252351e-05 -8.4747538967348216e-07 -2.8505213039646321e-05 -1.8661984445626312e-05 -4.25111624510182e-05 -1.7155651080774859e-05 3.0251922064592504e-05 7.5838364477227426e-06 5.3154212271438734e-05 8.516198983204667e-06 -1.6415415588935103e-05 2.4020999984462874e-05 2.1041916143696676e-05 7.3008757927267012e-05 0.00011351819763364085 8.5868882379647985e-05 9.4788511586279308e-05 4.6121682647694328e-05 6.4171200568069117e-05 7.7920410093731528e-05 3.6051591813394038e-05 3.6640786327064336e-05 6.2494847598400932e-05 6.4255784103712773e-05 6.9963982487624386e-05 5.9345585749067016e-05 3.9190964412283251e-05 3.6102635084230093e-05 1.3614148302467104e-05 1.6325197034113177e-05 1.2599735566590133e-05 -8.343257041209997e-06 1.4416129343814907e-05 1.9242197590444918e-05 -1.5387574577485803e-06 -5.7894882402721812e-06 -2.5069045547104242e-05 -2.851121670231836e-05 -2.8730514401622241e-05 -2.716609842836888e-05 -9.9022429976055454e-06 -1.0072886125156346e-05 -1.7044142689038883e-05 -2.6934364949861723e-05 -3.4049414086127772e-05 -4.9539792574012417e-05 -2.7885996290462301e-05 -3.8945632573740866e-05 -6.7203257856114987e-05 -4.959936548080252e-05 -4.9908963692244694e-05 -4.9503933783714743e-06 -2.1918899633561334e-05 -8.6843675460709577e-06 -2.3700088856809694e-05 -2.3288368414375177e-05 -3.8258321005882681e-05 -3.327100687850219e-05 -2.5295021972832022e-05 -1.6988650275332612e-05 -1.3147946537273719e-05 -9.1968805166105227e-06 -8.8659550125450015e-07 -1.3862853485073316e-06 -1.1321486564090351e-05 3.4710826442903991e-07 1.5376407416084481e-05 1.8268012512091727e-05 2.930330000382262e-05 -4.0235905241371023e-07 -3.6953088571670123e-06 1.1976478815941671e-05 1.2621536908504784e-05 2.4364178056028525e-05 1.6393619503750345e-05 4.5551481136304691e-05 4.7276066452894144e-05 3.5999498066222047e-05 5.435410072810419e-05 8.1309112214725254e-05 5.733307215929212e-05 7.5723986515788093e-05 3.7460889883756537e-05 4.8589293873869607e-05 7.6852152860814801e-05 5.2190659537362794e-05 8.3385505236052866e-05 6.2350762353049691e-05 9.5613129212818865e-05 0.00010175648545561466 5.6681995773292316e-05 3.7226319037533817e-05 1.001703533987184e-05 8.9625100823083684e-06 1.4648440709238986e-05 1.3434803868276734e-05 3.4357195404651278e-05 1.8738886414802584e-05 3.5908907859582076e-05 4.539884294633631e-07 -1.1226901016105344e-05 2.8529913272123952e-07 -8.7020258054352345e-07 -3.0831993838085874e-06 -6.6332091937489415e-06 -4.0659331005517349e-06 3.5813890888027403e-06 -2.1513432641147648e-06 -3.7899106442784367e-06 5.3147946480012337e-07 5.3592466199396671e-07 -9.2278562860773072e-07 2.2395468033508791e-06 -3.3595576195161875e-06 -5.5276488617750363e-06 -1.5609016806280088e-05 2.3165743098654671e-05 4.7824715997461591e-05 4.6647279628050887e-05 3.2990241700334166e-05 1.5241207598947837e-05 9.9311667962956578e-06 8.0022070999975336e-06 1.7784711577592169e-05 1.3291224421207548e-05 1.3950938869334098e-05 2.7707779807417286e-05 2.6647453651919826e-05 2.1411684111398893e-05 3.8529091145677523e-05 4.1726463599083506e-05 6.1094088046344936e-05 9.2760549788329771e-05 0.00011018758066820865 7.2735637461649046e-05 9.7103714351710457e-05 0.00013022293304797324 0.0001032051132447283 0.091681737413171177 8.249056279027939e-05 0.00012073228060554848 0.00011640130624677102 0.10730716756563077 0.0001248654295535088 0.00013435848133582732 0.12389462435745635 0.0001114412075516524 7.1034835104035116e-05 0.00012407274809225348 6.4968526034641511e-05 8.4298690438630868e-05 9.2775693362340028e-05 7.0395937689489538e-05 0.00014560626832630914 0.00014735535491090411 0.00010611067160073658 0.00015372839356547156 0.14127037887094587 0.0001800369529593467 0.00016781470108321542 0.00013348992096280632 0.00015405521180616912 0.1618007802887782 0.000207323525756321 0.00016471394472637437 6.2313173002877796e-05 0.00015866195225959566 0.00019801636527561105 0.0001447093528146445 8.1445017539747843e-05 7.8512684922838697e-07 3.2033996217070964e-05 -3.9449704131755015e-06 3.897322490011346e-05 1.3452018623674386e-05 1.5348555698944423e-05 3.0250999469776585e-05 4.2935968781041738e-05 -1.0772084060981955e-06 8.9059335149021138e-06 -5.3728317915558961e-06 7.9908114187607782e-06 -5.3194856494912651e-06 -1.3142402326120827e-05 -3.5503278819406543e-05 -1.8439665806229029e-05 -3.8730658572007153e-05 -2.0834880903637751e-05 -1.2527588133720623e-05 -2.0757934337004621e-05 8.8135810202338971e-06 -1.6636048535753102e-05 -8.2036266309855202e-06 1.961620899443013e-05 -3.1303685642423366e-06 5.9101566678921766e-06 1.6938853630811687e-05 1.9218976041817211e-05 -4.3858926128483066e-06 2.9501072947301114e-06 -1.2640138656751622e-06 5.1083004419593759e-06 9.0939877843828829e-06 8.604433680412275e-06 1.0221026760316764e-05 4.6199698146110959e-06 9.6233075193882626e-06 7.1508171869507416e-06 1.7218186255744494e-05 2.9090997074701728e-05 1.5682455532318182e-05 1.3864043293630008e-05 1.636143107752589e-05 2.5200894337153938e-05 1.6531852736505534e-05 1.2194386599751546e-05 1.61581527241306e-05 1.0480262546509769e-05 1.3473171089067567e-05 1.289053081153277e-05 6.0309720633568804e-05 0.047480506348650101 6.380252979596465e-05 5.0037522750273687e-05 4.1656966087915499e-05 2.3675671109216884e-05 2.9280318329305967e-05 2.7410095173100422e-05 5.603401078483277e-05 4.0629773680722278e-05 4.8412987608523482e-05 3.4113989868357207e-05 7.0095402469918828e-05 8.4510356009095998e-05 6.0641807682258481e-05 5.9358285881467543e-05 0.067908580479104613 6.8295454856548161e-05 7.026316027097042e-05 0.05704795514119626 8.4856318076362899e-05 0.080375398410699628 0.00010813808785487856 9.5225810009012024e-05 7.5119425828254829e-05 4.0554902701796821e-05 5.2083624358676924e-05 8.703540401919761e-05 6.1981278790690581e-05 2.9725329916510212e-05 9.4402687220778597e-05 0.00012059668761474644 8.4165408591235625e-05 4.3583904704831374e-05 9.1440332069615111e-05 0.095298914157203804 0.00012699918170267985 9.8965460387206994e-05 6.1538631522623996e-05 3.2687007831485393e-05 3.6685885282227142e-05 5.4105607551506105e-05 1.8788143788779545e-05 2.13655145033095e-06 5.4899892636983173e-06 7.1883612401798442e-06 1.9590994455314856e-05 7.8119878383198617e-06 6.4876077720303019e-06 1.6630839470368336e-05 3.8942039175462659e-05 4.8138175366545591e-05 2.6868924311398892e-05 1.4278281987058217e-06 -5.9684495288007608e-07 2.7286824119961116e-07 3.0280113947006929e-07 -3.0466902433759491e-06 -2.1427730846098995e-06 1.9356907465361423e-06 -3.037996540364068e-06 -5.4788476718861758e-06 -3.9552273097659928e-06 -3.5021240282505145e-06 -9.3749561756294869e-06 -8.9014762432500921e-07 -1.0001985245756549e-06 -4.4867065166581091e-06 -1.0429126176552013e-05 -2.2776885701689467e-06 -1.5294532151798653e-05 -3.9732444857515196e-06 -6.7098327112685707e-06 -1.5735085283568792e-05 -9.6767719375322539e-06 -6.4451533807446254e-08 -2.0643447505015559e-06 -1.9785818459582688e-06 -1.0194178329255433e-05 -8.881599950061065e-06 -4.8432986783387153e-08 -1.1937831790676326e-05 -1.5610635293182096e-05 -2.0144217363805058e-05 -1.7491018905502502e-05 -2.662245321314238e-05 -1.6690132232389295e-05 2.8084390370729283e-05 2.0419599583323999e-05 3.9539802247818417e-05 2.5681477624294336e-05 6.2117399123717137e-06 5.2992620475566729e-06 1.5624643102704009e-05 1.2956559314916596e-05 5.8024514618181889e-06 3.0620513396489683e-06 4.7947498343799393e-06 2.4824510040571089e-05 1.8111695136368514e-05 4.2049088255639291e-05 3.300725687158633e-05 3.7890867503795203e-05 2.6360048791685547e-05 2.9047593045689266e-05 3.3406809957415304e-05 1.6221897988149842e-05 1.950301260460717e-05 1.3134278330079497e-05 1.4955885224100709e-06 -1.3432885916166181e-06 1.3168285593263265e-05 3.9035754214773732e-06 1.1050559109392367e-05 -1.4751770730692289e-06 2.3526974973705778e-06 2.7723484362249641e-05 3.3217334246599518e-05 3.1289915587899217e-05 1.3361724807444948e-05 2.5007049184418107e-05 -2.6313544428640872e-05 -3.2804708054260412e-05 -2.7775600464699756e-05 -3.3506116824996279e-05 -2.1657249354438586e-05 -1.1397419481512907e-05 -1.9280254220629131e-05 -8.9940209384061897e-06 -9.2602758162685633e-06 -1.15278880954469e-05 -9.4693259139225997e-06 -8.0182326843901105e-06 -1.5990576475906034e-05 -2.1500847153893511e-05 -2.2634406007143813e-05 -2.2257135196861492e-05 -3.3281124350864697e-05 -3.2529003676623784e-05 -4.0292396635478516e-05 -5.4657845559611643e-05 -4.6000752860808776e-05 -3.8407894881414589e-05 -3.1355958614680461e-05 -2.6685642576178932e-05 -1.2230621030847959e-05 -1.2140726895994353e-05 -6.7139394556014077e-06 -2.0375719973138719e-05 -1.7412784567012637e-05 -2.4658994452915679e-05 -2.6411715009027248e-05 -3.8370339278853086e-05 -3.5529972739358102e-05 -5.2936470292144809e-05 1.7548734074906589e-05 4.1738402767813227e-05 1.7107677836841355e-05 1.0877833128500173e-05 -1.9875930166482177e-06 2.2845025975338704e-06 1.5197084858291506e-05 5.1335177148356757e-06 -1.4647448587745519e-05 -6.3661503839417764e-06 3.8086174672036168e-06 2.2437078746178078e-05 2.3621674287484771e-05 4.4191301406145482e-05 7.7091262951129144e-05 -1.5792008368818809e-06 9.7080985029763145e-05 0.0071523708237157622 4.1512806933932249e-05 4.2470685502768283e-05 0.017782006689376018 6.3464115075485329e-05 0.024744126705144309 4.9207553995161057e-05 4.0691995483460564e-05 9.5651506777845474e-06 5.9417828811453581e-06 1.2602811953969933e-05 -6.8964433196916353e-06 1.9319578376218076e-05 3.8971236865820201e-06 3.7254091287472623e-05 1.9911043205089842e-05 1.3664823490228275e-05 2.7948731337150857e-05 2.4629219005786038e-05 3.0424362017344384e-05 3.6690737422035262e-05 3.6135311422351874e-05 2.9095019089857013e-05 2.4605847714132586e-05 2.2381477699148333e-05 2.0987680316198322e-05 1.8628735016995346e-05 1.4296262458732333e-05 1.8027708694418737e-05 1.4719806671057865e-05 1.394432741568571e-05 1.5343186614574561e-05 1.5484199549557504e-05 1.6905322864657483e-05 2.0479285072549176e-05 2.0778343921367402e-05 1.7564858908263275e-05 1.7677525597064746e-05 1.9001872374670576e-05 1.3368723033078814e-05 1.3763205209707324e-05 1.8115673490799214e-05 1.7908565822122763e-05 1.7285289216153218e-05 1.4956380389098377e-05 1.4700172503553574e-05 1.8845799590457729e-05 2.1222106761475956e-05 2.6900127630150267e-05 2.2236536748320834e-05 2.1430929767407667e-05 3.3854819979715033e-05 5.7031385086000119e-05 0.039086526256515999 3.732511867605428e-05 5.0838515082361735e-05 4.7833440463143661e-05 5.5161041818505116e-05 2.2703689454186236e-05 0.031641807119814069 4.8450278376433462e-05 3.6664006609439829e-05 5.4975079391573686e-05 1.5631689761664167e-05 1.2616419101003104e-05 1.4171973179894631e-05 2.2873096675569157e-05 
</DataArray>
</CellData>
</Piece>
</UnstructuredGrid>
</VTKFile>
