<?xml version="1.0"?>
<VTKFile type="UnstructuredGrid" version="0.1" byte_order="LittleEndian">
<UnstructuredGrid>
<Piece NumberOfPoints="3142" NumberOfCells="1054">
<Points>
<DataArray type="Float64" NumberOfComponents="3" format="ascii">
0 0 0 0.049999999999899652 0 0 0.02576622439977887 0.024532886826226379 0 0 0 0 0.02576622439977887 0.024532886826226379 0 0 0.050000000000207989 0 0.049999999999899652 0 0 0.053064897599215843 0.048131547304697528 0 0.02576622439977887 0.024532886826226379 0 0 0.050000000000207989 0 0.02576622439977887 0.024532886826226379 0 0.053064897599215843 0.048131547304697528 0 0 0.10000000000041601 0 0 0.050000000000207989 0 0.044310582753132287 0.101412518374475 0 0 0.15000000000062411 0 0 0.10000000000041601 0 0.044310582753132287 0.101412518374475 0 0.083411279318303222 0.089699755330707398 0 0.044310582753132287 0.101412518374475 0 0.053064897599215843 0.048131547304697528 0 0 0.050000000000207989 0 0.053064897599215843 0.048131547304697528 0 0.044310582753132287 0.101412518374475 0 0.083411279318303222 0.089699755330707398 0 0.065374659239632718 0.1448908038746782 0 0.044310582753132287 0.101412518374475 0 0.083411279318303222 0.089699755330707398 0 0.1053400320299198 0.12877248826361379 0 0.065374659239632718 0.1448908038746782 0 0.083411279318303222 0.089699755330707398 0 0.12372429750337779 0.095814237875728972 0 0.1053400320299198 0.12877248826361379 0 0.14332333627550789 0.14578431753966009 0 0.1053400320299198 0.12877248826361379 0 0.12372429750337779 0.095814237875728972 0 0.14618258501891079 0.062070108745602003 0 0.12372429750337779 0.095814237875728972 0 0.10266856499169109 0.044518360900210059 0 0.083411279318303222 0.089699755330707398 0 0.10266856499169109 0.044518360900210059 0 0.12372429750337779 0.095814237875728972 0 0.099999999999814668 0 0 0.14999999999970359 0 0 0.10266856499169109 0.044518360900210059 0 0.049999999999899652 0 0 0.099999999999814668 0 0 0.053064897599215843 0.048131547304697528 0 0.099999999999814668 0 0 0.10266856499169109 0.044518360900210059 0 0.053064897599215843 0.048131547304697528 0 0.083411279318303222 0.089699755330707398 0 0.053064897599215843 0.048131547304697528 0 0.10266856499169109 0.044518360900210059 0 0 0.25000000000104028 0 0 0.20000000000083221 0 0.044081577119474857 0.2271058242433576 0 0 0.20000000000083221 0 0.038512288486115001 0.1844147282893184 0 0.044081577119474857 0.2271058242433576 0 0.083105206071467416 0.20007701332709979 0 0.044081577119474857 0.2271058242433576 0 0.038512288486115001 0.1844147282893184 0 0 0.15000000000062411 0 0.065374659239632718 0.1448908038746782 0 0.038512288486115001 0.1844147282893184 0 0 0.15000000000062411 0 0.044310582753132287 0.101412518374475 0 0.065374659239632718 0.1448908038746782 0 0.083105206071467416 0.20007701332709979 0 0.038512288486115001 0.1844147282893184 0 0.065374659239632718 0.1448908038746782 0 0 0.20000000000083221 0 0 0.15000000000062411 0 0.038512288486115001 0.1844147282893184 0 0.065374659239632718 0.1448908038746782 0 0.1053400320299198 0.12877248826361379 0 0.106902708054812 0.16453234188234539 0 0.14332333627550789 0.14578431753966009 0 0.106902708054812 0.16453234188234539 0 0.1053400320299198 0.12877248826361379 0 0.083105206071467416 0.20007701332709979 0 0.065374659239632718 0.1448908038746782 0 0.106902708054812 0.16453234188234539 0 0.083105206071467416 0.20007701332709979 0 0.13737030665753211 0.20313708640667491 0 0.095326043202144745 0.24554465089224409 0 0.083105206071467416 0.20007701332709979 0 0.106902708054812 0.16453234188234539 0 0.13737030665753211 0.20313708640667491 0 0.083105206071467416 0.20007701332709979 0 0.095326043202144745 0.24554465089224409 0 0.044081577119474857 0.2271058242433576 0 0.049706944316556423 0.27522722923869108 0 0.044081577119474857 0.2271058242433576 0 0.095326043202144745 0.24554465089224409 0 0.13737030665753211 0.20313708640667491 0 0.14377654328998779 0.2442024734791064 0 0.095326043202144745 0.24554465089224409 0 0.17933913398461551 0.2350063570234002 0 0.14377654328998779 0.2442024734791064 0 0.13737030665753211 0.20313708640667491 0 0.17933913398461551 0.2350063570234002 0 0.13737030665753211 0.20313708640667491 0 0.18124454140915969 0.18790916706335251 0 0.14332333627550789 0.14578431753966009 0 0.18652628422869419 0.14162325200928061 0 0.18124454140915969 0.18790916706335251 0 0.14332333627550789 0.14578431753966009 0 0.13737030665753211 0.20313708640667491 0 0.106902708054812 0.16453234188234539 0 0.14332333627550789 0.14578431753966009 0 0.18124454140915969 0.18790916706335251 0 0.13737030665753211 0.20313708640667491 0 0.14332333627550789 0.14578431753966009 0 0.16141998738593399 0.10404039647458049 0 0.18652628422869419 0.14162325200928061 0 0.2185883431182947 0.18019736283949719 0 0.18652628422869419 0.14162325200928061 0 0.22985637510995899 0.1298347970200906 0 0.2185883431182947 0.18019736283949719 0 0.22985637510995899 0.1298347970200906 0 0.25557216766470708 0.15874861286892261 0 0.2185883431182947 0.18019736283949719 0 0.25557216766470708 0.15874861286892261 0 0.26429849586623999 0.19346700179430079 0 0.2185883431182947 0.18019736283949719 0 0.18124454140915969 0.18790916706335251 0 0.18652628422869419 0.14162325200928061 0 0.17933913398461551 0.2350063570234002 0 0.18124454140915969 0.18790916706335251 0 0.224700362040408 0.22206622194729711 0 0.2185883431182947 0.18019736283949719 0 0.224700362040408 0.22206622194729711 0 0.18124454140915969 0.18790916706335251 0 0.2185883431182947 0.18019736283949719 0 0.26429849586623999 0.19346700179430079 0 0.224700362040408 0.22206622194729711 0 0.25195515620380449 0.25883339815888678 0 0.21049769590865089 0.26857363548218488 0 0.224700362040408 0.22206622194729711 0 0.17933913398461551 0.2350063570234002 0 0.224700362040408 0.22206622194729711 0 0.21049769590865089 0.26857363548218488 0 0.14999999999970359 0 0 0.184418230509967 0.038773194583122873 0 0.14618258501891079 0.062070108745602003 0 0.19922788606653311 0.085920220746880993 0 0.14618258501891079 0.062070108745602003 0 0.184418230509967 0.038773194583122873 0 0.14999999999970359 0 0 0.19999999999955789 0 0 0.184418230509967 0.038773194583122873 0 0.14999999999970359 0 0 0.14618258501891079 0.062070108745602003 0 0.10266856499169109 0.044518360900210059 0 0.14618258501891079 0.062070108745602003 0 0.16141998738593399 0.10404039647458049 0 0.12372429750337779 0.095814237875728972 0 0.14332333627550789 0.14578431753966009 0 0.12372429750337779 0.095814237875728972 0 0.16141998738593399 0.10404039647458049 0 0.19922788606653311 0.085920220746880993 0 0.18652628422869419 0.14162325200928061 0 0.16141998738593399 0.10404039647458049 0 0.19922788606653311 0.085920220746880993 0 0.16141998738593399 0.10404039647458049 0 0.14618258501891079 0.062070108745602003 0 0.19922788606653311 0.085920220746880993 0 0.22985637510995899 0.1298347970200906 0 0.18652628422869419 0.14162325200928061 0 0.19922788606653311 0.085920220746880993 0 0.24218496799700481 0.089025544070598317 0 0.22985637510995899 0.1298347970200906 0 0.27474541102162192 0.11822029332053539 0 0.22985637510995899 0.1298347970200906 0 0.24218496799700481 0.089025544070598317 0 0.19922788606653311 0.085920220746880993 0 0.22668068146512929 0.045875643423131329 0 0.24218496799700481 0.089025544070598317 0 0.27499999999933927 0.060310814194988557 0 0.24218496799700481 0.089025544070598317 0 0.22668068146512929 0.045875643423131329 0 0.19922788606653311 0.085920220746880993 0 0.184418230509967 0.038773194583122873 0 0.22668068146512929 0.045875643423131329 0 0.19999999999955789 0 0 0.22668068146512929 0.045875643423131329 0 0.184418230509967 0.038773194583122873 0 0.19999999999955789 0 0 0.24999999999941211 0 0 0.22668068146512929 0.045875643423131329 0 0.24999999999941211 0 0 0.29999999999926641 0 0 0.27499999999933927 0.060310814194988557 0 0.24999999999941211 0 0 0.27499999999933927 0.060310814194988557 0 0.22668068146512929 0.045875643423131329 0 0.29999999999926641 0 0 0.32541448401678508 0.046215317981507749 0 0.27499999999933927 0.060310814194988557 0 0.29999999999926641 0 0 0.34999999999912063 0 0 0.32541448401678508 0.046215317981507749 0 0.35312867752657662 0.084946736076730367 0 0.32541448401678508 0.046215317981507749 0 0.3615861437013822 0.03582617922508851 0 0.35312867752657662 0.084946736076730367 0 0.3615861437013822 0.03582617922508851 0 0.39591832466117061 0.056982757562006353 0 0.34999999999912063 0 0 0.3615861437013822 0.03582617922508851 0 0.32541448401678508 0.046215317981507749 0 0.34999999999912063 0 0 0.3999999999989749 0 0 0.3615861437013822 0.03582617922508851 0 0.35312867752657662 0.084946736076730367 0 0.39823268594401579 0.1116623613130045 0 0.36246644853392812 0.1399454205365751 0 0.35312867752657662 0.084946736076730367 0 0.36246644853392812 0.1399454205365751 0 0.32215584939770009 0.1218492143506909 0 0.35312867752657662 0.084946736076730367 0 0.3096713403101819 0.085471541595262421 0 0.32541448401678508 0.046215317981507749 0 0.35312867752657662 0.084946736076730367 0 0.32215584939770009 0.1218492143506909 0 0.3096713403101819 0.085471541595262421 0 0.27474541102162192 0.11822029332053539 0 0.3096713403101819 0.085471541595262421 0 0.32215584939770009 0.1218492143506909 0 0.27499999999933927 0.060310814194988557 0 0.32541448401678508 0.046215317981507749 0 0.3096713403101819 0.085471541595262421 0 0.3096713403101819 0.085471541595262421 0 0.27474541102162192 0.11822029332053539 0 0.27499999999933927 0.060310814194988557 0 0.27499999999933927 0.060310814194988557 0 0.27474541102162192 0.11822029332053539 0 0.24218496799700481 0.089025544070598317 0 0.27474541102162192 0.11822029332053539 0 0.25557216766470708 0.15874861286892261 0 0.22985637510995899 0.1298347970200906 0 0.27474541102162192 0.11822029332053539 0 0.29336099386129338 0.15892013001050981 0 0.25557216766470708 0.15874861286892261 0 0.26429849586623999 0.19346700179430079 0 0.25557216766470708 0.15874861286892261 0 0.29336099386129338 0.15892013001050981 0 0.33084213324567391 0.16272720141332131 0 0.31255190597181792 0.19850845631528771 0 0.29336099386129338 0.15892013001050981 0 0.26429849586623999 0.19346700179430079 0 0.29336099386129338 0.15892013001050981 0 0.31255190597181792 0.19850845631528771 0 0.27474541102162192 0.11822029332053539 0 0.32215584939770009 0.1218492143506909 0 0.29336099386129338 0.15892013001050981 0 0.28040350263641872 0.23054717217092141 0 0.25195515620380449 0.25883339815888678 0 0.224700362040408 0.22206622194729711 0 0.26429849586623999 0.19346700179430079 0 0.28040350263641872 0.23054717217092141 0 0.224700362040408 0.22206622194729711 0 0.26429849586623999 0.19346700179430079 0 0.31255190597181792 0.19850845631528771 0 0.28040350263641872 0.23054717217092141 0 0.33758650185219202 0.23837101504325639 0 0.29132859388405002 0.27203693976649962 0 0.28040350263641872 0.23054717217092141 0 0.33758650185219202 0.23837101504325639 0 0.28040350263641872 0.23054717217092141 0 0.31255190597181792 0.19850845631528771 0 0.33758650185219202 0.23837101504325639 0 0.31255190597181792 0.19850845631528771 0 0.3572130504031617 0.1874703368446563 0 0.33758650185219202 0.23837101504325639 0 0.3572130504031617 0.1874703368446563 0 0.38831533174504851 0.2189834941785925 0 0.33758650185219202 0.23837101504325639 0 0.38831533174504851 0.2189834941785925 0 0.3786248352540974 0.27082301512024259 0 0.33084213324567391 0.16272720141332131 0 0.29336099386129338 0.15892013001050981 0 0.32215584939770009 0.1218492143506909 0 0.33084213324567391 0.16272720141332131 0 0.32215584939770009 0.1218492143506909 0 0.36246644853392812 0.1399454205365751 0 0.33084213324567391 0.16272720141332131 0 0.3572130504031617 0.1874703368446563 0 0.31255190597181792 0.19850845631528771 0 0.39801143831225599 0.16651381068160659 0 0.3572130504031617 0.1874703368446563 0 0.36246644853392812 0.1399454205365751 0 0.33084213324567391 0.16272720141332131 0 0.36246644853392812 0.1399454205365751 0 0.3572130504031617 0.1874703368446563 0 0.39801143831225599 0.16651381068160659 0 0.36246644853392812 0.1399454205365751 0 0.39823268594401579 0.1116623613130045 0 0.39801143831225599 0.16651381068160659 0 0.44288491854585582 0.14116182884956319 0 0.42905200079338551 0.19982395548231649 0 0.39801143831225599 0.16651381068160659 0 0.39823268594401579 0.1116623613130045 0 0.44288491854585582 0.14116182884956319 0 0.42377727103934271 0.25099357235810238 0 0.3786248352540974 0.27082301512024259 0 0.38831533174504851 0.2189834941785925 0 0.39801143831225599 0.16651381068160659 0 0.38831533174504851 0.2189834941785925 0 0.3572130504031617 0.1874703368446563 0 0.39801143831225599 0.16651381068160659 0 0.42905200079338551 0.19982395548231649 0 0.38831533174504851 0.2189834941785925 0 0.42377727103934271 0.25099357235810238 0 0.38831533174504851 0.2189834941785925 0 0.42905200079338551 0.19982395548231649 0 0.42377727103934271 0.25099357235810238 0 0.42905200079338551 0.19982395548231649 0 0.46429753744194407 0.22870891180733599 0 0.47357141910802508 0.1873585799078378 0 0.46429753744194407 0.22870891180733599 0 0.42905200079338551 0.19982395548231649 0 0.47357141910802508 0.1873585799078378 0 0.51729576145820033 0.1683240575987815 0 0.50760557329222289 0.20700468884612061 0 0.47357141910802508 0.1873585799078378 0 0.50760557329222289 0.20700468884612061 0 0.46429753744194407 0.22870891180733599 0 0.49695729691142171 0.25014895411178018 0 0.46429753744194407 0.22870891180733599 0 0.50760557329222289 0.20700468884612061 0 0.47357141910802508 0.1873585799078378 0 0.44288491854585582 0.14116182884956319 0 0.48466639505193998 0.1421439844745814 0 0.47357141910802508 0.1873585799078378 0 0.42905200079338551 0.19982395548231649 0 0.44288491854585582 0.14116182884956319 0 0.47357141910802508 0.1873585799078378 0 0.48466639505193998 0.1421439844745814 0 0.51729576145820033 0.1683240575987815 0 0.44288491854585582 0.14116182884956319 0 0.47881186583059909 0.093591717165689425 0 0.48466639505193998 0.1421439844745814 0 0.51076801031701946 0.1202837388510348 0 0.48466639505193998 0.1421439844745814 0 0.47881186583059909 0.093591717165689425 0 0.43698630808430822 0.080423614171545449 0 0.47881186583059909 0.093591717165689425 0 0.44288491854585582 0.14116182884956319 0 0.43698630808430822 0.080423614171545449 0 0.47040171442036788 0.044141676406503738 0 0.47881186583059909 0.093591717165689425 0 0.52375890611712683 0.059318771819432882 0 0.47881186583059909 0.093591717165689425 0 0.47040171442036788 0.044141676406503738 0 0.49999999999869432 0 0 0.52375890611712683 0.059318771819432882 0 0.47040171442036788 0.044141676406503738 0 0.44999999999882923 0 0 0.49999999999869432 0 0 0.47040171442036788 0.044141676406503738 0 0.44999999999882923 0 0 0.47040171442036788 0.044141676406503738 0 0.4320097814748517 0.037406712692169303 0 0.43698630808430822 0.080423614171545449 0 0.4320097814748517 0.037406712692169303 0 0.47040171442036788 0.044141676406503738 0 0.3999999999989749 0 0 0.4320097814748517 0.037406712692169303 0 0.39591832466117061 0.056982757562006353 0 0.43698630808430822 0.080423614171545449 0 0.39591832466117061 0.056982757562006353 0 0.4320097814748517 0.037406712692169303 0 0.3999999999989749 0 0 0.44999999999882923 0 0 0.4320097814748517 0.037406712692169303 0 0.3999999999989749 0 0 0.39591832466117061 0.056982757562006353 0 0.3615861437013822 0.03582617922508851 0 0.35312867752657662 0.084946736076730367 0 0.39591832466117061 0.056982757562006353 0 0.39823268594401579 0.1116623613130045 0 0.43698630808430822 0.080423614171545449 0 0.44288491854585582 0.14116182884956319 0 0.39823268594401579 0.1116623613130045 0 0.43698630808430822 0.080423614171545449 0 0.39823268594401579 0.1116623613130045 0 0.39591832466117061 0.056982757562006353 0 0.43249999999999988 0.43937499999999979 0 0.38707855792647411 0.42299362914874578 0 0.42161023666869668 0.39493916313643851 0 0.38083244760691543 0.38531983672244652 0 0.42161023666869668 0.39493916313643851 0 0.38707855792647411 0.42299362914874578 0 0.38083244760691543 0.38531983672244652 0 0.40076539126862748 0.34589349467022118 0 0.42161023666869668 0.39493916313643851 0 0.43249999999999988 0.43937499999999979 0 0.3908716102680424 0.47010282357248828 0 0.38707855792647411 0.42299362914874578 0 0.38244435121258652 0.51653317813019495 0 0.3908716102680424 0.47010282357248828 0 0.43507373378304309 0.49699695397193322 0 0.43249999999999988 0.43937499999999979 0 0.43507373378304309 0.49699695397193322 0 0.3908716102680424 0.47010282357248828 0 0.43249999999999988 0.43937499999999979 0 0.46111841286828259 0.46690301029591341 0 0.43507373378304309 0.49699695397193322 0 0.43249999999999988 0.43937499999999979 0 0.48858720058566618 0.43964267759203868 0 0.46111841286828259 0.46690301029591341 0 0.49102375406324739 0.49123754822244059 0 0.43507373378304309 0.49699695397193322 0 0.46111841286828259 0.46690301029591341 0 0.49102375406324739 0.49123754822244059 0 0.46111841286828259 0.46690301029591341 0 0.48858720058566618 0.43964267759203868 0 0.52289427570932567 0.3932284363388488 0 0.48858720058566618 0.43964267759203868 0 0.46655310992796922 0.39650496622958609 0 0.43249999999999988 0.43937499999999979 0 0.46655310992796922 0.39650496622958609 0 0.48858720058566618 0.43964267759203868 0 0.43249999999999988 0.43937499999999979 0 0.42161023666869668 0.39493916313643851 0 0.46655310992796922 0.39650496622958609 0 0.4409427642593301 0.35743108089689513 0 0.46655310992796922 0.39650496622958609 0 0.42161023666869668 0.39493916313643851 0 0.52289427570932567 0.3932284363388488 0 0.46655310992796922 0.39650496622958609 0 0.49077833859261139 0.35229981449445641 0 0.5 0.29999999999999999 0 0.49077833859261139 0.35229981449445641 0 0.46226845272279993 0.31901800744800313 0 0.4409427642593301 0.35743108089689513 0 0.46226845272279993 0.31901800744800313 0 0.49077833859261139 0.35229981449445641 0 0.4409427642593301 0.35743108089689513 0 0.41914690343363781 0.30688979866601612 0 0.46226845272279993 0.31901800744800313 0 0.4409427642593301 0.35743108089689513 0 0.49077833859261139 0.35229981449445641 0 0.46655310992796922 0.39650496622958609 0 0.5 0.29999999999999999 0 0.4604742573284204 0.27846934318264788 0 0.49695729691142171 0.25014895411178018 0 0.49695729691142171 0.25014895411178018 0 0.4604742573284204 0.27846934318264788 0 0.46429753744194407 0.22870891180733599 0 0.5 0.29999999999999999 0 0.46226845272279993 0.31901800744800313 0 0.4604742573284204 0.27846934318264788 0 0.41914690343363781 0.30688979866601612 0 0.4604742573284204 0.27846934318264788 0 0.46226845272279993 0.31901800744800313 0 0.42377727103934271 0.25099357235810238 0 0.46429753744194407 0.22870891180733599 0 0.4604742573284204 0.27846934318264788 0 0.42377727103934271 0.25099357235810238 0 0.4604742573284204 0.27846934318264788 0 0.41914690343363781 0.30688979866601612 0 0.42377727103934271 0.25099357235810238 0 0.41914690343363781 0.30688979866601612 0 0.3786248352540974 0.27082301512024259 0 0.36575549820117997 0.31677992835137742 0 0.3786248352540974 0.27082301512024259 0 0.41914690343363781 0.30688979866601612 0 0.4409427642593301 0.35743108089689513 0 0.42161023666869668 0.39493916313643851 0 0.40076539126862748 0.34589349467022118 0 0.4409427642593301 0.35743108089689513 0 0.40076539126862748 0.34589349467022118 0 0.41914690343363781 0.30688979866601612 0 0.36575549820117997 0.31677992835137742 0 0.41914690343363781 0.30688979866601612 0 0.40076539126862748 0.34589349467022118 0 0.40076539126862748 0.34589349467022118 0 0.33277555741076909 0.36432196682010132 0 0.36575549820117997 0.31677992835137742 0 0.38083244760691543 0.38531983672244652 0 0.33277555741076909 0.36432196682010132 0 0.40076539126862748 0.34589349467022118 0 0.36575549820117997 0.31677992835137742 0 0.33277555741076909 0.36432196682010132 0 0.32752639306529541 0.32610012995269699 0 0.33277555741076909 0.36432196682010132 0 0.29644548887253103 0.34914008784168082 0 0.32752639306529541 0.32610012995269699 0 0.33758650185219202 0.23837101504325639 0 0.3786248352540974 0.27082301512024259 0 0.33402499257867951 0.28911035184473982 0 0.36575549820117997 0.31677992835137742 0 0.33402499257867951 0.28911035184473982 0 0.3786248352540974 0.27082301512024259 0 0.36575549820117997 0.31677992835137742 0 0.32752639306529541 0.32610012995269699 0 0.33402499257867951 0.28911035184473982 0 0.29348325746214782 0.31350119524708198 0 0.33402499257867951 0.28911035184473982 0 0.32752639306529541 0.32610012995269699 0 0.33758650185219202 0.23837101504325639 0 0.33402499257867951 0.28911035184473982 0 0.29132859388405002 0.27203693976649962 0 0.29348325746214782 0.31350119524708198 0 0.29132859388405002 0.27203693976649962 0 0.33402499257867951 0.28911035184473982 0 0.29348325746214782 0.31350119524708198 0 0.24432083401701241 0.3006253385567515 0 0.29132859388405002 0.27203693976649962 0 0.25195515620380449 0.25883339815888678 0 0.29132859388405002 0.27203693976649962 0 0.24432083401701241 0.3006253385567515 0 0.25195515620380449 0.25883339815888678 0 0.28040350263641872 0.23054717217092141 0 0.29132859388405002 0.27203693976649962 0 0.27866744612395528 0.38416094670951489 0 0.29644548887253103 0.34914008784168082 0 0.33277555741076909 0.36432196682010132 0 0.29348325746214782 0.31350119524708198 0 0.32752639306529541 0.32610012995269699 0 0.29644548887253103 0.34914008784168082 0 0.29348325746214782 0.31350119524708198 0 0.29644548887253103 0.34914008784168082 0 0.25966125648670141 0.34351016742083729 0 0.29348325746214782 0.31350119524708198 0 0.25966125648670141 0.34351016742083729 0 0.24432083401701241 0.3006253385567515 0 0.27866744612395528 0.38416094670951489 0 0.25966125648670141 0.34351016742083729 0 0.29644548887253103 0.34914008784168082 0 0.27866744612395528 0.38416094670951489 0 0.22033343844674469 0.36963382230740238 0 0.25966125648670141 0.34351016742083729 0 0.27866744612395528 0.38416094670951489 0 0.29124338931648802 0.43334555462578611 0 0.24049127783545701 0.41270748208749802 0 0.29124338931648802 0.43334555462578611 0 0.25982634974572738 0.46097799597715272 0 0.24049127783545701 0.41270748208749802 0 0.27866744612395528 0.38416094670951489 0 0.31778888742534622 0.40581751814196781 0 0.29124338931648802 0.43334555462578611 0 0.27866744612395528 0.38416094670951489 0 0.33277555741076909 0.36432196682010132 0 0.31778888742534622 0.40581751814196781 0 0.33277555741076909 0.36432196682010132 0 0.35221190152536241 0.40457127605439203 0 0.31778888742534622 0.40581751814196781 0 0.34258405725730701 0.4444034294386992 0 0.31778888742534622 0.40581751814196781 0 0.35221190152536241 0.40457127605439203 0 0.34258405725730701 0.4444034294386992 0 0.29124338931648802 0.43334555462578611 0 0.31778888742534622 0.40581751814196781 0 0.34258405725730701 0.4444034294386992 0 0.35221190152536241 0.40457127605439203 0 0.38707855792647411 0.42299362914874578 0 0.38083244760691543 0.38531983672244652 0 0.38707855792647411 0.42299362914874578 0 0.35221190152536241 0.40457127605439203 0 0.38083244760691543 0.38531983672244652 0 0.35221190152536241 0.40457127605439203 0 0.33277555741076909 0.36432196682010132 0 0.38244435121258652 0.51653317813019495 0 0.35024835142131061 0.48654922671676981 0 0.3908716102680424 0.47010282357248828 0 0.34258405725730701 0.4444034294386992 0 0.3908716102680424 0.47010282357248828 0 0.35024835142131061 0.48654922671676981 0 0.34258405725730701 0.4444034294386992 0 0.38707855792647411 0.42299362914874578 0 0.3908716102680424 0.47010282357248828 0 0.34258405725730701 0.4444034294386992 0 0.31068898841644388 0.47541502461811092 0 0.29124338931648802 0.43334555462578611 0 0.35024835142131061 0.48654922671676981 0 0.33190227185843768 0.52715113583864037 0 0.31068898841644388 0.47541502461811092 0 0.34258405725730701 0.4444034294386992 0 0.35024835142131061 0.48654922671676981 0 0.31068898841644388 0.47541502461811092 0 0.28307294598219601 0.50789252727458634 0 0.25982634974572738 0.46097799597715272 0 0.31068898841644388 0.47541502461811092 0 0.29124338931648802 0.43334555462578611 0 0.31068898841644388 0.47541502461811092 0 0.25982634974572738 0.46097799597715272 0 0.28307294598219601 0.50789252727458634 0 0.23975172658309729 0.49475499200540818 0 0.25982634974572738 0.46097799597715272 0 0.22278230690790279 0.44824268025881547 0 0.23975172658309729 0.49475499200540818 0 0.19604738184454831 0.47787523520405789 0 0.22278230690790279 0.44824268025881547 0 0.19604738184454831 0.47787523520405789 0 0.191953871957803 0.42546416763755879 0 0.22278230690790279 0.44824268025881547 0 0.24049127783545701 0.41270748208749802 0 0.25982634974572738 0.46097799597715272 0 0.22278230690790279 0.44824268025881547 0 0.25982634974572738 0.46097799597715272 0 0.23975172658309729 0.49475499200540818 0 0.27866744612395528 0.38416094670951489 0 0.24049127783545701 0.41270748208749802 0 0.22033343844674469 0.36963382230740238 0 0.1650278706801647 0.38791388161335733 0 0.22033343844674469 0.36963382230740238 0 0.191953871957803 0.42546416763755879 0 0.22033343844674469 0.36963382230740238 0 0.24049127783545701 0.41270748208749802 0 0.191953871957803 0.42546416763755879 0 0.22278230690790279 0.44824268025881547 0 0.191953871957803 0.42546416763755879 0 0.24049127783545701 0.41270748208749802 0 0.15801167086041079 0.46008690540259539 0 0.13773355295499351 0.42497777642586831 0 0.191953871957803 0.42546416763755879 0 0.1650278706801647 0.38791388161335733 0 0.191953871957803 0.42546416763755879 0 0.13773355295499351 0.42497777642586831 0 0.1650278706801647 0.38791388161335733 0 0.13773355295499351 0.42497777642586831 0 0.1117088112799664 0.38831403004970022 0 0.15801167086041079 0.46008690540259539 0 0.113541300460994 0.46208784312094731 0 0.13773355295499351 0.42497777642586831 0 0.1216098864341134 0.50637075089503902 0 0.113541300460994 0.46208784312094731 0 0.15801167086041079 0.46008690540259539 0 0.1216098864341134 0.50637075089503902 0 0.15801167086041079 0.46008690540259539 0 0.16618607197337229 0.50652878253548905 0 0.15801167086041079 0.46008690540259539 0 0.19604738184454831 0.47787523520405789 0 0.16618607197337229 0.50652878253548905 0 0.15801167086041079 0.46008690540259539 0 0.191953871957803 0.42546416763755879 0 0.19604738184454831 0.47787523520405789 0 0.25195515620380449 0.25883339815888678 0 0.24432083401701241 0.3006253385567515 0 0.21049769590865089 0.26857363548218488 0 0.19670163708476801 0.31472518408333222 0 0.21049769590865089 0.26857363548218488 0 0.24432083401701241 0.3006253385567515 0 0.19670163708476801 0.31472518408333222 0 0.168349569971391 0.28054490850913671 0 0.21049769590865089 0.26857363548218488 0 0.19670163708476801 0.31472518408333222 0 0.22615676742807109 0.33458786033114157 0 0.18434624290945251 0.35208838264196463 0 0.19670163708476801 0.31472518408333222 0 0.24432083401701241 0.3006253385567515 0 0.22615676742807109 0.33458786033114157 0 0.24432083401701241 0.3006253385567515 0 0.25966125648670141 0.34351016742083729 0 0.22615676742807109 0.33458786033114157 0 0.22033343844674469 0.36963382230740238 0 0.22615676742807109 0.33458786033114157 0 0.25966125648670141 0.34351016742083729 0 0.22033343844674469 0.36963382230740238 0 0.18434624290945251 0.35208838264196463 0 0.22615676742807109 0.33458786033114157 0 0.1650278706801647 0.38791388161335733 0 0.18434624290945251 0.35208838264196463 0 0.22033343844674469 0.36963382230740238 0 0.1650278706801647 0.38791388161335733 0 0.14223753364722069 0.3341983344262433 0 0.18434624290945251 0.35208838264196463 0 0.1650278706801647 0.38791388161335733 0 0.1117088112799664 0.38831403004970022 0 0.14223753364722069 0.3341983344262433 0 0.19670163708476801 0.31472518408333222 0 0.18434624290945251 0.35208838264196463 0 0.14223753364722069 0.3341983344262433 0 0.19670163708476801 0.31472518408333222 0 0.14223753364722069 0.3341983344262433 0 0.168349569971391 0.28054490850913671 0 0.1247745017231483 0.27198077544791172 0 0.168349569971391 0.28054490850913671 0 0.14223753364722069 0.3341983344262433 0 0.1247745017231483 0.27198077544791172 0 0.14377654328998779 0.2442024734791064 0 0.168349569971391 0.28054490850913671 0 0.17933913398461551 0.2350063570234002 0 0.21049769590865089 0.26857363548218488 0 0.168349569971391 0.28054490850913671 0 0.17933913398461551 0.2350063570234002 0 0.168349569971391 0.28054490850913671 0 0.14377654328998779 0.2442024734791064 0 0.049706944316556423 0.27522722923869108 0 0.095326043202144745 0.24554465089224409 0 0.093851963071650835 0.30582068233324772 0 0.1247745017231483 0.27198077544791172 0 0.095326043202144745 0.24554465089224409 0 0.14377654328998779 0.2442024734791064 0 0.1247745017231483 0.27198077544791172 0 0.093851963071650835 0.30582068233324772 0 0.095326043202144745 0.24554465089224409 0 0.1247745017231483 0.27198077544791172 0 0.14223753364722069 0.3341983344262433 0 0.093851963071650835 0.30582068233324772 0 0.049706944316556423 0.27522722923869108 0 0.093851963071650835 0.30582068233324772 0 0.046389130980076937 0.32668781832131749 0 0.087545339447545459 0.35122518864182262 0 0.046389130980076937 0.32668781832131749 0 0.093851963071650835 0.30582068233324772 0 0.087545339447545459 0.35122518864182262 0 0.093851963071650835 0.30582068233324772 0 0.14223753364722069 0.3341983344262433 0 0.087545339447545459 0.35122518864182262 0 0.14223753364722069 0.3341983344262433 0 0.1117088112799664 0.38831403004970022 0 0.087545339447545459 0.35122518864182262 0 0.1117088112799664 0.38831403004970022 0 0.050583896093752537 0.38543522283434112 0 0.087545339447545459 0.35122518864182262 0 0.050583896093752537 0.38543522283434112 0 0.046389130980076937 0.32668781832131749 0 0 0.35000000000145642 0 0.046389130980076937 0.32668781832131749 0 0.050583896093752537 0.38543522283434112 0 0 0.35000000000145642 0 0 0.30000000000124832 0 0.046389130980076937 0.32668781832131749 0 0 0.30000000000124832 0 0.049706944316556423 0.27522722923869108 0 0.046389130980076937 0.32668781832131749 0 0 0.30000000000124832 0 0 0.25000000000104028 0 0.049706944316556423 0.27522722923869108 0 0 0.25000000000104028 0 0.044081577119474857 0.2271058242433576 0 0.049706944316556423 0.27522722923869108 0 0.078358742472063481 0.43365249433908948 0 0.113541300460994 0.46208784312094731 0 0.068743045408989428 0.48853989837882689 0 0.1216098864341134 0.50637075089503902 0 0.068743045408989428 0.48853989837882689 0 0.113541300460994 0.46208784312094731 0 0.113541300460994 0.46208784312094731 0 0.078358742472063481 0.43365249433908948 0 0.13773355295499351 0.42497777642586831 0 0.078358742472063481 0.43365249433908948 0 0.1117088112799664 0.38831403004970022 0 0.13773355295499351 0.42497777642586831 0 0.078358742472063481 0.43365249433908948 0 0.050583896093752537 0.38543522283434112 0 0.1117088112799664 0.38831403004970022 0 0.078358742472063481 0.43365249433908948 0 0.035463093262830522 0.42673416072819947 0 0.050583896093752537 0.38543522283434112 0 0 0.40000000000166441 0 0 0.35000000000145642 0 0.050583896093752537 0.38543522283434112 0 0 0.40000000000166441 0 0.050583896093752537 0.38543522283434112 0 0.035463093262830522 0.42673416072819947 0 0 0.45000000000187229 0 0 0.40000000000166441 0 0.035463093262830522 0.42673416072819947 0 0 0.45000000000187229 0 0.035463093262830522 0.42673416072819947 0 0.033550201249889847 0.46247875832467239 0 0 0.50000000000205869 0 0.033550201249889847 0.46247875832467239 0 0.068743045408989428 0.48853989837882689 0 0.078358742472063481 0.43365249433908948 0 0.068743045408989428 0.48853989837882689 0 0.033550201249889847 0.46247875832467239 0 0.078358742472063481 0.43365249433908948 0 0.033550201249889847 0.46247875832467239 0 0.035463093262830522 0.42673416072819947 0 0 0.50000000000205869 0 0 0.45000000000187229 0 0.033550201249889847 0.46247875832467239 0 0 0.50000000000205869 0 0.068743045408989428 0.48853989837882689 0 0.044576108720083309 0.53509043209532614 0 0 0.55000000000173355 0 0 0.50000000000205869 0 0.044576108720083309 0.53509043209532614 0 0 0.55000000000173355 0 0.044576108720083309 0.53509043209532614 0 0.034381862692950467 0.57372682250960894 0 0.077693244765132896 0.56932317963405099 0 0.034381862692950467 0.57372682250960894 0 0.044576108720083309 0.53509043209532614 0 0.068743045408989428 0.48853989837882689 0 0.085622222639554768 0.53333248912060549 0 0.044576108720083309 0.53509043209532614 0 0.1216098864341134 0.50637075089503902 0 0.085622222639554768 0.53333248912060549 0 0.068743045408989428 0.48853989837882689 0 0.077693244765132896 0.56932317963405099 0 0.044576108720083309 0.53509043209532614 0 0.085622222639554768 0.53333248912060549 0 0.077693244765132896 0.56932317963405099 0 0.085622222639554768 0.53333248912060549 0 0.1154888278694548 0.56733818459978413 0 0.085622222639554768 0.53333248912060549 0 0.1216098864341134 0.50637075089503902 0 0.1154888278694548 0.56733818459978413 0 0.077693244765132896 0.56932317963405099 0 0.1154888278694548 0.56733818459978413 0 0.1024350934457823 0.60772393977513839 0 0.086179601630648681 0.64647209519980475 0 0.050069554451969707 0.61308520079857043 0 0.1024350934457823 0.60772393977513839 0 0.077693244765132896 0.56932317963405099 0 0.1024350934457823 0.60772393977513839 0 0.050069554451969707 0.61308520079857043 0 0.077693244765132896 0.56932317963405099 0 0.050069554451969707 0.61308520079857043 0 0.034381862692950467 0.57372682250960894 0 0 0.60000000000138687 0 0 0.55000000000173355 0 0.034381862692950467 0.57372682250960894 0 0 0.65000000000104008 0 0 0.60000000000138687 0 0.050069554451969707 0.61308520079857043 0 0 0.60000000000138687 0 0.034381862692950467 0.57372682250960894 0 0.050069554451969707 0.61308520079857043 0 0 0.7000000000006934 0 0 0.65000000000104008 0 0.046634677244967337 0.671418230738282 0 0.086179601630648681 0.64647209519980475 0 0.046634677244967337 0.671418230738282 0 0.050069554451969707 0.61308520079857043 0 0 0.65000000000104008 0 0.050069554451969707 0.61308520079857043 0 0.046634677244967337 0.671418230738282 0 0 0.75000000000034661 0 0 0.7000000000006934 0 0.049706944316475897 0.72477277076253799 0 0 0.7000000000006934 0 0.046634677244967337 0.671418230738282 0 0.049706944316475897 0.72477277076253799 0 0 0.75000000000034661 0 0.049706944316475897 0.72477277076253799 0 0.04408157711937423 0.7728941757575627 0 0.049706944316475897 0.72477277076253799 0 0.1020579365089687 0.69352219419301997 0 0.090953281884486245 0.7564451946902494 0 0.1215415378367805 0.72939333680004137 0 0.090953281884486245 0.7564451946902494 0 0.1020579365089687 0.69352219419301997 0 0.049706944316475897 0.72477277076253799 0 0.046634677244967337 0.671418230738282 0 0.1020579365089687 0.69352219419301997 0 0.1215415378367805 0.72939333680004137 0 0.14335651144331049 0.75565258250209677 0 0.090953281884486245 0.7564451946902494 0 0.086179601630648681 0.64647209519980475 0 0.1020579365089687 0.69352219419301997 0 0.046634677244967337 0.671418230738282 0 0.086179601630648681 0.64647209519980475 0 0.1241190223511371 0.64391885572885044 0 0.1020579365089687 0.69352219419301997 0 0.086179601630648681 0.64647209519980475 0 0.1024350934457823 0.60772393977513839 0 0.1241190223511371 0.64391885572885044 0 0.16500388252850301 0.66612077714085194 0 0.1020579365089687 0.69352219419301997 0 0.1241190223511371 0.64391885572885044 0 0.15720202157091859 0.60665697304410315 0 0.16500388252850301 0.66612077714085194 0 0.1241190223511371 0.64391885572885044 0 0.15720202157091859 0.60665697304410315 0 0.19914261668318661 0.62286739485272158 0 0.16500388252850301 0.66612077714085194 0 0.16500388252850301 0.66612077714085194 0 0.15332765547575641 0.71200081858233666 0 0.1020579365089687 0.69352219419301997 0 0.1215415378367805 0.72939333680004137 0 0.15332765547575641 0.71200081858233666 0 0.14335651144331049 0.75565258250209677 0 0.1215415378367805 0.72939333680004137 0 0.1020579365089687 0.69352219419301997 0 0.15332765547575641 0.71200081858233666 0 0.16500388252850301 0.66612077714085194 0 0.19068556247388771 0.71028988922845504 0 0.15332765547575641 0.71200081858233666 0 0.18269480424590959 0.75905448272264375 0 0.14335651144331049 0.75565258250209677 0 0.15332765547575641 0.71200081858233666 0 0.18269480424590959 0.75905448272264375 0 0.15332765547575641 0.71200081858233666 0 0.19068556247388771 0.71028988922845504 0 0.18269480424590959 0.75905448272264375 0 0.19068556247388771 0.71028988922845504 0 0.2248999640082178 0.72584299459689172 0 0.2236846579037573 0.67380363126050236 0 0.2248999640082178 0.72584299459689172 0 0.19068556247388771 0.71028988922845504 0 0.2236846579037573 0.67380363126050236 0 0.26439878998046262 0.7048065392091396 0 0.2248999640082178 0.72584299459689172 0 0.25676291524611189 0.7436741304886243 0 0.22556077506376701 0.77837424984191617 0 0.2248999640082178 0.72584299459689172 0 0.25676291524611189 0.7436741304886243 0 0.2248999640082178 0.72584299459689172 0 0.26439878998046262 0.7048065392091396 0 0.2236846579037573 0.67380363126050236 0 0.16500388252850301 0.66612077714085194 0 0.19914261668318661 0.62286739485272158 0 0.2236846579037573 0.67380363126050236 0 0.19068556247388771 0.71028988922845504 0 0.16500388252850301 0.66612077714085194 0 0.2236846579037573 0.67380363126050236 0 0.19914261668318661 0.62286739485272158 0 0.2459498854893499 0.63248470766216769 0 0.2236846579037573 0.67380363126050236 0 0.2459498854893499 0.63248470766216769 0 0.27820712747429932 0.65530134213254643 0 0.22549374774072969 0.58452645269293457 0 0.2459498854893499 0.63248470766216769 0 0.19914261668318661 0.62286739485272158 0 0.26573297623774761 0.59828298563722948 0 0.2459498854893499 0.63248470766216769 0 0.22549374774072969 0.58452645269293457 0 0.22549374774072969 0.58452645269293457 0 0.19914261668318661 0.62286739485272158 0 0.18381867841758909 0.57774125163628387 0 0.20050006573841939 0.53248514016039872 0 0.22549374774072969 0.58452645269293457 0 0.18381867841758909 0.57774125163628387 0 0.26573297623774761 0.59828298563722948 0 0.22549374774072969 0.58452645269293457 0 0.25115337790845271 0.54719303014923271 0 0.20050006573841939 0.53248514016039872 0 0.25115337790845271 0.54719303014923271 0 0.22549374774072969 0.58452645269293457 0 0.20050006573841939 0.53248514016039872 0 0.23975172658309729 0.49475499200540818 0 0.25115337790845271 0.54719303014923271 0 0.20050006573841939 0.53248514016039872 0 0.16618607197337229 0.50652878253548905 0 0.19604738184454831 0.47787523520405789 0 0.20050006573841939 0.53248514016039872 0 0.19604738184454831 0.47787523520405789 0 0.23975172658309729 0.49475499200540818 0 0.20050006573841939 0.53248514016039872 0 0.18381867841758909 0.57774125163628387 0 0.14934928745814749 0.55042914607228977 0 0.20050006573841939 0.53248514016039872 0 0.14934928745814749 0.55042914607228977 0 0.16618607197337229 0.50652878253548905 0 0.1216098864341134 0.50637075089503902 0 0.16618607197337229 0.50652878253548905 0 0.14934928745814749 0.55042914607228977 0 0.1154888278694548 0.56733818459978413 0 0.1216098864341134 0.50637075089503902 0 0.14934928745814749 0.55042914607228977 0 0.15720202157091859 0.60665697304410315 0 0.1154888278694548 0.56733818459978413 0 0.14934928745814749 0.55042914607228977 0 0.15720202157091859 0.60665697304410315 0 0.1024350934457823 0.60772393977513839 0 0.1154888278694548 0.56733818459978413 0 0.15720202157091859 0.60665697304410315 0 0.1241190223511371 0.64391885572885044 0 0.1024350934457823 0.60772393977513839 0 0.18381867841758909 0.57774125163628387 0 0.19914261668318661 0.62286739485272158 0 0.15720202157091859 0.60665697304410315 0 0.15720202157091859 0.60665697304410315 0 0.14934928745814749 0.55042914607228977 0 0.18381867841758909 0.57774125163628387 0 0.15000000000062411 1 0 0.10000000000041601 1 0 0.10266856499240549 0.95548163909968886 0 0.083411279318375747 0.91030024466934134 0 0.10266856499240549 0.95548163909968886 0 0.053064897599294662 0.95186845269532028 0 0.050000000000207989 1 0 0.053064897599294662 0.95186845269532028 0 0.10000000000041601 1 0 0.10000000000041601 1 0 0.053064897599294662 0.95186845269532028 0 0.10266856499240549 0.95548163909968886 0 0.050000000000207989 1 0 0.025766224399875661 0.97546711317377799 0 0.053064897599294662 0.95186845269532028 0 0 1 0 0.025766224399875661 0.97546711317377799 0 0.050000000000207989 1 0 0 1 0 0 0.94999999999979179 0 0.025766224399875661 0.97546711317377799 0 0 0.94999999999979179 0 0.053064897599294662 0.95186845269532028 0 0.025766224399875661 0.97546711317377799 0 0 0.94999999999979179 0 0.0443105827531413 0.89858748162559932 0 0.053064897599294662 0.95186845269532028 0 0.083411279318375747 0.91030024466934134 0 0.053064897599294662 0.95186845269532028 0 0.0443105827531413 0.89858748162559932 0 0 0.94999999999979179 0 0 0.89999999999958358 0 0.0443105827531413 0.89858748162559932 0 0 0.89999999999958358 0 0 0.84999999999965292 0 0.0443105827531413 0.89858748162559932 0 0.083411279318375747 0.91030024466934134 0 0.0443105827531413 0.89858748162559932 0 0.065374659239661639 0.8551091961254178 0 0.083411279318375747 0.91030024466934134 0 0.065374659239661639 0.8551091961254178 0 0.10562472963403439 0.87143394428979881 0 0.083411279318375747 0.91030024466934134 0 0.1241151115713819 0.9045666525468371 0 0.10266856499240549 0.95548163909968886 0 0.14617343800780541 0.93808063414349496 0 0.10266856499240549 0.95548163909968886 0 0.1241151115713819 0.9045666525468371 0 0.14474682429600511 0.85524784522713515 0 0.1241151115713819 0.9045666525468371 0 0.10562472963403439 0.87143394428979881 0 0.083411279318375747 0.91030024466934134 0 0.10562472963403439 0.87143394428979881 0 0.1241151115713819 0.9045666525468371 0 0.14474682429600511 0.85524784522713515 0 0.10562472963403439 0.87143394428979881 0 0.1074251789111534 0.83564394292147814 0 0.083105206071452636 0.79992298667296435 0 0.1074251789111534 0.83564394292147814 0 0.065374659239661639 0.8551091961254178 0 0.065374659239661639 0.8551091961254178 0 0.1074251789111534 0.83564394292147814 0 0.10562472963403439 0.87143394428979881 0 0 0.84999999999965292 0 0.038512288486097702 0.8155852717111195 0 0.065374659239661639 0.8551091961254178 0 0 0.84999999999965292 0 0.065374659239661639 0.8551091961254178 0 0.0443105827531413 0.89858748162559932 0 0 0.84999999999965292 0 0 0.79999999999999982 0 0.038512288486097702 0.8155852717111195 0 0.083105206071452636 0.79992298667296435 0 0.065374659239661639 0.8551091961254178 0 0.038512288486097702 0.8155852717111195 0 0.083105206071452636 0.79992298667296435 0 0.038512288486097702 0.8155852717111195 0 0.04408157711937423 0.7728941757575627 0 0 0.79999999999999982 0 0.04408157711937423 0.7728941757575627 0 0.038512288486097702 0.8155852717111195 0 0 0.79999999999999982 0 0 0.75000000000034661 0 0.04408157711937423 0.7728941757575627 0 0.049706944316475897 0.72477277076253799 0 0.090953281884486245 0.7564451946902494 0 0.04408157711937423 0.7728941757575627 0 0.083105206071452636 0.79992298667296435 0 0.04408157711937423 0.7728941757575627 0 0.090953281884486245 0.7564451946902494 0 0.083105206071452636 0.79992298667296435 0 0.1382744753146134 0.79650574229207483 0 0.1074251789111534 0.83564394292147814 0 0.083105206071452636 0.79992298667296435 0 0.090953281884486245 0.7564451946902494 0 0.1382744753146134 0.79650574229207483 0 0.1382744753146134 0.79650574229207483 0 0.090953281884486245 0.7564451946902494 0 0.14335651144331049 0.75565258250209677 0 0.18269480424590959 0.75905448272264375 0 0.1382744753146134 0.79650574229207483 0 0.14335651144331049 0.75565258250209677 0 0.18269480424590959 0.75905448272264375 0 0.17777405986036951 0.81832336108265358 0 0.1382744753146134 0.79650574229207483 0 0.18269480424590959 0.75905448272264375 0 0.2248999640082178 0.72584299459689172 0 0.22556077506376701 0.77837424984191617 0 0.21858834311891909 0.81980263716112767 0 0.22556077506376701 0.77837424984191617 0 0.26104540868854792 0.81401944968719064 0 0.21858834311891909 0.81980263716112767 0 0.17777405986036951 0.81832336108265358 0 0.22556077506376701 0.77837424984191617 0 0.18269480424590959 0.75905448272264375 0 0.22556077506376701 0.77837424984191617 0 0.17777405986036951 0.81832336108265358 0 0.21858834311891909 0.81980263716112767 0 0.19741632902693801 0.86755867406447229 0 0.17777405986036951 0.81832336108265358 0 0.21858834311891909 0.81980263716112767 0 0.26104540868854792 0.81401944968719064 0 0.2401283238295133 0.85648409884788523 0 0.21858834311891909 0.81980263716112767 0 0.2401283238295133 0.85648409884788523 0 0.19741632902693801 0.86755867406447229 0 0.14474682429600511 0.85524784522713515 0 0.17777405986036951 0.81832336108265358 0 0.19741632902693801 0.86755867406447229 0 0.14474682429600511 0.85524784522713515 0 0.19741632902693801 0.86755867406447229 0 0.16206583317966519 0.89685560785156404 0 0.14474682429600511 0.85524784522713515 0 0.1382744753146134 0.79650574229207483 0 0.17777405986036951 0.81832336108265358 0 0.14474682429600511 0.85524784522713515 0 0.1074251789111534 0.83564394292147814 0 0.1382744753146134 0.79650574229207483 0 0.14474682429600511 0.85524784522713515 0 0.16206583317966519 0.89685560785156404 0 0.1241151115713819 0.9045666525468371 0 0.14617343800780541 0.93808063414349496 0 0.1241151115713819 0.9045666525468371 0 0.16206583317966519 0.89685560785156404 0 0.19901705110390991 0.9175543425573498 0 0.14617343800780541 0.93808063414349496 0 0.16206583317966519 0.89685560785156404 0 0.19901705110390991 0.9175543425573498 0 0.16206583317966519 0.89685560785156404 0 0.19741632902693801 0.86755867406447229 0 0.19901705110390991 0.9175543425573498 0 0.19741632902693801 0.86755867406447229 0 0.24536017905392571 0.90704567837671446 0 0.19741632902693801 0.86755867406447229 0 0.2401283238295133 0.85648409884788523 0 0.24536017905392571 0.90704567837671446 0 0.19901705110390991 0.9175543425573498 0 0.24536017905392571 0.90704567837671446 0 0.22850979588452081 0.95594428570238643 0 0.19901705110390991 0.9175543425573498 0 0.22850979588452081 0.95594428570238643 0 0.18474005699953849 0.96231585248064622 0 0.27609987656793722 0.94991445621608572 0 0.22850979588452081 0.95594428570238643 0 0.24536017905392571 0.90704567837671446 0 0.25000000000104028 1 0 0.20000000000083221 1 0 0.22850979588452081 0.95594428570238643 0 0.20000000000083221 1 0 0.18474005699953849 0.96231585248064622 0 0.22850979588452081 0.95594428570238643 0 0.20000000000083221 1 0 0.15000000000062411 1 0 0.18474005699953849 0.96231585248064622 0 0.19901705110390991 0.9175543425573498 0 0.18474005699953849 0.96231585248064622 0 0.14617343800780541 0.93808063414349496 0 0.15000000000062411 1 0 0.14617343800780541 0.93808063414349496 0 0.18474005699953849 0.96231585248064622 0 0.15000000000062411 1 0 0.10266856499240549 0.95548163909968886 0 0.14617343800780541 0.93808063414349496 0 0.35000000000145642 1 0 0.32544832635163229 0.95485394099568932 0 0.36184234618600131 0.96443954459096326 0 0.40000000000166441 1 0 0.35000000000145642 1 0 0.36184234618600131 0.96443954459096326 0 0.35752321586431363 0.9185439911803448 0 0.36184234618600131 0.96443954459096326 0 0.32544832635163229 0.95485394099568932 0 0.35752321586431363 0.9185439911803448 0 0.39641108128798319 0.94356127926187128 0 0.36184234618600131 0.96443954459096326 0 0.35000000000145642 1 0 0.30000000000124832 1 0 0.32544832635163229 0.95485394099568932 0 0.30000000000124832 1 0 0.25000000000104028 1 0 0.27609987656793722 0.94991445621608572 0 0.25000000000104028 1 0 0.22850979588452081 0.95594428570238643 0 0.27609987656793722 0.94991445621608572 0 0.30000000000124832 1 0 0.27609987656793722 0.94991445621608572 0 0.32544832635163229 0.95485394099568932 0 0.27609987656793722 0.94991445621608572 0 0.30864387279288652 0.89906554525974958 0 0.32544832635163229 0.95485394099568932 0 0.27270076654418179 0.87751467830216623 0 0.30864387279288652 0.89906554525974958 0 0.24536017905392571 0.90704567837671446 0 0.27609987656793722 0.94991445621608572 0 0.24536017905392571 0.90704567837671446 0 0.30864387279288652 0.89906554525974958 0 0.27270076654418179 0.87751467830216623 0 0.24536017905392571 0.90704567837671446 0 0.2401283238295133 0.85648409884788523 0 0.35752321586431363 0.9185439911803448 0 0.30864387279288652 0.89906554525974958 0 0.35864759629805099 0.87963482415279515 0 0.35752321586431363 0.9185439911803448 0 0.32544832635163229 0.95485394099568932 0 0.30864387279288652 0.89906554525974958 0 0.35752321586431363 0.9185439911803448 0 0.35864759629805099 0.87963482415279515 0 0.39767323751400468 0.89584229130535065 0 0.35864759629805099 0.87963482415279515 0 0.33403534827021109 0.84402799729020661 0 0.39536230704883951 0.84069429572832477 0 0.33403534827021109 0.84402799729020661 0 0.35642984951668422 0.80994399665655703 0 0.39536230704883951 0.84069429572832477 0 0.33403534827021109 0.84402799729020661 0 0.30857225866488791 0.81101973481716805 0 0.35642984951668422 0.80994399665655703 0 0.33403534827021109 0.84402799729020661 0 0.35864759629805099 0.87963482415279515 0 0.30864387279288652 0.89906554525974958 0 0.33403534827021109 0.84402799729020661 0 0.30864387279288652 0.89906554525974958 0 0.29209212897034281 0.84715728365233667 0 0.27270076654418179 0.87751467830216623 0 0.29209212897034281 0.84715728365233667 0 0.30864387279288652 0.89906554525974958 0 0.27270076654418179 0.87751467830216623 0 0.2401283238295133 0.85648409884788523 0 0.29209212897034281 0.84715728365233667 0 0.26104540868854792 0.81401944968719064 0 0.29209212897034281 0.84715728365233667 0 0.2401283238295133 0.85648409884788523 0 0.26104540868854792 0.81401944968719064 0 0.30857225866488791 0.81101973481716805 0 0.29209212897034281 0.84715728365233667 0 0.33403534827021109 0.84402799729020661 0 0.29209212897034281 0.84715728365233667 0 0.30857225866488791 0.81101973481716805 0 0.26104540868854792 0.81401944968719064 0 0.2792923945214143 0.77665808831789485 0 0.30857225866488791 0.81101973481716805 0 0.33123028043633618 0.77629643437932982 0 0.30857225866488791 0.81101973481716805 0 0.2792923945214143 0.77665808831789485 0 0.26104540868854792 0.81401944968719064 0 0.22556077506376701 0.77837424984191617 0 0.2792923945214143 0.77665808831789485 0 0.25676291524611189 0.7436741304886243 0 0.29904318922293632 0.74132814928635593 0 0.2792923945214143 0.77665808831789485 0 0.25676291524611189 0.7436741304886243 0 0.2792923945214143 0.77665808831789485 0 0.22556077506376701 0.77837424984191617 0 0.33123028043633618 0.77629643437932982 0 0.2792923945214143 0.77665808831789485 0 0.29904318922293632 0.74132814928635593 0 0.33123028043633618 0.77629643437932982 0 0.29904318922293632 0.74132814928635593 0 0.35415581127540569 0.73730480045900215 0 0.33123028043633618 0.77629643437932982 0 0.35642984951668422 0.80994399665655703 0 0.30857225866488791 0.81101973481716805 0 0.33123028043633618 0.77629643437932982 0 0.38586766253264881 0.78219501014812498 0 0.35642984951668422 0.80994399665655703 0 0.33123028043633618 0.77629643437932982 0 0.35415581127540569 0.73730480045900215 0 0.38586766253264881 0.78219501014812498 0 0.40326160981139969 0.73346192995102844 0 0.42676259796334498 0.76772545931379299 0 0.38586766253264881 0.78219501014812498 0 0.40326160981139969 0.73346192995102844 0 0.38586766253264881 0.78219501014812498 0 0.35415581127540569 0.73730480045900215 0 0.39536230704883951 0.84069429572832477 0 0.38586766253264881 0.78219501014812498 0 0.42609163930740518 0.80361684430568059 0 0.39536230704883951 0.84069429572832477 0 0.35642984951668422 0.80994399665655703 0 0.38586766253264881 0.78219501014812498 0 0.38586766253264881 0.78219501014812498 0 0.42676259796334498 0.76772545931379299 0 0.42609163930740518 0.80361684430568059 0 0.4656888918609538 0.78493261229743638 0 0.42676259796334498 0.76772545931379299 0 0.45582236402875981 0.73896743678908217 0 0.4656888918609538 0.78493261229743638 0 0.45582236402875981 0.73896743678908217 0 0.50945740445113552 0.75476055527778108 0 0.4656888918609538 0.78493261229743638 0 0.50945740445113552 0.75476055527778108 0 0.50731287292894423 0.78963574450233831 0 0.4656888918609538 0.78493261229743638 0 0.50731287292894423 0.78963574450233831 0 0.50627822638148745 0.8263979829520941 0 0.4656888918609538 0.78493261229743638 0 0.45677673713123867 0.84253684404072415 0 0.42609163930740518 0.80361684430568059 0 0.4656888918609538 0.78493261229743638 0 0.42609163930740518 0.80361684430568059 0 0.42676259796334498 0.76772545931379299 0 0.4656888918609538 0.78493261229743638 0 0.50627822638148745 0.8263979829520941 0 0.45677673713123867 0.84253684404072415 0 0.50202631463681879 0.87892870825713787 0 0.45677673713123867 0.84253684404072415 0 0.50627822638148745 0.8263979829520941 0 0.50202631463681879 0.87892870825713787 0 0.44003836461056539 0.88093474584252718 0 0.45677673713123867 0.84253684404072415 0 0.39536230704883951 0.84069429572832477 0 0.45677673713123867 0.84253684404072415 0 0.44003836461056539 0.88093474584252718 0 0.39536230704883951 0.84069429572832477 0 0.44003836461056539 0.88093474584252718 0 0.39767323751400468 0.89584229130535065 0 0.39536230704883951 0.84069429572832477 0 0.42609163930740518 0.80361684430568059 0 0.45677673713123867 0.84253684404072415 0 0.39536230704883951 0.84069429572832477 0 0.39767323751400468 0.89584229130535065 0 0.35864759629805099 0.87963482415279515 0 0.35752321586431363 0.9185439911803448 0 0.39767323751400468 0.89584229130535065 0 0.39641108128798319 0.94356127926187128 0 0.4367309254023824 0.92065556789053882 0 0.39641108128798319 0.94356127926187128 0 0.39767323751400468 0.89584229130535065 0 0.4367309254023824 0.92065556789053882 0 0.39767323751400468 0.89584229130535065 0 0.44003836461056539 0.88093474584252718 0 0.4367309254023824 0.92065556789053882 0 0.44003836461056539 0.88093474584252718 0 0.47401147028110507 0.91529957330468115 0 0.50202631463681879 0.87892870825713787 0 0.47401147028110507 0.91529957330468115 0 0.44003836461056539 0.88093474584252718 0 0.52122150208832174 0.94089974453840242 0 0.47135117303824892 0.95556877749289892 0 0.47401147028110507 0.91529957330468115 0 0.50202631463681879 0.87892870825713787 0 0.52122150208832174 0.94089974453840242 0 0.47401147028110507 0.91529957330468115 0 0.4367309254023824 0.92065556789053882 0 0.47401147028110507 0.91529957330468115 0 0.47135117303824892 0.95556877749289892 0 0.4367309254023824 0.92065556789053882 0 0.47135117303824892 0.95556877749289892 0 0.4308986359464303 0.96395712492906194 0 0.50000000000205869 1 0 0.47135117303824892 0.95556877749289892 0 0.52122150208832174 0.94089974453840242 0 0.50000000000205869 1 0 0.45000000000187229 1 0 0.47135117303824892 0.95556877749289892 0 0.45000000000187229 1 0 0.4308986359464303 0.96395712492906194 0 0.47135117303824892 0.95556877749289892 0 0.45000000000187229 1 0 0.40000000000166441 1 0 0.4308986359464303 0.96395712492906194 0 0.40000000000166441 1 0 0.39641108128798319 0.94356127926187128 0 0.4308986359464303 0.96395712492906194 0 0.4367309254023824 0.92065556789053882 0 0.4308986359464303 0.96395712492906194 0 0.39641108128798319 0.94356127926187128 0 0.40000000000166441 1 0 0.36184234618600131 0.96443954459096326 0 0.39641108128798319 0.94356127926187128 0 0.33122374654748771 0.57588941099433744 0 0.35765792684946668 0.6000687869219653 0 0.31502927232353312 0.6134992213375432 0 0.35864735590330371 0.63903383440414463 0 0.31502927232353312 0.6134992213375432 0 0.35765792684946668 0.6000687869219653 0 0.35864735590330371 0.63903383440414463 0 0.35765792684946668 0.6000687869219653 0 0.39743091024207589 0.6239520004230239 0 0.33122374654748771 0.57588941099433744 0 0.37272913873093971 0.56192925302619479 0 0.35765792684946668 0.6000687869219653 0 0.38244435121258652 0.51653317813019495 0 0.37272913873093971 0.56192925302619479 0 0.33190227185843768 0.52715113583864037 0 0.33122374654748771 0.57588941099433744 0 0.33190227185843768 0.52715113583864037 0 0.37272913873093971 0.56192925302619479 0 0.38244435121258652 0.51653317813019495 0 0.33190227185843768 0.52715113583864037 0 0.35024835142131061 0.48654922671676981 0 0.33122374654748771 0.57588941099433744 0 0.29110487519241501 0.56588143995431495 0 0.33190227185843768 0.52715113583864037 0 0.28307294598219601 0.50789252727458634 0 0.33190227185843768 0.52715113583864037 0 0.29110487519241501 0.56588143995431495 0 0.31068898841644388 0.47541502461811092 0 0.33190227185843768 0.52715113583864037 0 0.28307294598219601 0.50789252727458634 0 0.28307294598219601 0.50789252727458634 0 0.25115337790845271 0.54719303014923271 0 0.23975172658309729 0.49475499200540818 0 0.28307294598219601 0.50789252727458634 0 0.29110487519241501 0.56588143995431495 0 0.25115337790845271 0.54719303014923271 0 0.26573297623774761 0.59828298563722948 0 0.25115337790845271 0.54719303014923271 0 0.29110487519241501 0.56588143995431495 0 0.33122374654748771 0.57588941099433744 0 0.31502927232353312 0.6134992213375432 0 0.29110487519241501 0.56588143995431495 0 0.26573297623774761 0.59828298563722948 0 0.29110487519241501 0.56588143995431495 0 0.31502927232353312 0.6134992213375432 0 0.26573297623774761 0.59828298563722948 0 0.31502927232353312 0.6134992213375432 0 0.27820712747429932 0.65530134213254643 0 0.26573297623774761 0.59828298563722948 0 0.27820712747429932 0.65530134213254643 0 0.2459498854893499 0.63248470766216769 0 0.2236846579037573 0.67380363126050236 0 0.27820712747429932 0.65530134213254643 0 0.26439878998046262 0.7048065392091396 0 0.31378396441836959 0.70157213313026345 0 0.27820712747429932 0.65530134213254643 0 0.32263089806001177 0.66003674931826484 0 0.31378396441836959 0.70157213313026345 0 0.26439878998046262 0.7048065392091396 0 0.27820712747429932 0.65530134213254643 0 0.27820712747429932 0.65530134213254643 0 0.31502927232353312 0.6134992213375432 0 0.32263089806001177 0.66003674931826484 0 0.25676291524611189 0.7436741304886243 0 0.26439878998046262 0.7048065392091396 0 0.29904318922293632 0.74132814928635593 0 0.31378396441836959 0.70157213313026345 0 0.29904318922293632 0.74132814928635593 0 0.26439878998046262 0.7048065392091396 0 0.31378396441836959 0.70157213313026345 0 0.35415581127540569 0.73730480045900215 0 0.29904318922293632 0.74132814928635593 0 0.31378396441836959 0.70157213313026345 0 0.36622285152418499 0.69092437780804039 0 0.35415581127540569 0.73730480045900215 0 0.40326160981139969 0.73346192995102844 0 0.35415581127540569 0.73730480045900215 0 0.36622285152418499 0.69092437780804039 0 0.35864735590330371 0.63903383440414463 0 0.32263089806001177 0.66003674931826484 0 0.31502927232353312 0.6134992213375432 0 0.31378396441836959 0.70157213313026345 0 0.32263089806001177 0.66003674931826484 0 0.36622285152418499 0.69092437780804039 0 0.35864735590330371 0.63903383440414463 0 0.36622285152418499 0.69092437780804039 0 0.32263089806001177 0.66003674931826484 0 0.35864735590330371 0.63903383440414463 0 0.3977710372045391 0.65868194622830212 0 0.36622285152418499 0.69092437780804039 0 0.35864735590330371 0.63903383440414463 0 0.39743091024207589 0.6239520004230239 0 0.3977710372045391 0.65868194622830212 0 0.36622285152418499 0.69092437780804039 0 0.3977710372045391 0.65868194622830212 0 0.43323420005758778 0.6913544522562407 0 0.43846182030517877 0.64845797726506715 0 0.43323420005758778 0.6913544522562407 0 0.3977710372045391 0.65868194622830212 0 0.43846182030517877 0.64845797726506715 0 0.39743091024207589 0.6239520004230239 0 0.43545892161006339 0.61093128915313821 0 0.43846182030517877 0.64845797726506715 0 0.3977710372045391 0.65868194622830212 0 0.39743091024207589 0.6239520004230239 0 0.40326160981139969 0.73346192995102844 0 0.36622285152418499 0.69092437780804039 0 0.43323420005758778 0.6913544522562407 0 0.40326160981139969 0.73346192995102844 0 0.43323420005758778 0.6913544522562407 0 0.45582236402875981 0.73896743678908217 0 0.40326160981139969 0.73346192995102844 0 0.45582236402875981 0.73896743678908217 0 0.42676259796334498 0.76772545931379299 0 0.5 0.69999999999999996 0 0.45582236402875981 0.73896743678908217 0 0.43323420005758778 0.6913544522562407 0 0.5 0.69999999999999996 0 0.50945740445113552 0.75476055527778108 0 0.45582236402875981 0.73896743678908217 0 0.5 0.69999999999999996 0 0.43323420005758778 0.6913544522562407 0 0.47913475093885149 0.66010775372412711 0 0.43846182030517877 0.64845797726506715 0 0.47095389620662098 0.61892551373708504 0 0.47913475093885149 0.66010775372412711 0 0.43846182030517877 0.64845797726506715 0 0.43545892161006339 0.61093128915313821 0 0.47095389620662098 0.61892551373708504 0 0.43846182030517877 0.64845797726506715 0 0.47913475093885149 0.66010775372412711 0 0.43323420005758778 0.6913544522562407 0 0.50715858906372158 0.63295939104129484 0 0.47913475093885149 0.66010775372412711 0 0.47095389620662098 0.61892551373708504 0 0.50715858906372158 0.63295939104129484 0 0.47095389620662098 0.61892551373708504 0 0.5166924242153631 0.59825134841919447 0 0.46666084890304671 0.57634471035397938 0 0.5166924242153631 0.59825134841919447 0 0.47095389620662098 0.61892551373708504 0 0.46666084890304671 0.57634471035397938 0 0.47095389620662098 0.61892551373708504 0 0.43545892161006339 0.61093128915313821 0 0.4089290844030305 0.58728915500154233 0 0.43545892161006339 0.61093128915313821 0 0.39743091024207589 0.6239520004230239 0 0.43545892161006339 0.61093128915313821 0 0.4089290844030305 0.58728915500154233 0 0.46666084890304671 0.57634471035397938 0 0.4089290844030305 0.58728915500154233 0 0.42644501560315817 0.54603747078095544 0 0.46666084890304671 0.57634471035397938 0 0.4089290844030305 0.58728915500154233 0 0.37272913873093971 0.56192925302619479 0 0.42644501560315817 0.54603747078095544 0 0.4089290844030305 0.58728915500154233 0 0.35765792684946668 0.6000687869219653 0 0.37272913873093971 0.56192925302619479 0 0.4089290844030305 0.58728915500154233 0 0.39743091024207589 0.6239520004230239 0 0.35765792684946668 0.6000687869219653 0 0.38244435121258652 0.51653317813019495 0 0.42644501560315817 0.54603747078095544 0 0.37272913873093971 0.56192925302619479 0 0.38244435121258652 0.51653317813019495 0 0.43507373378304309 0.49699695397193322 0 0.42644501560315817 0.54603747078095544 0 0.46666084890304671 0.57634471035397938 0 0.47793794143994173 0.52940715638744962 0 0.53245488764484505 0.55078124999999989 0 0.49102375406324739 0.49123754822244059 0 0.47793794143994173 0.52940715638744962 0 0.43507373378304309 0.49699695397193322 0 0.43507373378304309 0.49699695397193322 0 0.47793794143994173 0.52940715638744962 0 0.42644501560315817 0.54603747078095544 0 0.46666084890304671 0.57634471035397938 0 0.42644501560315817 0.54603747078095544 0 0.47793794143994173 0.52940715638744962 0 0.49102375406324739 0.49123754822244059 0 0.53330375813596242 0.50827942741749099 0 0.47793794143994173 0.52940715638744962 0 0.53245488764484505 0.55078124999999989 0 0.47793794143994173 0.52940715638744962 0 0.53330375813596242 0.50827942741749099 0 0.53245488764484505 0.55078124999999989 0 0.53330375813596242 0.50827942741749099 0 0.57435499076887508 0.54267261987897775 0 0.57412547362576272 0.58273804879550706 0 0.53245488764484505 0.55078124999999989 0 0.57435499076887508 0.54267261987897775 0 0.57611405284611883 0.50165903596042916 0 0.57435499076887508 0.54267261987897775 0 0.53330375813596242 0.50827942741749099 0 0.57611405284611883 0.50165903596042916 0 0.62042975506801734 0.54295974692364424 0 0.57435499076887508 0.54267261987897775 0 0.57412547362576272 0.58273804879550706 0 0.57435499076887508 0.54267261987897775 0 0.62042975506801734 0.54295974692364424 0 0.57611405284611883 0.50165903596042916 0 0.61547661924074692 0.48539576058873962 0 0.62042975506801734 0.54295974692364424 0 0.6405463747586706 0.63290524857395714 0 0.5991018319127801 0.62925360607495295 0 0.63065402604362242 0.59661356661633302 0 0.57412547362576272 0.58273804879550706 0 0.63065402604362242 0.59661356661633302 0 0.5991018319127801 0.62925360607495295 0 0.57412547362576272 0.58273804879550706 0 0.62042975506801734 0.54295974692364424 0 0.63065402604362242 0.59661356661633302 0 0.57412547362576272 0.58273804879550706 0 0.5991018319127801 0.62925360607495295 0 0.5498280205245758 0.6290146943450976 0 0.46666084890304671 0.57634471035397938 0 0.53245488764484505 0.55078124999999989 0 0.5166924242153631 0.59825134841919447 0 0.57412547362576272 0.58273804879550706 0 0.5498280205245758 0.6290146943450976 0 0.5166924242153631 0.59825134841919447 0 0.57412547362576272 0.58273804879550706 0 0.5166924242153631 0.59825134841919447 0 0.53245488764484505 0.55078124999999989 0 0.50715858906372158 0.63295939104129484 0 0.5166924242153631 0.59825134841919447 0 0.5498280205245758 0.6290146943450976 0 0.50715858906372158 0.63295939104129484 0 0.52584555706968406 0.66664215091846768 0 0.47913475093885149 0.66010775372412711 0 0.50715858906372158 0.63295939104129484 0 0.5498280205245758 0.6290146943450976 0 0.52584555706968406 0.66664215091846768 0 0.5 0.69999999999999996 0 0.47913475093885149 0.66010775372412711 0 0.52584555706968406 0.66664215091846768 0 0.54999999999999993 0.69999999999999996 0 0.52584555706968406 0.66664215091846768 0 0.57484956128872922 0.66573805030881994 0 0.57484956128872922 0.66573805030881994 0 0.52584555706968406 0.66664215091846768 0 0.5498280205245758 0.6290146943450976 0 0.50945740445113552 0.75476055527778108 0 0.5 0.69999999999999996 0 0.55363780716230748 0.74348740161571747 0 0.5 0.69999999999999996 0 0.52584555706968406 0.66664215091846768 0 0.54999999999999993 0.69999999999999996 0 0.5 0.69999999999999996 0 0.54999999999999993 0.69999999999999996 0 0.5 0.69999999999999996 0 0.54999999999999993 0.69999999999999996 0 0.55363780716230748 0.74348740161571747 0 0.59999999999999976 0.69999999999999996 0 0.59636844454254345 0.75937156204589151 0 0.55363780716230748 0.74348740161571747 0 0.54999999999999993 0.69999999999999996 0 0.59999999999999976 0.69999999999999996 0 0.54999999999999993 0.69999999999999996 0 0.57484956128872922 0.66573805030881994 0 0.59999999999999976 0.69999999999999996 0 0.54999999999999993 0.69999999999999996 0 0.59999999999999976 0.69999999999999996 0 0.55363780716230748 0.74348740161571747 0 0.59999999999999976 0.69999999999999996 0 0.6499999999999998 0.69999999999999996 0 0.59999999999999976 0.69999999999999996 0 0.62460753523532009 0.66851202781000296 0 0.6499999999999998 0.69999999999999996 0 0.59999999999999976 0.69999999999999996 0 0.63221990677827677 0.73442891067859706 0 0.59636844454254345 0.75937156204589151 0 0.57484956128872922 0.66573805030881994 0 0.5498280205245758 0.6290146943450976 0 0.5991018319127801 0.62925360607495295 0 0.59999999999999976 0.69999999999999996 0 0.57484956128872922 0.66573805030881994 0 0.62460753523532009 0.66851202781000296 0 0.57484956128872922 0.66573805030881994 0 0.5991018319127801 0.62925360607495295 0 0.62460753523532009 0.66851202781000296 0 0.6405463747586706 0.63290524857395714 0 0.62460753523532009 0.66851202781000296 0 0.5991018319127801 0.62925360607495295 0 0.6405463747586706 0.63290524857395714 0 0.675261390228442 0.65996937624687813 0 0.62460753523532009 0.66851202781000296 0 0.6499999999999998 0.69999999999999996 0 0.62460753523532009 0.66851202781000296 0 0.675261390228442 0.65996937624687813 0 0.6499999999999998 0.69999999999999996 0 0.675261390228442 0.65996937624687813 0 0.69999999999999984 0.69999999999999996 0 0.6405463747586706 0.63290524857395714 0 0.67529834988829951 0.61613270668143583 0 0.675261390228442 0.65996937624687813 0 0.64753070846764316 0.77332939069435502 0 0.63221990677827677 0.73442891067859706 0 0.66427993341343905 0.73232764502436276 0 0.6499999999999998 0.69999999999999996 0 0.66427993341343905 0.73232764502436276 0 0.63221990677827677 0.73442891067859706 0 0.59999999999999976 0.69999999999999996 0 0.6499999999999998 0.69999999999999996 0 0.63221990677827677 0.73442891067859706 0 0.6499999999999998 0.69999999999999996 0 0.69999999999999984 0.69999999999999996 0 0.6499999999999998 0.69999999999999996 0 0.69999999999999984 0.69999999999999996 0 0.66427993341343905 0.73232764502436276 0 0.69999999999999984 0.69999999999999996 0 0.6916490518212759 0.75387992374886192 0 0.66427993341343905 0.73232764502436276 0 0.69999999999999984 0.69999999999999996 0 0.72501250972655151 0.74067302935308721 0 0.6916490518212759 0.75387992374886192 0 0.69999999999999984 0.69999999999999996 0 0.74999999999999989 0.69999999999999996 0 0.72501250972655151 0.74067302935308721 0 0.69999999999999984 0.69999999999999996 0 0.72500000000000064 0.67022701834392062 0 0.74999999999999989 0.69999999999999996 0 0.69999999999999984 0.69999999999999996 0 0.74999999999999989 0.69999999999999996 0 0.74999999999999989 0.69999999999999996 0 0.75841349681148107 0.75422312624214749 0 0.72501250972655151 0.74067302935308721 0 0.71406021706547751 0.63292083137662503 0 0.72500000000000064 0.67022701834392062 0 0.675261390228442 0.65996937624687813 0 0.71406021706547751 0.63292083137662503 0 0.675261390228442 0.65996937624687813 0 0.67529834988829951 0.61613270668143583 0 0.69999999999999984 0.69999999999999996 0 0.675261390228442 0.65996937624687813 0 0.72500000000000064 0.67022701834392062 0 0.71406021706547751 0.63292083137662503 0 0.74994237037456724 0.62775548192980357 0 0.72500000000000064 0.67022701834392062 0 0.7750489929959945 0.66593931409600093 0 0.72500000000000064 0.67022701834392062 0 0.74994237037456724 0.62775548192980357 0 0.71406021706547751 0.63292083137662503 0 0.71809016091162536 0.58185040402320831 0 0.74994237037456724 0.62775548192980357 0 0.77293540622714185 0.59448302402785813 0 0.74994237037456724 0.62775548192980357 0 0.71809016091162536 0.58185040402320831 0 0.71406021706547751 0.63292083137662503 0 0.67529834988829951 0.61613270668143583 0 0.71809016091162536 0.58185040402320831 0 0.67323294229744413 0.57556450033612505 0 0.67569444444444449 0.53500863336860327 0 0.71809016091162536 0.58185040402320831 0 0.67323294229744413 0.57556450033612505 0 0.71809016091162536 0.58185040402320831 0 0.67529834988829951 0.61613270668143583 0 0.7152569930854884 0.5237994455134295 0 0.77151014687832564 0.54436834383023036 0 0.71809016091162536 0.58185040402320831 0 0.7152569930854884 0.5237994455134295 0 0.73947346780852752 0.49062440112282169 0 0.77151014687832564 0.54436834383023036 0 0.7152569930854884 0.5237994455134295 0 0.67569444444444449 0.53500863336860327 0 0.69385896817107129 0.48377516041410151 0 0.7152569930854884 0.5237994455134295 0 0.71809016091162536 0.58185040402320831 0 0.67569444444444449 0.53500863336860327 0 0.67323294229744413 0.57556450033612505 0 0.62042975506801734 0.54295974692364424 0 0.67569444444444449 0.53500863336860327 0 0.6541250972820879 0.49999999999999989 0 0.69385896817107129 0.48377516041410151 0 0.67569444444444449 0.53500863336860327 0 0.6541250972820879 0.49999999999999989 0 0.67569444444444449 0.53500863336860327 0 0.62042975506801734 0.54295974692364424 0 0.6541250972820879 0.49999999999999989 0 0.62042975506801734 0.54295974692364424 0 0.61547661924074692 0.48539576058873962 0 0.67323294229744413 0.57556450033612505 0 0.63065402604362242 0.59661356661633302 0 0.62042975506801734 0.54295974692364424 0 0.6405463747586706 0.63290524857395714 0 0.63065402604362242 0.59661356661633302 0 0.67529834988829951 0.61613270668143583 0 0.67323294229744413 0.57556450033612505 0 0.67529834988829951 0.61613270668143583 0 0.63065402604362242 0.59661356661633302 0 0.60000000000138687 1 0 0.57382506491224949 0.9629411906298494 0 0.62065498684670595 0.95224934003983619 0 0.65000000000104008 1 0 0.60000000000138687 1 0 0.62065498684670595 0.95224934003983619 0 0.57724883562309992 0.92155686857100794 0 0.62065498684670595 0.95224934003983619 0 0.57382506491224949 0.9629411906298494 0 0.60000000000138687 1 0 0.55000000000173355 1 0 0.57382506491224949 0.9629411906298494 0 0.55000000000173355 1 0 0.50000000000205869 1 0 0.52122150208832174 0.94089974453840242 0 0.57724883562309992 0.92155686857100794 0 0.57382506491224949 0.9629411906298494 0 0.52122150208832174 0.94089974453840242 0 0.55000000000173355 1 0 0.52122150208832174 0.94089974453840242 0 0.57382506491224949 0.9629411906298494 0 0.57724883562309992 0.92155686857100794 0 0.52122150208832174 0.94089974453840242 0 0.54783390826260769 0.89287767010860219 0 0.50202631463681879 0.87892870825713787 0 0.54783390826260769 0.89287767010860219 0 0.52122150208832174 0.94089974453840242 0 0.55899371797446828 0.85003102233514438 0 0.5832743223239254 0.88483152652961872 0 0.54783390826260769 0.89287767010860219 0 0.57724883562309992 0.92155686857100794 0 0.54783390826260769 0.89287767010860219 0 0.5832743223239254 0.88483152652961872 0 0.57724883562309992 0.92155686857100794 0 0.5832743223239254 0.88483152652961872 0 0.61885627562261258 0.90282959257498208 0 0.57724883562309992 0.92155686857100794 0 0.61885627562261258 0.90282959257498208 0 0.62065498684670595 0.95224934003983619 0 0.61343887413683884 0.856862479058357 0 0.61885627562261258 0.90282959257498208 0 0.5832743223239254 0.88483152652961872 0 0.61343887413683884 0.856862479058357 0 0.60294066490120068 0.80851322453934582 0 0.65005442820240822 0.82644988530054031 0 0.61343887413683884 0.856862479058357 0 0.55899371797446828 0.85003102233514438 0 0.60294066490120068 0.80851322453934582 0 0.54782696902220018 0.79245182748204157 0 0.60294066490120068 0.80851322453934582 0 0.55899371797446828 0.85003102233514438 0 0.61343887413683884 0.856862479058357 0 0.5832743223239254 0.88483152652961872 0 0.55899371797446828 0.85003102233514438 0 0.50202631463681879 0.87892870825713787 0 0.55899371797446828 0.85003102233514438 0 0.54783390826260769 0.89287767010860219 0 0.50202631463681879 0.87892870825713787 0 0.50627822638148745 0.8263979829520941 0 0.55899371797446828 0.85003102233514438 0 0.54782696902220018 0.79245182748204157 0 0.55899371797446828 0.85003102233514438 0 0.50627822638148745 0.8263979829520941 0 0.54782696902220018 0.79245182748204157 0 0.50627822638148745 0.8263979829520941 0 0.50731287292894423 0.78963574450233831 0 0.54782696902220018 0.79245182748204157 0 0.50731287292894423 0.78963574450233831 0 0.50945740445113552 0.75476055527778108 0 0.54782696902220018 0.79245182748204157 0 0.50945740445113552 0.75476055527778108 0 0.55363780716230748 0.74348740161571747 0 0.54782696902220018 0.79245182748204157 0 0.55363780716230748 0.74348740161571747 0 0.59636844454254345 0.75937156204589151 0 0.54782696902220018 0.79245182748204157 0 0.59636844454254345 0.75937156204589151 0 0.60294066490120068 0.80851322453934582 0 0.64753070846764316 0.77332939069435502 0 0.60294066490120068 0.80851322453934582 0 0.59636844454254345 0.75937156204589151 0 0.64753070846764316 0.77332939069435502 0 0.59636844454254345 0.75937156204589151 0 0.63221990677827677 0.73442891067859706 0 0.64753070846764316 0.77332939069435502 0 0.65005442820240822 0.82644988530054031 0 0.60294066490120068 0.80851322453934582 0 0.64753070846764316 0.77332939069435502 0 0.68024162096458085 0.79868546898116533 0 0.65005442820240822 0.82644988530054031 0 0.64753070846764316 0.77332939069435502 0 0.6916490518212759 0.75387992374886192 0 0.68024162096458085 0.79868546898116533 0 0.64753070846764316 0.77332939069435502 0 0.66427993341343905 0.73232764502436276 0 0.6916490518212759 0.75387992374886192 0 0.6916490518212759 0.75387992374886192 0 0.72501250972655151 0.74067302935308721 0 0.72500000000000064 0.7952620967744265 0 0.72501250972655151 0.74067302935308721 0 0.75841349681148107 0.75422312624214749 0 0.72500000000000064 0.7952620967744265 0 0.72500000000000064 0.7952620967744265 0 0.68024162096458085 0.79868546898116533 0 0.6916490518212759 0.75387992374886192 0 0.72500000000000064 0.7952620967744265 0 0.68697391633157634 0.84450604838764298 0 0.68024162096458085 0.79868546898116533 0 0.72500000000000064 0.7952620967744265 0 0.72863726579783861 0.85390518901155588 0 0.68697391633157634 0.84450604838764298 0 0.72500000000000064 0.7952620967744265 0 0.76901770135486491 0.84293557325473656 0 0.72863726579783861 0.85390518901155588 0 0.7250000000005199 0.89375000000045834 0 0.68697391633157634 0.84450604838764298 0 0.72863726579783861 0.85390518901155588 0 0.7250000000005199 0.89375000000045834 0 0.66412543161245952 0.88015090885499059 0 0.68697391633157634 0.84450604838764298 0 0.68697391633157634 0.84450604838764298 0 0.66412543161245952 0.88015090885499059 0 0.65005442820240822 0.82644988530054031 0 0.68697391633157634 0.84450604838764298 0 0.65005442820240822 0.82644988530054031 0 0.68024162096458085 0.79868546898116533 0 0.61343887413683884 0.856862479058357 0 0.65005442820240822 0.82644988530054031 0 0.66412543161245952 0.88015090885499059 0 0.61343887413683884 0.856862479058357 0 0.66412543161245952 0.88015090885499059 0 0.61885627562261258 0.90282959257498208 0 0.65507451745379841 0.92229208810758578 0 0.61885627562261258 0.90282959257498208 0 0.66412543161245952 0.88015090885499059 0 0.65507451745379841 0.92229208810758578 0 0.62065498684670595 0.95224934003983619 0 0.61885627562261258 0.90282959257498208 0 0.65507451745379841 0.92229208810758578 0 0.68987011941058407 0.92105047536677087 0 0.68015064798562208 0.95924320340003011 0 0.65507451745379841 0.92229208810758578 0 0.66412543161245952 0.88015090885499059 0 0.68987011941058407 0.92105047536677087 0 0.7250000000005199 0.89375000000045834 0 0.68987011941058407 0.92105047536677087 0 0.66412543161245952 0.88015090885499059 0 0.7250000000005199 0.89375000000045834 0 0.72863726579783861 0.85390518901155588 0 0.76891166905518427 0.88835469571185499 0 0.7250000000005199 0.89375000000045834 0 0.75729602384198635 0.92353652857884294 0 0.7250000000005199 0.94981617647078953 0 0.7250000000005199 0.89375000000045834 0 0.7250000000005199 0.94981617647078953 0 0.68987011941058407 0.92105047536677087 0 0.7250000000005199 0.94981617647078953 0 0.68015064798562208 0.95924320340003011 0 0.68987011941058407 0.92105047536677087 0 0.75000000000034661 1 0 0.7000000000006934 1 0 0.7250000000005199 0.94981617647078953 0 0.75000000000034661 1 0 0.7250000000005199 0.94981617647078953 0 0.770759834363826 0.95919399014344442 0 0.7000000000006934 1 0 0.68015064798562208 0.95924320340003011 0 0.7250000000005199 0.94981617647078953 0 0.7000000000006934 1 0 0.65000000000104008 1 0 0.68015064798562208 0.95924320340003011 0 0.65507451745379841 0.92229208810758578 0 0.68015064798562208 0.95924320340003011 0 0.62065498684670595 0.95224934003983619 0 0.65000000000104008 1 0 0.62065498684670595 0.95224934003983619 0 0.68015064798562208 0.95924320340003011 0 0.84999999999965292 1 0 0.85170973911348691 0.93569607295217616 0 0.89898474358632463 0.95391965591118966 0 0.84999999999965292 1 0 0.81486180804382891 0.96321394949790495 0 0.85170973911348691 0.93569607295217616 0 0.79680861578988083 0.92656778056766709 0 0.85170973911348691 0.93569607295217616 0 0.81486180804382891 0.96321394949790495 0 0.84999999999965292 1 0 0.79999999999999982 1 0 0.81486180804382891 0.96321394949790495 0 0.79999999999999982 1 0 0.770759834363826 0.95919399014344442 0 0.81486180804382891 0.96321394949790495 0 0.79999999999999982 1 0 0.75000000000034661 1 0 0.770759834363826 0.95919399014344442 0 0.7250000000005199 0.94981617647078953 0 0.75729602384198635 0.92353652857884294 0 0.770759834363826 0.95919399014344442 0 0.79680861578988083 0.92656778056766709 0 0.81486180804382891 0.96321394949790495 0 0.770759834363826 0.95919399014344442 0 0.79680861578988083 0.92656778056766709 0 0.75729602384198635 0.92353652857884294 0 0.76891166905518427 0.88835469571185499 0 0.79680861578988083 0.92656778056766709 0 0.770759834363826 0.95919399014344442 0 0.75729602384198635 0.92353652857884294 0 0.7250000000005199 0.89375000000045834 0 0.76891166905518427 0.88835469571185499 0 0.75729602384198635 0.92353652857884294 0 0.79680861578988083 0.92656778056766709 0 0.76891166905518427 0.88835469571185499 0 0.81159157511211755 0.88795995483179491 0 0.85170973911348691 0.93569607295217616 0 0.81159157511211755 0.88795995483179491 0 0.85600844944837662 0.88483418979512773 0 0.79680861578988083 0.92656778056766709 0 0.81159157511211755 0.88795995483179491 0 0.85170973911348691 0.93569607295217616 0 0.90416666666660628 0.9041666666666166 0 0.85170973911348691 0.93569607295217616 0 0.85600844944837662 0.88483418979512773 0 0.82709327591091286 0.84937141670920724 0 0.88088768115933802 0.84674609810493673 0 0.85600844944837662 0.88483418979512773 0 0.82709327591091286 0.84937141670920724 0 0.84725310900444062 0.80779732082917555 0 0.88088768115933802 0.84674609810493673 0 0.82709327591091286 0.84937141670920724 0 0.80041942726660109 0.81543261647703358 0 0.84725310900444062 0.80779732082917555 0 0.82709327591091286 0.84937141670920724 0 0.85600844944837662 0.88483418979512773 0 0.81159157511211755 0.88795995483179491 0 0.76901770135486491 0.84293557325473656 0 0.81159157511211755 0.88795995483179491 0 0.76891166905518427 0.88835469571185499 0 0.82709327591091286 0.84937141670920724 0 0.81159157511211755 0.88795995483179491 0 0.76901770135486491 0.84293557325473656 0 0.76901770135486491 0.84293557325473656 0 0.76891166905518427 0.88835469571185499 0 0.72863726579783861 0.85390518901155588 0 0.76901770135486491 0.84293557325473656 0 0.77094201086366854 0.79647480515688507 0 0.80041942726660109 0.81543261647703358 0 0.82709327591091286 0.84937141670920724 0 0.76901770135486491 0.84293557325473656 0 0.80041942726660109 0.81543261647703358 0 0.80185942888539485 0.77452061303608133 0 0.80041942726660109 0.81543261647703358 0 0.77094201086366854 0.79647480515688507 0 0.72500000000000064 0.7952620967744265 0 0.75841349681148107 0.75422312624214749 0 0.77094201086366854 0.79647480515688507 0 0.72500000000000064 0.7952620967744265 0 0.77094201086366854 0.79647480515688507 0 0.76901770135486491 0.84293557325473656 0 0.80185942888539485 0.77452061303608133 0 0.77094201086366854 0.79647480515688507 0 0.75841349681148107 0.75422312624214749 0 0.80185942888539485 0.77452061303608133 0 0.75841349681148107 0.75422312624214749 0 0.78578450296893509 0.73292684821144505 0 0.80185942888539485 0.77452061303608133 0 0.85491058998424563 0.76004753345552634 0 0.84725310900444062 0.80779732082917555 0 0.80185942888539485 0.77452061303608133 0 0.81864958914779962 0.73589050177899629 0 0.85491058998424563 0.76004753345552634 0 0.80185942888539485 0.77452061303608133 0 0.84725310900444062 0.80779732082917555 0 0.80041942726660109 0.81543261647703358 0 0.90299850604011456 0.79563452813489832 0 0.84725310900444062 0.80779732082917555 0 0.85491058998424563 0.76004753345552634 0 0.90299850604011456 0.79563452813489832 0 0.85491058998424563 0.76004753345552634 0 0.89999166460796554 0.74528934923809909 0 0.90299850604011456 0.79563452813489832 0 0.94399509803918602 0.75600490196082126 0 0.95386563387742829 0.80414874155775029 0 0.90299850604011456 0.79563452813489832 0 0.89999166460796554 0.74528934923809909 0 0.94399509803918602 0.75600490196082126 0 0.94399509803918602 0.75600490196082126 0 0.97435614836745565 0.77499999999987745 0 0.95386563387742829 0.80414874155775029 0 0.94399509803918602 0.75600490196082126 0 0.97166519676947294 0.73337114490064459 0 0.97435614836745565 0.77499999999987745 0 1 0.74999999999993494 0 0.97435614836745565 0.77499999999987745 0 0.97166519676947294 0.73337114490064459 0 1 0.74999999999993494 0 1 0.7999999999998193 0 0.97435614836745565 0.77499999999987745 0 1 0.7999999999998193 0 0.95386563387742829 0.80414874155775029 0 0.97435614836745565 0.77499999999987745 0 1 0.84999999999982645 0 0.95391631417670719 0.89584263333814784 0 0.93677536231884972 0.85000000000000286 0 1 0.84999999999982645 0 0.93677536231884972 0.85000000000000286 0 0.95386563387742829 0.80414874155775029 0 1 0.7999999999998193 0 1 0.84999999999982645 0 0.95386563387742829 0.80414874155775029 0 0.90416666666660628 0.9041666666666166 0 0.88088768115933802 0.84674609810493673 0 0.93677536231884972 0.85000000000000286 0 0.90299850604011456 0.79563452813489832 0 0.95386563387742829 0.80414874155775029 0 0.93677536231884972 0.85000000000000286 0 0.90299850604011456 0.79563452813489832 0 0.93677536231884972 0.85000000000000286 0 0.88088768115933802 0.84674609810493673 0 0.90299850604011456 0.79563452813489832 0 0.88088768115933802 0.84674609810493673 0 0.84725310900444062 0.80779732082917555 0 0.90416666666660628 0.9041666666666166 0 0.85600844944837662 0.88483418979512773 0 0.88088768115933802 0.84674609810493673 0 0.90416666666660628 0.9041666666666166 0 0.89898474358632463 0.95391965591118966 0 0.85170973911348691 0.93569607295217616 0 0.90416666666660628 0.9041666666666166 0 0.95391631417670719 0.89584263333814784 0 0.94399509803919068 0.9439950980391687 0 0.90416666666660628 0.9041666666666166 0 0.94399509803919068 0.9439950980391687 0 0.89898474358632463 0.95391965591118966 0 0.90416666666660628 0.9041666666666166 0 0.93677536231884972 0.85000000000000286 0 0.95391631417670719 0.89584263333814784 0 1 0.84999999999982645 0 1 0.8999999999998336 0 0.95391631417670719 0.89584263333814784 0 1 0.8999999999998336 0 1 0.94999999999997109 0 0.97435614836744289 0.92499999999990257 0 1 0.8999999999998336 0 0.97435614836744289 0.92499999999990257 0 0.95391631417670719 0.89584263333814784 0 0.94399509803919068 0.9439950980391687 0 0.95391631417670719 0.89584263333814784 0 0.97435614836744289 0.92499999999990257 0 0.94399509803919068 0.9439950980391687 0 0.97435614836744289 0.92499999999990257 0 0.97166519676946206 0.96662885509935492 0 1 0.94999999999997109 0 0.97166519676946206 0.96662885509935492 0 0.97435614836744289 0.92499999999990257 0 1 1 0 0.97166519676946206 0.96662885509935492 0 1 0.94999999999997109 0 1 1 0 0.94999999999979179 1 0 0.97166519676946206 0.96662885509935492 0 0.94999999999979179 1 0 0.94399509803919068 0.9439950980391687 0 0.97166519676946206 0.96662885509935492 0 0.94999999999979179 1 0 0.89999999999958358 1 0 0.89898474358632463 0.95391965591118966 0 0.94999999999979179 1 0 0.89898474358632463 0.95391965591118966 0 0.94399509803919068 0.9439950980391687 0 0.89999999999958358 1 0 0.84999999999965292 1 0 0.89898474358632463 0.95391965591118966 0 0.86956835336234861 0.571283299838105 0 0.81723410853263523 0.59419663659258926 0 0.82862096804812391 0.55037090955459045 0 0.83758014339878906 0.63222013025741819 0 0.81723410853263523 0.59419663659258926 0 0.87159648282691515 0.61285406320581504 0 0.83758014339878906 0.63222013025741819 0 0.79884539758237771 0.62875045078114233 0 0.81723410853263523 0.59419663659258926 0 0.86956835336234861 0.571283299838105 0 0.87159648282691515 0.61285406320581504 0 0.81723410853263523 0.59419663659258926 0 0.86956835336234861 0.571283299838105 0 0.82862096804812391 0.55037090955459045 0 0.86907294890112186 0.52008116128001669 0 0.82862096804812391 0.55037090955459045 0 0.81441713509985358 0.51161854125224959 0 0.86907294890112186 0.52008116128001669 0 0.84723782639812573 0.48638347960178252 0 0.86907294890112186 0.52008116128001669 0 0.81441713509985358 0.51161854125224959 0 0.82862096804812391 0.55037090955459045 0 0.77151014687832564 0.54436834383023036 0 0.81441713509985358 0.51161854125224959 0 0.77846603114747959 0.49850927265137401 0 0.81441713509985358 0.51161854125224959 0 0.77151014687832564 0.54436834383023036 0 0.77846603114747959 0.49850927265137401 0 0.77151014687832564 0.54436834383023036 0 0.73947346780852752 0.49062440112282169 0 0.77293540622714185 0.59448302402785813 0 0.71809016091162536 0.58185040402320831 0 0.77151014687832564 0.54436834383023036 0 0.81723410853263523 0.59419663659258926 0 0.77293540622714185 0.59448302402785813 0 0.77151014687832564 0.54436834383023036 0 0.82862096804812391 0.55037090955459045 0 0.81723410853263523 0.59419663659258926 0 0.77151014687832564 0.54436834383023036 0 0.77293540622714185 0.59448302402785813 0 0.81723410853263523 0.59419663659258926 0 0.79884539758237771 0.62875045078114233 0 0.77293540622714185 0.59448302402785813 0 0.79884539758237771 0.62875045078114233 0 0.74994237037456724 0.62775548192980357 0 0.7750489929959945 0.66593931409600093 0 0.74994237037456724 0.62775548192980357 0 0.79884539758237771 0.62875045078114233 0 0.74999999999999989 0.69999999999999996 0 0.72500000000000064 0.67022701834392062 0 0.7750489929959945 0.66593931409600093 0 0.79999999999999982 0.69999999999999996 0 0.7750489929959945 0.66593931409600093 0 0.82457059160610424 0.66831947184359608 0 0.7750489929959945 0.66593931409600093 0 0.79884539758237771 0.62875045078114233 0 0.82457059160610424 0.66831947184359608 0 0.74999999999999989 0.69999999999999996 0 0.78578450296893509 0.73292684821144505 0 0.75841349681148107 0.75422312624214749 0 0.74999999999999989 0.69999999999999996 0 0.79999999999999982 0.69999999999999996 0 0.78578450296893509 0.73292684821144505 0 0.74999999999999989 0.69999999999999996 0 0.7750489929959945 0.66593931409600093 0 0.79999999999999982 0.69999999999999996 0 0.74999999999999989 0.69999999999999996 0 0.79999999999999982 0.69999999999999996 0 0.80185942888539485 0.77452061303608133 0 0.78578450296893509 0.73292684821144505 0 0.81864958914779962 0.73589050177899629 0 0.79999999999999982 0.69999999999999996 0 0.81864958914779962 0.73589050177899629 0 0.78578450296893509 0.73292684821144505 0 0.84999999999999987 0.69999999999999996 0 0.85491058998424563 0.76004753345552634 0 0.81864958914779962 0.73589050177899629 0 0.79999999999999982 0.69999999999999996 0 0.84999999999999987 0.69999999999999996 0 0.79999999999999982 0.69999999999999996 0 0.82457059160610424 0.66831947184359608 0 0.84999999999999987 0.69999999999999996 0 0.79999999999999982 0.69999999999999996 0 0.84999999999999987 0.69999999999999996 0 0.81864958914779962 0.73589050177899629 0 0.84999999999999987 0.69999999999999996 0 0.89999999999999991 0.69999999999999996 0 0.84999999999999987 0.69999999999999996 0 0.89999166460796554 0.74528934923809909 0 0.85491058998424563 0.76004753345552634 0 0.83758014339878906 0.63222013025741819 0 0.82457059160610424 0.66831947184359608 0 0.79884539758237771 0.62875045078114233 0 0.84999999999999987 0.69999999999999996 0 0.82457059160610424 0.66831947184359608 0 0.87712158428786946 0.65709029563313581 0 0.83758014339878906 0.63222013025741819 0 0.87159648282691515 0.61285406320581504 0 0.87712158428786946 0.65709029563313581 0 0.83758014339878906 0.63222013025741819 0 0.87712158428786946 0.65709029563313581 0 0.82457059160610424 0.66831947184359608 0 0.91750694127105259 0.63017627779935648 0 0.92057473616084773 0.66770436535372446 0 0.87712158428786946 0.65709029563313581 0 0.91750694127105259 0.63017627779935648 0 0.87712158428786946 0.65709029563313581 0 0.87159648282691515 0.61285406320581504 0 0.84999999999999987 0.69999999999999996 0 0.87712158428786946 0.65709029563313581 0 0.89999999999999991 0.69999999999999996 0 0.89999999999999991 0.69999999999999996 0 0.87712158428786946 0.65709029563313581 0 0.92057473616084773 0.66770436535372446 0 0.91750694127105259 0.63017627779935648 0 0.9578014258160763 0.65787212321113708 0 0.92057473616084773 0.66770436535372446 0 0.84999999999999987 0.69999999999999996 0 0.89999999999999991 0.69999999999999996 0 0.89999166460796554 0.74528934923809909 0 0.89999999999999991 0.69999999999999996 0 0.94999999999999996 0.69999999999999996 0 0.89999999999999991 0.69999999999999996 0 0.92057473616084773 0.66770436535372446 0 0.94999999999999996 0.69999999999999996 0 0.89999999999999991 0.69999999999999996 0 0.94999999999999996 0.69999999999999996 0 0.89999166460796554 0.74528934923809909 0 0.94999999999999996 0.69999999999999996 0 0.94399509803918602 0.75600490196082126 0 0.89999166460796554 0.74528934923809909 0 0.94999999999999996 0.69999999999999996 0 0.97166519676947294 0.73337114490064459 0 0.94399509803918602 0.75600490196082126 0 0.94999999999999996 0.69999999999999996 0 1 0.69999999999999996 0 1 0.69999999999999996 0 0.97166519676947294 0.73337114490064459 0 0.94999999999999996 0.69999999999999996 0 1 0.69999999999999996 0 1 0.74999999999993494 0 0.97166519676947294 0.73337114490064459 0 0.91750694127105259 0.63017627779935648 0 0.95867599106212187 0.60011091146651041 0 0.9578014258160763 0.65787212321113708 0 0.94999999999999996 0.69999999999999996 0 0.92057473616084773 0.66770436535372446 0 0.9578014258160763 0.65787212321113708 0 1 0.69999999999999996 0 0.94999999999999996 0.69999999999999996 0 0.9578014258160763 0.65787212321113708 0 1 0.69999999999999996 0 0.9578014258160763 0.65787212321113708 0 1 0.64999999999986979 0 1 0.64999999999986979 0 0.9578014258160763 0.65787212321113708 0 0.95867599106212187 0.60011091146651041 0 1 0.54999999999963112 0 0.95867599106212187 0.60011091146651041 0 0.93732437411268477 0.55911392101136159 0 1 0.59999999999973963 0 1 0.64999999999986979 0 0.95867599106212187 0.60011091146651041 0 1 0.54999999999963112 0 1 0.59999999999973963 0 0.95867599106212187 0.60011091146651041 0 0.91750694127105259 0.63017627779935648 0 0.91143117093204207 0.58709913730335972 0 0.95867599106212187 0.60011091146651041 0 0.93732437411268477 0.55911392101136159 0 0.95867599106212187 0.60011091146651041 0 0.91143117093204207 0.58709913730335972 0 0.86956835336234861 0.571283299838105 0 0.90900154012161016 0.53607784105648792 0 0.91143117093204207 0.58709913730335972 0 0.86956835336234861 0.571283299838105 0 0.91143117093204207 0.58709913730335972 0 0.87159648282691515 0.61285406320581504 0 0.91750694127105259 0.63017627779935648 0 0.87159648282691515 0.61285406320581504 0 0.91143117093204207 0.58709913730335972 0 0.91696753777131557 0.497780560203536 0 0.90900154012161016 0.53607784105648792 0 0.86907294890112186 0.52008116128001669 0 0.86956835336234861 0.571283299838105 0 0.86907294890112186 0.52008116128001669 0 0.90900154012161016 0.53607784105648792 0 0.93732437411268477 0.55911392101136159 0 0.90900154012161016 0.53607784105648792 0 0.95631871884947484 0.51827533208233789 0 0.93732437411268477 0.55911392101136159 0 0.91143117093204207 0.58709913730335972 0 0.90900154012161016 0.53607784105648792 0 0.91696753777131557 0.497780560203536 0 0.95631871884947484 0.51827533208233789 0 0.90900154012161016 0.53607784105648792 0 1 0.54999999999963112 0 0.93732437411268477 0.55911392101136159 0 0.95631871884947484 0.51827533208233789 0 1 0.49999999999950101 0 1 0.54999999999963112 0 0.95631871884947484 0.51827533208233789 0 1 0.49999999999950101 0 0.95631871884947484 0.51827533208233789 0 0.96228564064454991 0.48206450662049471 0 1 0.44999999999963131 0 1 0.49999999999950101 0 0.96228564064454991 0.48206450662049471 0 1 0.44999999999963131 0 0.96228564064454991 0.48206450662049471 0 0.93814194660195893 0.44426664081746747 0 0.91696753777131557 0.497780560203536 0 0.93814194660195893 0.44426664081746747 0 0.96228564064454991 0.48206450662049471 0 0.91696753777131557 0.497780560203536 0 0.96228564064454991 0.48206450662049471 0 0.95631871884947484 0.51827533208233789 0 1 0.34999999999993492 0 1 0.39999999999978308 0 0.95871855522754235 0.40006508612975411 0 1 0.39999999999978308 0 1 0.44999999999963131 0 0.95871855522754235 0.40006508612975411 0 1 0.44999999999963131 0 0.93814194660195893 0.44426664081746747 0 0.95871855522754235 0.40006508612975411 0 0.91750694127107502 0.36982372220068471 0 0.95871855522754235 0.40006508612975411 0 0.90594285160987287 0.4141265964174129 0 0.93814194660195893 0.44426664081746747 0 0.90594285160987287 0.4141265964174129 0 0.95871855522754235 0.40006508612975411 0 0.90594285160987287 0.4141265964174129 0 0.88594198078881503 0.46167788676578442 0 0.86411095495256451 0.42388805655111889 0 0.86411095495256451 0.42388805655111889 0 0.86844634540301924 0.38530937474099819 0 0.90594285160987287 0.4141265964174129 0 0.91750694127107502 0.36982372220068471 0 0.90594285160987287 0.4141265964174129 0 0.86844634540301924 0.38530937474099819 0 0.91696753777131557 0.497780560203536 0 0.88594198078881503 0.46167788676578442 0 0.93814194660195893 0.44426664081746747 0 0.93814194660195893 0.44426664081746747 0 0.88594198078881503 0.46167788676578442 0 0.90594285160987287 0.4141265964174129 0 0.91696753777131557 0.497780560203536 0 0.86907294890112186 0.52008116128001669 0 0.88594198078881503 0.46167788676578442 0 0.84723782639812573 0.48638347960178252 0 0.88594198078881503 0.46167788676578442 0 0.86907294890112186 0.52008116128001669 0 0.84723782639812573 0.48638347960178252 0 0.81441713509985358 0.51161854125224959 0 0.81400510706333218 0.47357325943904899 0 0.84723782639812573 0.48638347960178252 0 0.81400510706333218 0.47357325943904899 0 0.84925632466077294 0.45359738909549091 0 0.81973119833356312 0.43505687159469048 0 0.84925632466077294 0.45359738909549091 0 0.81400510706333218 0.47357325943904899 0 0.84723782639812573 0.48638347960178252 0 0.84925632466077294 0.45359738909549091 0 0.88594198078881503 0.46167788676578442 0 0.86411095495256451 0.42388805655111889 0 0.84925632466077294 0.45359738909549091 0 0.81973119833356312 0.43505687159469048 0 0.86411095495256451 0.42388805655111889 0 0.88594198078881503 0.46167788676578442 0 0.84925632466077294 0.45359738909549091 0 0.86411095495256451 0.42388805655111889 0 0.81308179852519835 0.39754945808726527 0 0.86844634540301924 0.38530937474099819 0 0.83573492347052902 0.36590755630746369 0 0.86844634540301924 0.38530937474099819 0 0.81308179852519835 0.39754945808726527 0 0.86411095495256451 0.42388805655111889 0 0.81973119833356312 0.43505687159469048 0 0.81308179852519835 0.39754945808726527 0 0.77354604466818633 0.40378688774472771 0 0.81973119833356312 0.43505687159469048 0 0.77972660463949339 0.45529290596363098 0 0.77354604466818633 0.40378688774472771 0 0.81308179852519835 0.39754945808726527 0 0.81973119833356312 0.43505687159469048 0 0.77354604466818633 0.40378688774472771 0 0.78145581580700685 0.34881365920033602 0 0.81308179852519835 0.39754945808726527 0 0.77354604466818633 0.40378688774472771 0 0.77972660463949339 0.45529290596363098 0 0.73483647259922602 0.44789725365921768 0 0.73483647259922602 0.44789725365921768 0 0.77972660463949339 0.45529290596363098 0 0.73947346780852752 0.49062440112282169 0 0.77846603114747959 0.49850927265137401 0 0.73947346780852752 0.49062440112282169 0 0.77972660463949339 0.45529290596363098 0 0.77846603114747959 0.49850927265137401 0 0.77972660463949339 0.45529290596363098 0 0.81400510706333218 0.47357325943904899 0 0.77846603114747959 0.49850927265137401 0 0.81400510706333218 0.47357325943904899 0 0.81441713509985358 0.51161854125224959 0 0.81973119833356312 0.43505687159469048 0 0.81400510706333218 0.47357325943904899 0 0.77972660463949339 0.45529290596363098 0 0.79999999999999982 0.29999999999999999 0 0.77075983436335049 0.25919399014334171 0 0.81486180804364938 0.26321394949780091 0 0.74999999999999989 0.29999999999999999 0 0.79999999999999982 0.29999999999999999 0 0.74999999999999989 0.29999999999999999 0 0.77075983436335049 0.25919399014334171 0 0.79999999999999982 0.29999999999999999 0 0.74999999999999989 0.29999999999999999 0 0.79999999999999982 0.29999999999999999 0 0.78145581580700685 0.34881365920033602 0 0.74999999999999989 0.29999999999999999 0 0.78145581580700685 0.34881365920033602 0 0.73090396928863699 0.33699297293167962 0 0.77354604466818633 0.40378688774472771 0 0.74764719760526988 0.3719647154012321 0 0.78145581580700685 0.34881365920033602 0 0.78145581580700685 0.34881365920033602 0 0.74764719760526988 0.3719647154012321 0 0.73090396928863699 0.33699297293167962 0 0.83573492347052902 0.36590755630746369 0 0.81308179852519835 0.39754945808726527 0 0.78145581580700685 0.34881365920033602 0 0.79999999999999982 0.29999999999999999 0 0.82500000000000062 0.33010209762754811 0 0.78145581580700685 0.34881365920033602 0 0.83573492347052902 0.36590755630746369 0 0.78145581580700685 0.34881365920033602 0 0.82500000000000062 0.33010209762754811 0 0.83573492347052902 0.36590755630746369 0 0.82500000000000062 0.33010209762754811 0 0.87430060258887643 0.34056085888204451 0 0.83573492347052902 0.36590755630746369 0 0.87430060258887643 0.34056085888204451 0 0.86844634540301924 0.38530937474099819 0 0.84999999999999987 0.29999999999999999 0 0.87430060258887643 0.34056085888204451 0 0.82500000000000062 0.33010209762754811 0 0.84999999999999987 0.29999999999999999 0 0.89999999999999991 0.29999999999999999 0 0.87430060258887643 0.34056085888204451 0 0.84999999999999987 0.29999999999999999 0 0.81486180804364938 0.26321394949780091 0 0.8517097391133297 0.2356960729520409 0 0.84999999999999987 0.29999999999999999 0 0.8517097391133297 0.2356960729520409 0 0.89898474358614167 0.25391965591104898 0 0.84999999999999987 0.29999999999999999 0 0.89999999999999991 0.29999999999999999 0 0.79999999999999982 0.29999999999999999 0 0.84999999999999987 0.29999999999999999 0 0.82500000000000062 0.33010209762754811 0 0.79999999999999982 0.29999999999999999 0 0.81486180804364938 0.26321394949780091 0 0.84999999999999987 0.29999999999999999 0 0.79999999999999982 0.29999999999999999 0 0.84999999999999987 0.29999999999999999 0 0.84999999999999987 0.29999999999999999 0 0.89898474358614167 0.25391965591104898 0 0.89999999999999991 0.29999999999999999 0 0.89999999999999991 0.29999999999999999 0 0.94999999999999996 0.29999999999999999 0 0.89999999999999991 0.29999999999999999 0 0.94999999999999996 0.29999999999999999 0 0.92012390126144183 0.33123581297173937 0 0.89999999999999991 0.29999999999999999 0 0.89898474358614167 0.25391965591104898 0 0.94999999999999996 0.29999999999999999 0 0.94999999999999996 0.29999999999999999 0 0.89898474358614167 0.25391965591104898 0 0.94399509803921056 0.24399509803922639 0 0.91750694127107502 0.36982372220068471 0 0.86844634540301924 0.38530937474099819 0 0.87430060258887643 0.34056085888204451 0 0.91750694127107502 0.36982372220068471 0 0.87430060258887643 0.34056085888204451 0 0.92012390126144183 0.33123581297173937 0 0.89999999999999991 0.29999999999999999 0 0.92012390126144183 0.33123581297173937 0 0.87430060258887643 0.34056085888204451 0 0.91750694127107502 0.36982372220068471 0 0.92012390126144183 0.33123581297173937 0 0.95780851984364423 0.34215720972155339 0 0.91750694127107502 0.36982372220068471 0 0.95780851984364423 0.34215720972155339 0 0.95871855522754235 0.40006508612975411 0 0.94999999999999996 0.29999999999999999 0 0.95780851984364423 0.34215720972155339 0 0.92012390126144183 0.33123581297173937 0 1 0.29999999999999999 0 0.95780851984364423 0.34215720972155339 0 0.94999999999999996 0.29999999999999999 0 1 0.29999999999999999 0 1 0.34999999999993492 0 0.95780851984364423 0.34215720972155339 0 1 0.34999999999993492 0 0.95871855522754235 0.40006508612975411 0 0.95780851984364423 0.34215720972155339 0 0.94999999999999996 0.29999999999999999 0 0.94399509803921056 0.24399509803922639 0 0.97166519676951801 0.26662885509932011 0 0.94999999999999996 0.29999999999999999 0 1 0.29999999999999999 0 1 0.29999999999999999 0 0.94999999999999996 0.29999999999999999 0 0.97166519676951801 0.26662885509932011 0 1 0.29999999999999999 0 0.97166519676951801 0.26662885509932011 0 1 0.24999999999987299 0 1 0.24999999999987299 0 0.97166519676951801 0.26662885509932011 0 0.97435614836740092 0.22499999999981049 0 1 0.19999999999974799 0 1 0.24999999999987299 0 0.97435614836740092 0.22499999999981049 0 0.94399509803921056 0.24399509803922639 0 0.95391631417672862 0.19584263333809451 0 0.97435614836740092 0.22499999999981049 0 0.94399509803921056 0.24399509803922639 0 0.97435614836740092 0.22499999999981049 0 0.97166519676951801 0.26662885509932011 0 1 0.19999999999974799 0 0.97435614836740092 0.22499999999981049 0 0.95391631417672862 0.19584263333809451 0 1 0.14999999999961891 0 0.95391631417672862 0.19584263333809451 0 0.93677536231883773 0.14999999999999089 0 1 0.14999999999961891 0 0.93677536231883773 0.14999999999999089 0 0.95386563387744361 0.1041487415577465 0 1 0.14999999999961891 0 1 0.19999999999974799 0 0.95391631417672862 0.19584263333809451 0 0.90416666666668166 0.20416666666667119 0 0.93677536231883773 0.14999999999999089 0 0.95391631417672862 0.19584263333809451 0 0.90416666666668166 0.20416666666667119 0 0.88088768115941807 0.14674609810479519 0 0.93677536231883773 0.14999999999999089 0 0.90299850604006393 0.09563452813493091 0 0.93677536231883773 0.14999999999999089 0 0.88088768115941807 0.14674609810479519 0 0.90416666666668166 0.20416666666667119 0 0.85600844944842547 0.1848341897950983 0 0.88088768115941807 0.14674609810479519 0 0.90416666666668166 0.20416666666667119 0 0.89898474358614167 0.25391965591104898 0 0.8517097391133297 0.2356960729520409 0 0.90416666666668166 0.20416666666667119 0 0.94399509803921056 0.24399509803922639 0 0.89898474358614167 0.25391965591104898 0 0.90416666666668166 0.20416666666667119 0 0.95391631417672862 0.19584263333809451 0 0.94399509803921056 0.24399509803922639 0 0.94999999999986839 0 0 0.97166519676946894 0.033371144900598393 0 0.94399509803922566 0.056004901960802607 0 1 0 0 0.97166519676946894 0.033371144900598393 0 0.94999999999986839 0 0 1 0 0 1 0.049999999999896842 0 0.97166519676946894 0.033371144900598393 0 1 0.049999999999896842 0 0.97435614836748241 0.074999999999825387 0 0.97166519676946894 0.033371144900598393 0 0.94399509803922566 0.056004901960802607 0 0.97166519676946894 0.033371144900598393 0 0.97435614836748241 0.074999999999825387 0 0.94399509803922566 0.056004901960802607 0 0.97435614836748241 0.074999999999825387 0 0.95386563387744361 0.1041487415577465 0 1 0.099999999999753911 0 0.95386563387744361 0.1041487415577465 0 0.97435614836748241 0.074999999999825387 0 1 0.049999999999896842 0 1 0.099999999999753911 0 0.97435614836748241 0.074999999999825387 0 1 0.099999999999753911 0 1 0.14999999999961891 0 0.95386563387744361 0.1041487415577465 0 0.90299850604006393 0.09563452813493091 0 0.95386563387744361 0.1041487415577465 0 0.93677536231883773 0.14999999999999089 0 0.90299850604006393 0.09563452813493091 0 0.88088768115941807 0.14674609810479519 0 0.84725310900442086 0.10779732082922661 0 0.90299850604006393 0.09563452813493091 0 0.85491058998398861 0.060047533455626502 0 0.899991664607802 0.045289349238254978 0 0.90299850604006393 0.09563452813493091 0 0.94399509803922566 0.056004901960802607 0 0.95386563387744361 0.1041487415577465 0 0.90299850604006393 0.09563452813493091 0 0.899991664607802 0.045289349238254978 0 0.94399509803922566 0.056004901960802607 0 0.94999999999986839 0 0 0.94399509803922566 0.056004901960802607 0 0.899991664607802 0.045289349238254978 0 0.84999999999960507 0 0 0.89999999999973679 0 0 0.899991664607802 0.045289349238254978 0 0.89999999999973679 0 0 0.94999999999986839 0 0 0.899991664607802 0.045289349238254978 0 0.79999999999947335 0 0 0.84999999999960507 0 0 0.81864958914740749 0.035890501779055867 0 0.84999999999960507 0 0 0.899991664607802 0.045289349238254978 0 0.85491058998398861 0.060047533455626502 0 0.80185942888501827 0.074520613036224564 0 0.81864958914740749 0.035890501779055867 0 0.85491058998398861 0.060047533455626502 0 0.84999999999960507 0 0 0.85491058998398861 0.060047533455626502 0 0.81864958914740749 0.035890501779055867 0 0.80185942888501827 0.074520613036224564 0 0.85491058998398861 0.060047533455626502 0 0.84725310900442086 0.10779732082922661 0 0.90299850604006393 0.09563452813493091 0 0.84725310900442086 0.10779732082922661 0 0.85491058998398861 0.060047533455626502 0 0.80185942888501827 0.074520613036224564 0 0.84725310900442086 0.10779732082922661 0 0.80076557130237269 0.1154587552654202 0 0.82709327591102189 0.14937141670914489 0 0.80076557130237269 0.1154587552654202 0 0.84725310900442086 0.10779732082922661 0 0.80185942888501827 0.074520613036224564 0 0.80076557130237269 0.1154587552654202 0 0.76878382444651716 0.097147941686331368 0 0.72525833953073282 0.1032114801687094 0 0.76878382444651716 0.097147941686331368 0 0.77144070960558853 0.14311854477243749 0 0.77144070960558853 0.14311854477243749 0 0.76878382444651716 0.097147941686331368 0 0.80076557130237269 0.1154587552654202 0 0.80185942888501827 0.074520613036224564 0 0.76878382444651716 0.097147941686331368 0 0.7527966693318906 0.053051678021508272 0 0.80185942888501827 0.074520613036224564 0 0.78393852574753176 0.032039079577822822 0 0.81864958914740749 0.035890501779055867 0 0.80185942888501827 0.074520613036224564 0 0.7527966693318906 0.053051678021508272 0 0.78393852574753176 0.032039079577822822 0 0.74999999999934175 0 0 0.78393852574753176 0.032039079577822822 0 0.7527966693318906 0.053051678021508272 0 0.74999999999934175 0 0 0.79999999999947335 0 0 0.78393852574753176 0.032039079577822822 0 0.79999999999947335 0 0 0.81864958914740749 0.035890501779055867 0 0.78393852574753176 0.032039079577822822 0 0.79680861578956375 0.22656778056752541 0 0.81283102246527783 0.1881007222486438 0 0.8517097391133297 0.2356960729520409 0 0.8517097391133297 0.2356960729520409 0 0.81283102246527783 0.1881007222486438 0 0.85600844944842547 0.1848341897950983 0 0.79680861578956375 0.22656778056752541 0 0.8517097391133297 0.2356960729520409 0 0.81486180804364938 0.26321394949780091 0 0.90416666666668166 0.20416666666667119 0 0.8517097391133297 0.2356960729520409 0 0.85600844944842547 0.1848341897950983 0 0.82709327591102189 0.14937141670914489 0 0.88088768115941807 0.14674609810479519 0 0.85600844944842547 0.1848341897950983 0 0.82709327591102189 0.14937141670914489 0 0.84725310900442086 0.10779732082922661 0 0.88088768115941807 0.14674609810479519 0 0.82709327591102189 0.14937141670914489 0 0.85600844944842547 0.1848341897950983 0 0.81283102246527783 0.1881007222486438 0 0.77144070960558853 0.14311854477243749 0 0.81283102246527783 0.1881007222486438 0 0.76587607630038135 0.18880039518954719 0 0.82709327591102189 0.14937141670914489 0 0.81283102246527783 0.1881007222486438 0 0.77144070960558853 0.14311854477243749 0 0.82709327591102189 0.14937141670914489 0 0.77144070960558853 0.14311854477243749 0 0.80076557130237269 0.1154587552654202 0 0.77144070960558853 0.14311854477243749 0 0.76587607630038135 0.18880039518954719 0 0.72634814642510737 0.16106886917518889 0 0.79680861578956375 0.22656778056752541 0 0.75668890529066124 0.2244279804069782 0 0.76587607630038135 0.18880039518954719 0 0.79680861578956375 0.22656778056752541 0 0.76587607630038135 0.18880039518954719 0 0.81283102246527783 0.1881007222486438 0 0.79680861578956375 0.22656778056752541 0 0.81486180804364938 0.26321394949780091 0 0.77075983436335049 0.25919399014334171 0 0.79680861578956375 0.22656778056752541 0 0.77075983436335049 0.25919399014334171 0 0.75668890529066124 0.2244279804069782 0 0.72500000000000064 0.2498161764706 0 0.75668890529066124 0.2244279804069782 0 0.77075983436335049 0.25919399014334171 0 0.72500000000001008 0.19776155966387679 0 0.75668890529066124 0.2244279804069782 0 0.72500000000000064 0.2498161764706 0 0.72500000000001008 0.19776155966387679 0 0.72500000000000064 0.2498161764706 0 0.69397719155551807 0.2245125647000914 0 0.72500000000000064 0.2498161764706 0 0.67933712972090698 0.25920070958121938 0 0.69397719155551807 0.2245125647000914 0 0.72500000000001008 0.19776155966387679 0 0.69397719155551807 0.2245125647000914 0 0.6865991819015953 0.189116534044597 0 0.72500000000001008 0.19776155966387679 0 0.76587607630038135 0.18880039518954719 0 0.75668890529066124 0.2244279804069782 0 0.72500000000001008 0.19776155966387679 0 0.72634814642510737 0.16106886917518889 0 0.76587607630038135 0.18880039518954719 0 0.72525833953073282 0.1032114801687094 0 0.77144070960558853 0.14311854477243749 0 0.72634814642510737 0.16106886917518889 0 0.72525833953073282 0.1032114801687094 0 0.72634814642510737 0.16106886917518889 0 0.68391457121233579 0.14440470121196541 0 0.72500000000001008 0.19776155966387679 0 0.6865991819015953 0.189116534044597 0 0.72634814642510737 0.16106886917518889 0 0.68391457121233579 0.14440470121196541 0 0.72634814642510737 0.16106886917518889 0 0.6865991819015953 0.189116534044597 0 0.68391457121233579 0.14440470121196541 0 0.6865991819015953 0.189116534044597 0 0.64011864159029941 0.18789607982138171 0 0.6236733212988993 0.14864538214901801 0 0.65290632656860115 0.11434202593454081 0 0.68391457121233579 0.14440470121196541 0 0.6236733212988993 0.14864538214901801 0 0.68391457121233579 0.14440470121196541 0 0.64011864159029941 0.18789607982138171 0 0.65394964615507722 0.22666784374016369 0 0.59814117807200873 0.23398510860739519 0 0.64011864159029941 0.18789607982138171 0 0.65394964615507722 0.22666784374016369 0 0.62657463266645097 0.26524202571255862 0 0.59814117807200873 0.23398510860739519 0 0.65394964615507722 0.22666784374016369 0 0.69397719155551807 0.2245125647000914 0 0.67933712972090698 0.25920070958121938 0 0.65394964615507722 0.22666784374016369 0 0.64011864159029941 0.18789607982138171 0 0.6865991819015953 0.189116534044597 0 0.65394964615507722 0.22666784374016369 0 0.6865991819015953 0.189116534044597 0 0.69397719155551807 0.2245125647000914 0 0.69999999999921003 0 0 0.72683645290270404 0.027797073151180601 0 0.7010294155333181 0.056779085686491267 0 0.69999999999921003 0 0 0.7010294155333181 0.056779085686491267 0 0.66369801598854572 0.036327466368102787 0 0.74999999999934175 0 0 0.7527966693318906 0.053051678021508272 0 0.72683645290270404 0.027797073151180601 0 0.69999999999921003 0 0 0.74999999999934175 0 0 0.72683645290270404 0.027797073151180601 0 0.7527966693318906 0.053051678021508272 0 0.7010294155333181 0.056779085686491267 0 0.72683645290270404 0.027797073151180601 0 0.72525833953073282 0.1032114801687094 0 0.68330259535470161 0.10038702501083881 0 0.7010294155333181 0.056779085686491267 0 0.72525833953073282 0.1032114801687094 0 0.7010294155333181 0.056779085686491267 0 0.7527966693318906 0.053051678021508272 0 0.72525833953073282 0.1032114801687094 0 0.7527966693318906 0.053051678021508272 0 0.76878382444651716 0.097147941686331368 0 0.72525833953073282 0.1032114801687094 0 0.68391457121233579 0.14440470121196541 0 0.68330259535470161 0.10038702501083881 0 0.65408113592120842 0.073941773121567966 0 0.68330259535470161 0.10038702501083881 0 0.65290632656860115 0.11434202593454081 0 0.68391457121233579 0.14440470121196541 0 0.65290632656860115 0.11434202593454081 0 0.68330259535470161 0.10038702501083881 0 0.6236733212988993 0.14864538214901801 0 0.61956000905586006 0.1043312481793135 0 0.65290632656860115 0.11434202593454081 0 0.65408113592120842 0.073941773121567966 0 0.65290632656860115 0.11434202593454081 0 0.61956000905586006 0.1043312481793135 0 0.65408113592120842 0.073941773121567966 0 0.61956000905586006 0.1043312481793135 0 0.61940220174112337 0.047251958781050582 0 0.65408113592120842 0.073941773121567966 0 0.7010294155333181 0.056779085686491267 0 0.68330259535470161 0.10038702501083881 0 0.65408113592120842 0.073941773121567966 0 0.66369801598854572 0.036327466368102787 0 0.7010294155333181 0.056779085686491267 0 0.65408113592120842 0.073941773121567966 0 0.61940220174112337 0.047251958781050582 0 0.66369801598854572 0.036327466368102787 0 0.64999999999907843 0 0 0.66369801598854572 0.036327466368102787 0 0.61940220174112337 0.047251958781050582 0 0.64999999999907843 0 0 0.69999999999921003 0 0 0.66369801598854572 0.036327466368102787 0 0.5499999999988151 0 0 0.59999999999894682 0 0 0.57396793757665954 0.037011367187645222 0 0.59999999999894682 0 0 0.64999999999907843 0 0 0.61940220174112337 0.047251958781050582 0 0.59999999999894682 0 0 0.61940220174112337 0.047251958781050582 0 0.57396793757665954 0.037011367187645222 0 0.57667858002728545 0.078486105337742612 0 0.57396793757665954 0.037011367187645222 0 0.61940220174112337 0.047251958781050582 0 0.57667858002728545 0.078486105337742612 0 0.61940220174112337 0.047251958781050582 0 0.61956000905586006 0.1043312481793135 0 0.6236733212988993 0.14864538214901801 0 0.58516465772821369 0.11653801664834119 0 0.61956000905586006 0.1043312481793135 0 0.57667858002728545 0.078486105337742612 0 0.61956000905586006 0.1043312481793135 0 0.58516465772821369 0.11653801664834119 0 0.56202748619534593 0.15054058349222879 0 0.54979595918804436 0.1060565713905809 0 0.58516465772821369 0.11653801664834119 0 0.57667858002728545 0.078486105337742612 0 0.58516465772821369 0.11653801664834119 0 0.54979595918804436 0.1060565713905809 0 0.51076801031701946 0.1202837388510348 0 0.52375890611712683 0.059318771819432882 0 0.54979595918804436 0.1060565713905809 0 0.51076801031701946 0.1202837388510348 0 0.47881186583059909 0.093591717165689425 0 0.52375890611712683 0.059318771819432882 0 0.57667858002728545 0.078486105337742612 0 0.54979595918804436 0.1060565713905809 0 0.52375890611712683 0.059318771819432882 0 0.5499999999988151 0 0 0.57396793757665954 0.037011367187645222 0 0.52375890611712683 0.059318771819432882 0 0.57667858002728545 0.078486105337742612 0 0.52375890611712683 0.059318771819432882 0 0.57396793757665954 0.037011367187645222 0 0.49999999999869432 0 0 0.5499999999988151 0 0 0.52375890611712683 0.059318771819432882 0 0.55306006949600994 0.20198184231352201 0 0.59443395090188023 0.18455690917515069 0 0.59814117807200873 0.23398510860739519 0 0.55306006949600994 0.20198184231352201 0 0.59814117807200873 0.23398510860739519 0 0.54248833945060504 0.2520322959927106 0 0.59814117807200873 0.23398510860739519 0 0.59443395090188023 0.18455690917515069 0 0.64011864159029941 0.18789607982138171 0 0.6236733212988993 0.14864538214901801 0 0.64011864159029941 0.18789607982138171 0 0.59443395090188023 0.18455690917515069 0 0.6236733212988993 0.14864538214901801 0 0.56202748619534593 0.15054058349222879 0 0.58516465772821369 0.11653801664834119 0 0.6236733212988993 0.14864538214901801 0 0.59443395090188023 0.18455690917515069 0 0.56202748619534593 0.15054058349222879 0 0.55306006949600994 0.20198184231352201 0 0.56202748619534593 0.15054058349222879 0 0.59443395090188023 0.18455690917515069 0 0.55306006949600994 0.20198184231352201 0 0.51729576145820033 0.1683240575987815 0 0.56202748619534593 0.15054058349222879 0 0.51076801031701946 0.1202837388510348 0 0.54979595918804436 0.1060565713905809 0 0.56202748619534593 0.15054058349222879 0 0.51076801031701946 0.1202837388510348 0 0.51729576145820033 0.1683240575987815 0 0.48466639505193998 0.1421439844745814 0 0.51076801031701946 0.1202837388510348 0 0.56202748619534593 0.15054058349222879 0 0.51729576145820033 0.1683240575987815 0 0.55306006949600994 0.20198184231352201 0 0.50760557329222289 0.20700468884612061 0 0.51729576145820033 0.1683240575987815 0 0.50760557329222289 0.20700468884612061 0 0.55306006949600994 0.20198184231352201 0 0.54248833945060504 0.2520322959927106 0 0.49695729691142171 0.25014895411178018 0 0.50760557329222289 0.20700468884612061 0 0.54248833945060504 0.2520322959927106 0 0.5 0.29999999999999999 0 0.49695729691142171 0.25014895411178018 0 0.54248833945060504 0.2520322959927106 0 0.5 0.29999999999999999 0 0.54999999999999993 0.29999999999999999 0 0.52752007115234678 0.33170632466418198 0 0.5 0.29999999999999999 0 0.54248833945060504 0.2520322959927106 0 0.54999999999999993 0.29999999999999999 0 0.5 0.29999999999999999 0 0.54999999999999993 0.29999999999999999 0 0.54999999999999993 0.29999999999999999 0 0.54248833945060504 0.2520322959927106 0 0.5794309697024993 0.27124795968204829 0 0.59814117807200873 0.23398510860739519 0 0.5794309697024993 0.27124795968204829 0 0.54248833945060504 0.2520322959927106 0 0.54999999999999993 0.29999999999999999 0 0.59999999999999976 0.29999999999999999 0 0.54999999999999993 0.29999999999999999 0 0.5794309697024993 0.27124795968204829 0 0.59999999999999976 0.29999999999999999 0 0.59999999999999976 0.29999999999999999 0 0.6499999999999998 0.29999999999999999 0 0.59999999999999976 0.29999999999999999 0 0.5794309697024993 0.27124795968204829 0 0.62657463266645097 0.26524202571255862 0 0.59814117807200873 0.23398510860739519 0 0.62657463266645097 0.26524202571255862 0 0.5794309697024993 0.27124795968204829 0 0.6084546825910605 0.37989672713932537 0 0.56836770495988642 0.3523062350852913 0 0.61959173890754571 0.33832250091341232 0 0.59999999999999976 0.29999999999999999 0 0.6499999999999998 0.29999999999999999 0 0.61959173890754571 0.33832250091341232 0 0.59999999999999976 0.29999999999999999 0 0.61959173890754571 0.33832250091341232 0 0.56836770495988642 0.3523062350852913 0 0.54999999999999993 0.29999999999999999 0 0.59999999999999976 0.29999999999999999 0 0.56836770495988642 0.3523062350852913 0 0.56836770495988642 0.3523062350852913 0 0.52289427570932567 0.3932284363388488 0 0.52752007115234678 0.33170632466418198 0 0.54999999999999993 0.29999999999999999 0 0.56836770495988642 0.3523062350852913 0 0.52752007115234678 0.33170632466418198 0 0.5 0.29999999999999999 0 0.52752007115234678 0.33170632466418198 0 0.49077833859261139 0.35229981449445641 0 0.52752007115234678 0.33170632466418198 0 0.52289427570932567 0.3932284363388488 0 0.49077833859261139 0.35229981449445641 0 0.52289427570932567 0.3932284363388488 0 0.56836770495988642 0.3523062350852913 0 0.57744073070774993 0.41535148636609359 0 0.52289427570932567 0.3932284363388488 0 0.57744073070774993 0.41535148636609359 0 0.53823865529665704 0.45873898050322898 0 0.52289427570932567 0.3932284363388488 0 0.53823865529665704 0.45873898050322898 0 0.48858720058566618 0.43964267759203868 0 0.49102375406324739 0.49123754822244059 0 0.53823865529665704 0.45873898050322898 0 0.53330375813596242 0.50827942741749099 0 0.49102375406324739 0.49123754822244059 0 0.48858720058566618 0.43964267759203868 0 0.53823865529665704 0.45873898050322898 0 0.57611405284611883 0.50165903596042916 0 0.53330375813596242 0.50827942741749099 0 0.53823865529665704 0.45873898050322898 0 0.57611405284611883 0.50165903596042916 0 0.57975577671020095 0.46172033326338591 0 0.61547661924074692 0.48539576058873962 0 0.57611405284611883 0.50165903596042916 0 0.53823865529665704 0.45873898050322898 0 0.57975577671020095 0.46172033326338591 0 0.61209567303293111 0.44669033081290321 0 0.57975577671020095 0.46172033326338591 0 0.57744073070774993 0.41535148636609359 0 0.53823865529665704 0.45873898050322898 0 0.57744073070774993 0.41535148636609359 0 0.57975577671020095 0.46172033326338591 0 0.61209567303293111 0.44669033081290321 0 0.61547661924074692 0.48539576058873962 0 0.57975577671020095 0.46172033326338591 0 0.6084546825910605 0.37989672713932537 0 0.57744073070774993 0.41535148636609359 0 0.56836770495988642 0.3523062350852913 0 0.61209567303293111 0.44669033081290321 0 0.57744073070774993 0.41535148636609359 0 0.63912439215427275 0.41063340167983359 0 0.6084546825910605 0.37989672713932537 0 0.63912439215427275 0.41063340167983359 0 0.57744073070774993 0.41535148636609359 0 0.6084546825910605 0.37989672713932537 0 0.65481233915350323 0.35652751921065562 0 0.63912439215427275 0.41063340167983359 0 0.6879972333610942 0.43038561374960838 0 0.65178832218679827 0.45929119821019959 0 0.63912439215427275 0.41063340167983359 0 0.6879972333610942 0.43038561374960838 0 0.63912439215427275 0.41063340167983359 0 0.68128176404677243 0.38629093627004979 0 0.65481233915350323 0.35652751921065562 0 0.68128176404677243 0.38629093627004979 0 0.63912439215427275 0.41063340167983359 0 0.6541250972820879 0.49999999999999989 0 0.61547661924074692 0.48539576058873962 0 0.65178832218679827 0.45929119821019959 0 0.61209567303293111 0.44669033081290321 0 0.65178832218679827 0.45929119821019959 0 0.61547661924074692 0.48539576058873962 0 0.61209567303293111 0.44669033081290321 0 0.63912439215427275 0.41063340167983359 0 0.65178832218679827 0.45929119821019959 0 0.6879972333610942 0.43038561374960838 0 0.69385896817107129 0.48377516041410151 0 0.65178832218679827 0.45929119821019959 0 0.6541250972820879 0.49999999999999989 0 0.65178832218679827 0.45929119821019959 0 0.69385896817107129 0.48377516041410151 0 0.7152569930854884 0.5237994455134295 0 0.69385896817107129 0.48377516041410151 0 0.73947346780852752 0.49062440112282169 0 0.6879972333610942 0.43038561374960838 0 0.73483647259922602 0.44789725365921768 0 0.69385896817107129 0.48377516041410151 0 0.73483647259922602 0.44789725365921768 0 0.73947346780852752 0.49062440112282169 0 0.69385896817107129 0.48377516041410151 0 0.71508799138962864 0.36622814920737751 0 0.72622533758026719 0.40265885511101601 0 0.68128176404677243 0.38629093627004979 0 0.6879972333610942 0.43038561374960838 0 0.72622533758026719 0.40265885511101601 0 0.73483647259922602 0.44789725365921768 0 0.6879972333610942 0.43038561374960838 0 0.68128176404677243 0.38629093627004979 0 0.72622533758026719 0.40265885511101601 0 0.77354604466818633 0.40378688774472771 0 0.73483647259922602 0.44789725365921768 0 0.72622533758026719 0.40265885511101601 0 0.71508799138962864 0.36622814920737751 0 0.74764719760526988 0.3719647154012321 0 0.72622533758026719 0.40265885511101601 0 0.77354604466818633 0.40378688774472771 0 0.72622533758026719 0.40265885511101601 0 0.74764719760526988 0.3719647154012321 0 0.71508799138962864 0.36622814920737751 0 0.73090396928863699 0.33699297293167962 0 0.74764719760526988 0.3719647154012321 0 0.71508799138962864 0.36622814920737751 0 0.68887083591306764 0.33632058575757479 0 0.73090396928863699 0.33699297293167962 0 0.71508799138962864 0.36622814920737751 0 0.68128176404677243 0.38629093627004979 0 0.68887083591306764 0.33632058575757479 0 0.69999999999999984 0.29999999999999999 0 0.73090396928863699 0.33699297293167962 0 0.68887083591306764 0.33632058575757479 0 0.69999999999999984 0.29999999999999999 0 0.72500000000000064 0.2498161764706 0 0.74999999999999989 0.29999999999999999 0 0.69999999999999984 0.29999999999999999 0 0.74999999999999989 0.29999999999999999 0 0.69999999999999984 0.29999999999999999 0 0.74999999999999989 0.29999999999999999 0 0.73090396928863699 0.33699297293167962 0 0.74999999999999989 0.29999999999999999 0 0.72500000000000064 0.2498161764706 0 0.77075983436335049 0.25919399014334171 0 0.69999999999999984 0.29999999999999999 0 0.67933712972090698 0.25920070958121938 0 0.72500000000000064 0.2498161764706 0 0.6499999999999998 0.29999999999999999 0 0.67933712972090698 0.25920070958121938 0 0.69999999999999984 0.29999999999999999 0 0.6499999999999998 0.29999999999999999 0 0.69999999999999984 0.29999999999999999 0 0.68887083591306764 0.33632058575757479 0 0.6499999999999998 0.29999999999999999 0 0.69999999999999984 0.29999999999999999 0 0.6499999999999998 0.29999999999999999 0 0.62657463266645097 0.26524202571255862 0 0.67933712972090698 0.25920070958121938 0 0.65394964615507722 0.22666784374016369 0 0.67933712972090698 0.25920070958121938 0 0.62657463266645097 0.26524202571255862 0 0.59999999999999976 0.29999999999999999 0 0.62657463266645097 0.26524202571255862 0 0.6499999999999998 0.29999999999999999 0 0.6499999999999998 0.29999999999999999 0 0.65481233915350323 0.35652751921065562 0 0.61959173890754571 0.33832250091341232 0 0.6084546825910605 0.37989672713932537 0 0.61959173890754571 0.33832250091341232 0 0.65481233915350323 0.35652751921065562 0 0.65481233915350323 0.35652751921065562 0 0.68887083591306764 0.33632058575757479 0 0.68128176404677243 0.38629093627004979 0 0.6499999999999998 0.29999999999999999 0 0.68887083591306764 0.33632058575757479 0 0.65481233915350323 0.35652751921065562 0 
</DataArray>
</Points>
<Cells>
<DataArray type="UInt32" Name="connectivity" format="ascii">
0 1 2 3 4 5 6 7 8 9 10 11 12 13 14 15 16 17 18 19 20 21 22 23 24 25 26 27 28 29 30 31 32 33 34 35 36 37 38 39 40 41 42 43 44 45 46 47 48 49 50 51 52 53 54 55 56 57 58 59 60 61 62 63 64 65 66 67 68 69 70 71 72 73 74 75 76 77 78 79 80 81 82 83 84 85 86 87 88 89 90 91 92 93 94 95 96 97 98 99 100 101 102 103 104 105 106 107 108 109 110 111 112 113 114 115 116 117 118 119 120 121 122 123 124 125 126 127 128 129 130 131 132 133 134 135 136 137 138 139 140 141 142 143 144 145 146 147 148 149 150 151 152 153 154 155 156 157 158 159 160 161 162 163 164 165 166 167 168 169 170 171 172 173 174 175 176 177 178 179 180 181 182 183 184 185 186 187 188 189 190 191 192 193 194 195 196 197 198 199 200 201 202 203 204 205 206 207 208 209 210 211 212 213 214 215 216 217 218 219 220 221 222 223 224 225 226 227 228 229 230 231 232 233 234 235 236 237 238 239 240 241 242 243 244 245 246 247 248 249 250 251 252 253 254 255 256 257 258 259 260 261 262 263 264 265 266 267 268 269 270 271 272 273 274 275 276 277 278 279 280 281 282 283 284 285 286 287 288 289 290 291 292 293 294 295 296 297 298 299 300 301 302 303 304 305 306 307 308 309 310 311 312 313 314 315 316 317 318 319 320 321 322 323 324 325 326 327 328 329 330 331 332 333 334 335 336 337 338 339 340 341 342 343 344 345 346 347 348 349 350 351 352 353 354 355 356 357 358 359 360 361 362 363 364 365 366 367 368 369 370 371 372 373 374 375 376 377 378 379 380 381 382 383 384 385 386 387 388 389 390 391 392 393 394 395 396 397 398 399 400 401 402 403 404 405 406 407 408 409 410 411 412 413 414 415 416 417 418 419 420 421 422 423 424 425 426 427 428 429 430 431 432 433 434 435 436 437 438 439 440 441 442 443 444 445 446 447 448 449 450 451 452 453 454 455 456 457 458 459 460 461 462 463 464 465 466 467 468 469 470 471 472 473 474 475 476 477 478 479 480 481 482 483 484 485 486 487 488 489 490 491 492 493 494 495 496 497 498 499 500 501 502 503 504 505 506 507 508 509 510 511 512 513 514 515 516 517 518 519 520 521 522 523 524 525 526 527 528 529 530 531 532 533 534 535 536 537 538 539 540 541 542 543 544 545 546 547 548 549 550 551 552 553 554 555 556 557 558 559 560 561 562 563 564 565 566 567 568 569 570 571 572 573 574 575 576 577 578 579 580 581 582 583 584 585 586 587 588 589 590 591 592 593 594 595 596 597 598 599 600 601 602 603 604 605 606 607 608 609 610 611 612 613 614 615 616 617 618 619 620 621 622 623 624 625 626 627 628 629 630 631 632 633 634 635 636 637 638 639 640 641 642 643 644 645 646 647 648 649 650 651 652 653 654 655 656 657 658 659 660 661 662 663 664 665 666 667 668 669 670 671 672 673 674 675 676 677 678 679 680 681 682 683 684 685 686 687 688 689 690 691 692 693 694 695 696 697 698 699 700 701 702 703 704 705 706 707 708 709 710 711 712 713 714 715 716 717 718 719 720 721 722 723 724 725 726 727 728 729 730 731 732 733 734 735 736 737 738 739 740 741 742 743 744 745 746 747 748 749 750 751 752 753 754 755 756 757 758 759 760 761 762 763 764 765 766 767 768 769 770 771 772 773 774 775 776 777 778 779 780 781 782 783 784 785 786 787 788 789 790 791 792 793 794 795 796 797 798 799 800 801 802 803 804 805 806 807 808 809 810 811 812 813 814 815 816 817 818 819 820 821 822 823 824 825 826 827 828 829 830 831 832 833 834 835 836 837 838 839 840 841 842 843 844 845 846 847 848 849 850 851 852 853 854 855 856 857 858 859 860 861 862 863 864 865 866 867 868 869 870 871 872 873 874 875 876 877 878 879 880 881 882 883 884 885 886 887 888 889 890 891 892 893 894 895 896 897 898 899 900 901 902 903 904 905 906 907 908 909 910 911 912 913 914 915 916 917 918 919 920 921 922 923 924 925 926 927 928 929 930 931 932 933 934 935 936 937 938 939 940 941 942 943 944 945 946 947 948 949 950 951 952 953 954 955 956 957 958 959 960 961 962 963 964 965 966 967 968 969 970 971 972 973 974 975 976 977 978 979 980 981 982 983 984 985 986 987 988 989 990 991 992 993 994 995 996 997 998 999 1000 1001 1002 1003 1004 1005 1006 1007 1008 1009 1010 1011 1012 1013 1014 1015 1016 1017 1018 1019 1020 1021 1022 1023 1024 1025 1026 1027 1028 1029 1030 1031 1032 1033 1034 1035 1036 1037 1038 1039 1040 1041 1042 1043 1044 1045 1046 1047 1048 1049 1050 1051 1052 1053 1054 1055 1056 1057 1058 1059 1060 1061 1062 1063 1064 1065 1066 1067 1068 1069 1070 1071 1072 1073 1074 1075 1076 1077 1078 1079 1080 1081 1082 1083 1084 1085 1086 1087 1088 1089 1090 1091 1092 1093 1094 1095 1096 1097 1098 1099 1100 1101 1102 1103 1104 1105 1106 1107 1108 1109 1110 1111 1112 1113 1114 1115 1116 1117 1118 1119 1120 1121 1122 1123 1124 1125 1126 1127 1128 1129 1130 1131 1132 1133 1134 1135 1136 1137 1138 1139 1140 1141 1142 1143 1144 1145 1146 1147 1148 1149 1150 1151 1152 1153 1154 1155 1156 1157 1158 1159 1160 1161 1162 1163 1164 1165 1166 1167 1168 1169 1170 1171 1172 1173 1174 1175 1176 1177 1178 1179 1180 1181 1182 1183 1184 1185 1186 1187 1188 1189 1190 1191 1192 1193 1194 1195 1196 1197 1198 1199 1200 1201 1202 1203 1204 1205 1206 1207 1208 1209 1210 1211 1212 1213 1214 1215 1216 1217 1218 1219 1220 1221 1222 1223 1224 1225 1226 1227 1228 1229 1230 1231 1232 1233 1234 1235 1236 1237 1238 1239 1240 1241 1242 1243 1244 1245 1246 1247 1248 1249 1250 1251 1252 1253 1254 1255 1256 1257 1258 1259 1260 1261 1262 1263 1264 1265 1266 1267 1268 1269 1270 1271 1272 1273 1274 1275 1276 1277 1278 1279 1280 1281 1282 1283 1284 1285 1286 1287 1288 1289 1290 1291 1292 1293 1294 1295 1296 1297 1298 1299 1300 1301 1302 1303 1304 1305 1306 1307 1308 1309 1310 1311 1312 1313 1314 1315 1316 1317 1318 1319 1320 1321 1322 1323 1324 1325 1326 1327 1328 1329 1330 1331 1332 1333 1334 1335 1336 1337 1338 1339 1340 1341 1342 1343 1344 1345 1346 1347 1348 1349 1350 1351 1352 1353 1354 1355 1356 1357 1358 1359 1360 1361 1362 1363 1364 1365 1366 1367 1368 1369 1370 1371 1372 1373 1374 1375 1376 1377 1378 1379 1380 1381 1382 1383 1384 1385 1386 1387 1388 1389 1390 1391 1392 1393 1394 1395 1396 1397 1398 1399 1400 1401 1402 1403 1404 1405 1406 1407 1408 1409 1410 1411 1412 1413 1414 1415 1416 1417 1418 1419 1420 1421 1422 1423 1424 1425 1426 1427 1428 1429 1430 1431 1432 1433 1434 1435 1436 1437 1438 1439 1440 1441 1442 1443 1444 1445 1446 1447 1448 1449 1450 1451 1452 1453 1454 1455 1456 1457 1458 1459 1460 1461 1462 1463 1464 1465 1466 1467 1468 1469 1470 1471 1472 1473 1474 1475 1476 1477 1478 1479 1480 1481 1482 1483 1484 1485 1486 1487 1488 1489 1490 1491 1492 1493 1494 1495 1496 1497 1498 1499 1500 1501 1502 1503 1504 1505 1506 1507 1508 1509 1510 1511 1512 1513 1514 1515 1516 1517 1518 1519 1520 1521 1522 1523 1524 1525 1526 1527 1528 1529 1530 1531 1532 1533 1534 1535 1536 1537 1538 1539 1540 1541 1542 1543 1544 1545 1546 1547 1548 1549 1550 1551 1552 1553 1554 1555 1556 1557 1558 1559 1560 1561 1562 1563 1564 1565 1566 1567 1568 1569 1570 1571 1572 1573 1574 1575 1576 1577 1578 1579 1580 1581 1582 1583 1584 1585 1586 1587 1588 1589 1590 1591 1592 1593 1594 1595 1596 1597 1598 1599 1600 1601 1602 1603 1604 1605 1606 1607 1608 1609 1610 1611 1612 1613 1614 1615 1616 1617 1618 1619 1620 1621 1622 1623 1624 1625 1626 1627 1628 1629 1630 1631 1632 1633 1634 1635 1636 1637 1638 1639 1640 1641 1642 1643 1644 1645 1646 1647 1648 1649 1650 1651 1652 1653 1654 1655 1656 1657 1658 1659 1660 1661 1662 1663 1664 1665 1666 1667 1668 1669 1670 1671 1672 1673 1674 1675 1676 1677 1678 1679 1680 1681 1682 1683 1684 1685 1686 1687 1688 1689 1690 1691 1692 1693 1694 1695 1696 1697 1698 1699 1700 1701 1702 1703 1704 1705 1706 1707 1708 1709 1710 1711 1712 1713 1714 1715 1716 1717 1718 1719 1720 1721 1722 1723 1724 1725 1726 1727 1728 1729 1730 1731 1732 1733 1734 1735 1736 1737 1738 1739 1740 1741 1742 1743 1744 1745 1746 1747 1748 1749 1750 1751 1752 1753 1754 1755 1756 1757 1758 1759 1760 1761 1762 1763 1764 1765 1766 1767 1768 1769 1770 1771 1772 1773 1774 1775 1776 1777 1778 1779 1780 1781 1782 1783 1784 1785 1786 1787 1788 1789 1790 1791 1792 1793 1794 1795 1796 1797 1798 1799 1800 1801 1802 1803 1804 1805 1806 1807 1808 1809 1810 1811 1812 1813 1814 1815 1816 1817 1818 1819 1820 1821 1822 1823 1824 1825 1826 1827 1828 1829 1830 1831 1832 1833 1834 1835 1836 1837 1838 1839 1840 1841 1842 1843 1844 1845 1846 1847 1848 1849 1850 1851 1852 1853 1854 1855 1856 1857 1858 1859 1860 1861 1862 1863 1864 1865 1866 1867 1868 1869 1870 1871 1872 1873 1874 1875 1876 1877 1878 1879 1880 1881 1882 1883 1884 1885 1886 1887 1888 1889 1890 1891 1892 1893 1894 1895 1896 1897 1898 1899 1900 1901 1902 1903 1904 1905 1906 1907 1908 1909 1910 1911 1912 1913 1914 1915 1916 1917 1918 1919 1920 1921 1922 1923 1924 1925 1926 1927 1928 1929 1930 1931 1932 1933 1934 1935 1936 1937 1938 1939 1940 1941 1942 1943 1944 1945 1946 1947 1948 1949 1950 1951 1952 1953 1954 1955 1956 1957 1958 1959 1960 1961 1962 1963 1964 1965 1966 1967 1968 1969 1970 1971 1972 1973 1974 1975 1976 1977 1978 1979 1980 1981 1982 1983 1984 1985 1986 1987 1988 1989 1990 1991 1992 1993 1994 1995 1996 1997 1998 1999 2000 2001 2002 2003 2004 2005 2006 2007 2008 2009 2010 2011 2012 2013 2014 2015 2016 2017 2018 2019 2020 2021 2022 2023 2024 2025 2026 2027 2028 2029 2030 2031 2032 2033 2034 2035 2036 2037 2038 2039 2040 2041 2042 2043 2044 2045 2046 2047 2048 2049 2050 2051 2052 2053 2054 2055 2056 2057 2058 2059 2060 2061 2062 2063 2064 2065 2066 2067 2068 2069 2070 2071 2072 2073 2074 2075 2076 2077 2078 2079 2080 2081 2082 2083 2084 2085 2086 2087 2088 2089 2090 2091 2092 2093 2094 2095 2096 2097 2098 2099 2100 2101 2102 2103 2104 2105 2106 2107 2108 2109 2110 2111 2112 2113 2114 2115 2116 2117 2118 2119 2120 2121 2122 2123 2124 2125 2126 2127 2128 2129 2130 2131 2132 2133 2134 2135 2136 2137 2138 2139 2140 2141 2142 2143 2144 2145 2146 2147 2148 2149 2150 2151 2152 2153 2154 2155 2156 2157 2158 2159 2160 2161 2162 2163 2164 2165 2166 2167 2168 2169 2170 2171 2172 2173 2174 2175 2176 2177 2178 2179 2180 2181 2182 2183 2184 2185 2186 2187 2188 2189 2190 2191 2192 2193 2194 2195 2196 2197 2198 2199 2200 2201 2202 2203 2204 2205 2206 2207 2208 2209 2210 2211 2212 2213 2214 2215 2216 2217 2218 2219 2220 2221 2222 2223 2224 2225 2226 2227 2228 2229 2230 2231 2232 2233 2234 2235 2236 2237 2238 2239 2240 2241 2242 2243 2244 2245 2246 2247 2248 2249 2250 2251 2252 2253 2254 2255 2256 2257 2258 2259 2260 2261 2262 2263 2264 2265 2266 2267 2268 2269 2270 2271 2272 2273 2274 2275 2276 2277 2278 2279 2280 2281 2282 2283 2284 2285 2286 2287 2288 2289 2290 2291 2292 2293 2294 2295 2296 2297 2298 2299 2300 2301 2302 2303 2304 2305 2306 2307 2308 2309 2310 2311 2312 2313 2314 2315 2316 2317 2318 2319 2320 2321 2322 2323 2324 2325 2326 2327 2328 2329 2330 2331 2332 2333 2334 2335 2336 2337 2338 2339 2340 2341 2342 2343 2344 2345 2346 2347 2348 2349 2350 2351 2352 2353 2354 2355 2356 2357 2358 2359 2360 2361 2362 2363 2364 2365 2366 2367 2368 2369 2370 2371 2372 2373 2374 2375 2376 2377 2378 2379 2380 2381 2382 2383 2384 2385 2386 2387 2388 2389 2390 2391 2392 2393 2394 2395 2396 2397 2398 2399 2400 2401 2402 2403 2404 2405 2406 2407 2408 2409 2410 2411 2412 2413 2414 2415 2416 2417 2418 2419 2420 2421 2422 2423 2424 2425 2426 2427 2428 2429 2430 2431 2432 2433 2434 2435 2436 2437 2438 2439 2440 2441 2442 2443 2444 2445 2446 2447 2448 2449 2450 2451 2452 2453 2454 2455 2456 2457 2458 2459 2460 2461 2462 2463 2464 2465 2466 2467 2468 2469 2470 2471 2472 2473 2474 2475 2476 2477 2478 2479 2480 2481 2482 2483 2484 2485 2486 2487 2488 2489 2490 2491 2492 2493 2494 2495 2496 2497 2498 2499 2500 2501 2502 2503 2504 2505 2506 2507 2508 2509 2510 2511 2512 2513 2514 2515 2516 2517 2518 2519 2520 2521 2522 2523 2524 2525 2526 2527 2528 2529 2530 2531 2532 2533 2534 2535 2536 2537 2538 2539 2540 2541 2542 2543 2544 2545 2546 2547 2548 2549 2550 2551 2552 2553 2554 2555 2556 2557 2558 2559 2560 2561 2562 2563 2564 2565 2566 2567 2568 2569 2570 2571 2572 2573 2574 2575 2576 2577 2578 2579 2580 2581 2582 2583 2584 2585 2586 2587 2588 2589 2590 2591 2592 2593 2594 2595 2596 2597 2598 2599 2600 2601 2602 2603 2604 2605 2606 2607 2608 2609 2610 2611 2612 2613 2614 2615 2616 2617 2618 2619 2620 2621 2622 2623 2624 2625 2626 2627 2628 2629 2630 2631 2632 2633 2634 2635 2636 2637 2638 2639 2640 2641 2642 2643 2644 2645 2646 2647 2648 2649 2650 2651 2652 2653 2654 2655 2656 2657 2658 2659 2660 2661 2662 2663 2664 2665 2666 2667 2668 2669 2670 2671 2672 2673 2674 2675 2676 2677 2678 2679 2680 2681 2682 2683 2684 2685 2686 2687 2688 2689 2690 2691 2692 2693 2694 2695 2696 2697 2698 2699 2700 2701 2702 2703 2704 2705 2706 2707 2708 2709 2710 2711 2712 2713 2714 2715 2716 2717 2718 2719 2720 2721 2722 2723 2724 2725 2726 2727 2728 2729 2730 2731 2732 2733 2734 2735 2736 2737 2738 2739 2740 2741 2742 2743 2744 2745 2746 2747 2748 2749 2750 2751 2752 2753 2754 2755 2756 2757 2758 2759 2760 2761 2762 2763 2764 2765 2766 2767 2768 2769 2770 2771 2772 2773 2774 2775 2776 2777 2778 2779 2780 2781 2782 2783 2784 2785 2786 2787 2788 2789 2790 2791 2792 2793 2794 2795 2796 2797 2798 2799 2800 2801 2802 2803 2804 2805 2806 2807 2808 2809 2810 2811 2812 2813 2814 2815 2816 2817 2818 2819 2820 2821 2822 2823 2824 2825 2826 2827 2828 2829 2830 2831 2832 2833 2834 2835 2836 2837 2838 2839 2840 2841 2842 2843 2844 2845 2846 2847 2848 2849 2850 2851 2852 2853 2854 2855 2856 2857 2858 2859 2860 2861 2862 2863 2864 2865 2866 2867 2868 2869 2870 2871 2872 2873 2874 2875 2876 2877 2878 2879 2880 2881 2882 2883 2884 2885 2886 2887 2888 2889 2890 2891 2892 2893 2894 2895 2896 2897 2898 2899 2900 2901 2902 2903 2904 2905 2906 2907 2908 2909 2910 2911 2912 2913 2914 2915 2916 2917 2918 2919 2920 2921 2922 2923 2924 2925 2926 2927 2928 2929 2930 2931 2932 2933 2934 2935 2936 2937 2938 2939 2940 2941 2942 2943 2944 2945 2946 2947 2948 2949 2950 2951 2952 2953 2954 2955 2956 2957 2958 2959 2960 2961 2962 2963 2964 2965 2966 2967 2968 2969 2970 2971 2972 2973 2974 2975 2976 2977 2978 2979 2980 2981 2982 2983 2984 2985 2986 2987 2988 2989 2990 2991 2992 2993 2994 2995 2996 2997 2998 2999 3000 3001 3002 3003 3004 3005 3006 3007 3008 3009 3010 3011 3012 3013 3014 3015 3016 3017 3018 3019 3020 3021 3022 3023 3024 3025 3026 3027 3028 3029 3030 3031 3032 3033 3034 3035 3036 3037 3038 3039 3040 3041 3042 3043 3044 3045 3046 3047 3048 3049 3050 3051 3052 3053 3054 3055 3056 3057 3058 3059 3060 3061 3062 3063 3064 3065 3066 3067 3068 3069 3070 3071 3072 3073 3074 3075 3076 3077 3078 3079 3080 3081 3082 3083 3084 3085 3086 3087 3088 3089 3090 3091 3092 3093 3094 3095 3096 3097 3098 3099 3100 3101 3102 3103 3104 3105 3106 3107 3108 3109 3110 3111 3112 3113 3114 3115 3116 3117 3118 3119 3120 3121 3122 3123 3124 3125 3126 3127 3128 3129 3130 3131 3132 3133 3134 3135 3136 3137 3138 3139 3140 3141 
</DataArray>
<DataArray type="UInt32" Name="offsets" format="ascii">
3 6 9 12 15 18 21 24 27 30 33 36 39 42 45 48 51 54 57 60 63 66 69 72 75 78 81 84 87 90 93 96 99 102 105 108 111 114 117 120 123 126 129 132 135 138 141 144 147 150 153 156 159 162 165 168 171 174 177 180 183 186 189 192 195 198 201 204 207 210 213 216 219 222 225 228 231 234 237 240 243 246 249 252 255 258 261 264 267 270 273 276 279 282 285 288 291 294 297 300 303 306 309 312 315 318 321 324 327 330 333 336 339 342 345 348 351 354 357 360 363 366 369 372 375 378 381 384 387 390 393 396 399 402 405 408 411 414 417 420 423 426 429 432 435 438 441 444 447 450 453 456 459 462 465 468 471 474 477 480 483 486 489 492 495 498 501 504 507 510 513 516 519 522 525 528 531 534 537 540 543 546 549 552 555 558 561 564 567 570 573 576 579 582 585 588 591 594 597 600 603 606 609 612 615 618 621 624 627 630 633 636 639 642 645 648 651 654 657 660 663 666 669 672 675 678 681 684 687 690 693 696 699 702 705 708 711 714 717 720 723 726 729 732 735 738 741 744 747 750 753 756 759 762 765 768 771 774 777 780 783 786 789 792 795 798 801 804 807 810 813 816 819 822 825 828 831 834 837 840 843 846 849 852 855 858 861 864 867 870 873 876 879 882 885 888 891 894 897 900 903 906 909 912 915 918 921 924 927 930 933 936 939 942 945 948 951 954 957 960 963 966 969 972 975 978 981 984 987 990 993 996 999 1002 1005 1008 1011 1014 1017 1020 1023 1026 1029 1032 1035 1038 1041 1044 1047 1050 1053 1056 1059 1062 1065 1068 1071 1074 1077 1080 1083 1086 1089 1092 1095 1098 1101 1104 1107 1110 1113 1116 1119 1122 1125 1128 1131 1134 1137 1140 1143 1146 1149 1152 1155 1158 1161 1164 1167 1170 1173 1176 1179 1182 1185 1188 1191 1194 1197 1200 1203 1206 1209 1212 1215 1218 1221 1224 1227 1230 1233 1236 1239 1242 1245 1248 1251 1254 1257 1260 1263 1266 1269 1272 1275 1278 1281 1284 1287 1290 1293 1296 1299 1302 1305 1308 1311 1314 1317 1320 1323 1326 1329 1332 1335 1338 1341 1344 1347 1350 1353 1356 1359 1362 1365 1368 1371 1374 1377 1380 1383 1386 1389 1392 1395 1398 1401 1404 1407 1410 1413 1416 1419 1422 1425 1428 1431 1434 1437 1440 1443 1446 1449 1452 1455 1458 1461 1464 1467 1470 1473 1476 1479 1482 1485 1488 1491 1494 1497 1500 1503 1506 1509 1512 1515 1518 1521 1524 1527 1530 1533 1536 1539 1542 1545 1548 1551 1554 1557 1560 1563 1566 1569 1572 1575 1578 1581 1584 1587 1590 1593 1596 1599 1602 1605 1608 1611 1614 1616 1619 1622 1624 1627 1630 1632 1635 1638 1641 1644 1647 1650 1653 1656 1659 1662 1665 1668 1671 1673 1676 1679 1682 1685 1688 1690 1693 1696 1699 1702 1705 1708 1711 1714 1717 1720 1723 1726 1729 1732 1735 1738 1741 1744 1747 1750 1753 1756 1759 1762 1765 1768 1771 1774 1777 1780 1783 1786 1789 1792 1795 1798 1801 1804 1807 1810 1813 1816 1819 1822 1825 1828 1831 1834 1837 1840 1843 1846 1849 1852 1855 1858 1861 1864 1867 1870 1873 1876 1879 1882 1885 1888 1891 1894 1897 1900 1903 1906 1909 1912 1915 1918 1921 1924 1927 1930 1933 1936 1939 1942 1945 1948 1951 1954 1957 1960 1963 1966 1969 1972 1975 1978 1981 1984 1987 1990 1993 1996 1999 2002 2005 2008 2011 2014 2017 2020 2023 2026 2029 2032 2035 2038 2041 2044 2047 2050 2053 2056 2059 2062 2065 2068 2071 2074 2077 2080 2083 2086 2089 2092 2095 2098 2101 2104 2107 2110 2113 2116 2119 2122 2125 2128 2131 2134 2137 2140 2143 2146 2149 2152 2155 2158 2161 2164 2167 2170 2173 2176 2179 2182 2185 2188 2191 2194 2196 2199 2202 2205 2207 2210 2213 2215 2218 2221 2224 2227 2230 2233 2236 2239 2242 2245 2248 2250 2253 2256 2259 2262 2264 2267 2270 2273 2276 2279 2282 2285 2288 2291 2294 2297 2300 2303 2306 2309 2312 2315 2318 2321 2324 2327 2330 2333 2336 2339 2342 2345 2348 2351 2354 2357 2360 2363 2366 2369 2372 2375 2378 2381 2384 2387 2390 2393 2396 2399 2402 2405 2408 2411 2414 2417 2420 2423 2426 2429 2432 2435 2438 2440 2443 2446 2449 2452 2455 2458 2461 2464 2467 2470 2473 2476 2479 2482 2484 2487 2490 2492 2495 2497 2500 2503 2506 2509 2512 2515 2518 2521 2524 2527 2530 2533 2536 2538 2541 2544 2547 2550 2553 2556 2559 2562 2565 2568 2571 2574 2577 2580 2583 2586 2589 2592 2595 2598 2601 2604 2607 2610 2613 2616 2619 2622 2625 2628 2631 2634 2637 2640 2643 2646 2649 2652 2655 2658 2661 2664 2667 2670 2673 2676 2679 2682 2685 2688 2691 2694 2697 2700 2703 2706 2709 2712 2715 2718 2721 2724 2727 2730 2733 2736 2739 2742 2745 2748 2751 2754 2757 2760 2763 2766 2769 2772 2775 2778 2781 2784 2787 2790 2793 2796 2799 2802 2805 2808 2811 2814 2817 2820 2823 2826 2829 2832 2835 2838 2841 2844 2847 2850 2853 2856 2859 2862 2865 2868 2871 2874 2877 2880 2883 2886 2889 2892 2895 2898 2901 2904 2907 2910 2913 2916 2919 2922 2925 2928 2931 2934 2937 2940 2943 2946 2948 2951 2954 2956 2959 2961 2964 2967 2970 2973 2976 2979 2982 2985 2988 2991 2994 2997 3000 3003 3006 3009 3012 3015 3018 3021 3024 3027 3030 3033 3036 3039 3042 3045 3048 3051 3054 3057 3060 3063 3066 3069 3072 3075 3078 3081 3084 3087 3090 3093 3096 3099 3102 3104 3107 3110 3113 3116 3119 3121 3124 3127 3130 3133 3136 3139 3142 
</DataArray>
<DataArray type="UInt32" Name="types" format="ascii">
5 5 5 5 5 5 5 5 5 5 5 5 5 5 5 5 5 5 5 5 5 5 5 5 5 5 5 5 5 5 5 5 5 5 5 5 5 5 5 5 5 5 5 5 5 5 5 5 5 5 5 5 5 5 5 5 5 5 5 5 5 5 5 5 5 5 5 5 5 5 5 5 5 5 5 5 5 5 5 5 5 5 5 5 5 5 5 5 5 5 5 5 5 5 5 5 5 5 5 5 5 5 5 5 5 5 5 5 5 5 5 5 5 5 5 5 5 5 5 5 5 5 5 5 5 5 5 5 5 5 5 5 5 5 5 5 5 5 5 5 5 5 5 5 5 5 5 5 5 5 5 5 5 5 5 5 5 5 5 5 5 5 5 5 5 5 5 5 5 5 5 5 5 5 5 5 5 5 5 5 5 5 5 5 5 5 5 5 5 5 5 5 5 5 5 5 5 5 5 5 5 5 5 5 5 5 5 5 5 5 5 5 5 5 5 5 5 5 5 5 5 5 5 5 5 5 5 5 5 5 5 5 5 5 5 5 5 5 5 5 5 5 5 5 5 5 5 5 5 5 5 5 5 5 5 5 5 5 5 5 5 5 5 5 5 5 5 5 5 5 5 5 5 5 5 5 5 5 5 5 5 5 5 5 5 5 5 5 5 5 5 5 5 5 5 5 5 5 5 5 5 5 5 5 5 5 5 5 5 5 5 5 5 5 5 5 5 5 5 5 5 5 5 5 5 5 5 5 5 5 5 5 5 5 5 5 5 5 5 5 5 5 5 5 5 5 5 5 5 5 5 5 5 5 5 5 5 5 5 5 5 5 5 5 5 5 5 5 5 5 5 5 5 5 5 5 5 5 5 5 5 5 5 5 5 5 5 5 5 5 5 5 5 5 5 5 5 5 5 5 5 5 5 5 5 5 5 5 5 5 5 5 5 5 5 5 5 5 5 5 5 5 5 5 5 5 5 5 5 5 5 5 5 5 5 5 5 5 5 5 5 5 5 5 5 5 5 5 5 5 5 5 5 5 5 5 5 5 5 5 5 5 5 5 5 5 5 5 5 5 5 5 5 5 5 5 5 5 5 5 5 5 5 5 5 5 5 5 5 5 5 5 5 5 5 5 5 5 5 5 5 5 5 5 5 5 5 5 5 5 5 5 5 5 5 5 5 5 5 5 5 5 5 5 5 5 5 5 5 5 5 5 5 5 5 5 5 5 3 5 5 3 5 5 3 5 5 5 5 5 5 5 5 5 5 5 5 5 3 5 5 5 5 5 3 5 5 5 5 5 5 5 5 5 5 5 5 5 5 5 5 5 5 5 5 5 5 5 5 5 5 5 5 5 5 5 5 5 5 5 5 5 5 5 5 5 5 5 5 5 5 5 5 5 5 5 5 5 5 5 5 5 5 5 5 5 5 5 5 5 5 5 5 5 5 5 5 5 5 5 5 5 5 5 5 5 5 5 5 5 5 5 5 5 5 5 5 5 5 5 5 5 5 5 5 5 5 5 5 5 5 5 5 5 5 5 5 5 5 5 5 5 5 5 5 5 5 5 5 5 5 5 5 5 5 5 5 5 5 5 5 5 5 5 5 5 5 5 5 5 5 5 5 5 5 5 5 5 5 5 5 5 5 5 5 5 5 5 5 5 5 5 5 3 5 5 5 3 5 5 3 5 5 5 5 5 5 5 5 5 5 5 3 5 5 5 5 3 5 5 5 5 5 5 5 5 5 5 5 5 5 5 5 5 5 5 5 5 5 5 5 5 5 5 5 5 5 5 5 5 5 5 5 5 5 5 5 5 5 5 5 5 5 5 5 5 5 5 5 5 5 5 5 5 5 5 3 5 5 5 5 5 5 5 5 5 5 5 5 5 5 3 5 5 3 5 3 5 5 5 5 5 5 5 5 5 5 5 5 5 3 5 5 5 5 5 5 5 5 5 5 5 5 5 5 5 5 5 5 5 5 5 5 5 5 5 5 5 5 5 5 5 5 5 5 5 5 5 5 5 5 5 5 5 5 5 5 5 5 5 5 5 5 5 5 5 5 5 5 5 5 5 5 5 5 5 5 5 5 5 5 5 5 5 5 5 5 5 5 5 5 5 5 5 5 5 5 5 5 5 5 5 5 5 5 5 5 5 5 5 5 5 5 5 5 5 5 5 5 5 5 5 5 5 5 5 5 5 5 5 5 5 5 5 5 5 5 5 5 5 5 5 5 5 5 5 5 3 5 5 3 5 3 5 5 5 5 5 5 5 5 5 5 5 5 5 5 5 5 5 5 5 5 5 5 5 5 5 5 5 5 5 5 5 5 5 5 5 5 5 5 5 5 5 5 5 5 5 5 5 3 5 5 5 5 5 3 5 5 5 5 5 5 5 
</DataArray>
</Cells>
<PointData Scalars="" Vectors="displacement," Tensors="">
<DataArray type="Float64" Name="displacement" NumberOfComponents="3" format="ascii">
-7.1816331581420599e-10 -2.9470293433973065e-10 0 -8.7480508149583729e-07 9.6543484260534221e-08 0 -4.1001594586915308e-07 1.3809916029709664e-07 0 -7.1816331581420599e-10 -2.9470293433973065e-10 0 -4.1001594586915318e-07 1.3809916029709667e-07 0 -7.4997443961091758e-10 2.4418319553941497e-10 0 -8.7480508149583729e-07 9.6543484260534221e-08 0 -9.5423686120137922e-07 4.8128291180597229e-07 0 -4.1001594586915308e-07 1.3809916029709664e-07 0 -7.4997443961091758e-10 2.4418319553941497e-10 0 -4.1001594586915308e-07 1.3809916029709667e-07 0 -9.5423686120137922e-07 4.8128291180597229e-07 0 -7.6234045366030618e-10 1.8621950353075543e-10 0 -7.4997443961091758e-10 2.4418319553941497e-10 0 -6.2231100946153743e-07 6.4508888183248916e-07 0 -4.091438855733213e-10 4.6760596644077504e-10 0 -7.6234045366030618e-10 1.8621950353075543e-10 0 -6.2231100946153743e-07 6.4508888183248916e-07 0 -1.3581680348354471e-06 1.0098009421866722e-06 0 -6.2231100946153743e-07 6.4508888183248916e-07 0 -9.5423686120137922e-07 4.8128291180597229e-07 0 -7.4997443961091758e-10 2.4418319553941497e-10 0 -9.5423686120137922e-07 4.8128291180597229e-07 0 -6.2231100946153743e-07 6.4508888183248916e-07 0 -1.3581680348354471e-06 1.0098009421866722e-06 0 -7.3583240644388384e-07 1.0716661451378139e-06 0 -6.2231100946153743e-07 6.4508888183248916e-07 0 -1.3581680348354471e-06 1.0098009421866722e-06 0 -1.4084500999437265e-06 1.4144862859136318e-06 0 -7.3583240644388384e-07 1.0716661451378139e-06 0 -1.3581680348354471e-06 1.0098009421866722e-06 0 -2.1066707862679591e-06 1.3521921731219171e-06 0 -1.4084500999437265e-06 1.4144862859136318e-06 0 -1.7220032467744375e-06 1.7179047182131796e-06 0 -1.4084500999437265e-06 1.4144862859136318e-06 0 -2.1066707862679591e-06 1.3521921731219171e-06 0 -2.9752470023558173e-06 1.1837140960820882e-06 0 -2.1066707862679591e-06 1.3521921731219171e-06 0 -2.0494191487293672e-06 8.4540085161470198e-07 0 -1.3581680348354471e-06 1.0098009421866722e-06 0 -2.0494191487293672e-06 8.4540085161470198e-07 0 -2.1066707862679591e-06 1.3521921731219171e-06 0 -2.0282396888163211e-06 4.4344908815196072e-07 0 -3.4743427848072179e-06 6.4973440146416628e-07 0 -2.0494191487293672e-06 8.4540085161470198e-07 0 -8.7480508149583729e-07 9.6543484260534221e-08 0 -2.0282396888163211e-06 4.4344908815196072e-07 0 -9.5423686120137922e-07 4.8128291180597229e-07 0 -2.0282396888163211e-06 4.4344908815196072e-07 0 -2.0494191487293672e-06 8.4540085161470198e-07 0 -9.5423686120137922e-07 4.8128291180597229e-07 0 -1.3581680348354471e-06 1.0098009421866722e-06 0 -9.5423686120137922e-07 4.8128291180597229e-07 0 -2.0494191487293672e-06 8.4540085161470198e-07 0 -2.8151628016214925e-11 4.241397556728334e-10 0 -2.6527896388634899e-10 3.5009902059086885e-10 0 -1.1492533619152285e-07 8.8241612228500927e-07 0 -2.6527896388634899e-10 3.5009902059086885e-10 0 -2.636389160550179e-07 7.3864370563810226e-07 0 -1.1492533619152285e-07 8.8241612228500927e-07 0 -4.7451075309595206e-07 1.4028406522482069e-06 0 -1.1492533619152285e-07 8.8241612228500927e-07 0 -2.636389160550179e-07 7.3864370563810226e-07 0 -4.091438855733213e-10 4.6760596644077504e-10 0 -7.3583240644388384e-07 1.0716661451378139e-06 0 -2.636389160550179e-07 7.3864370563810226e-07 0 -4.091438855733213e-10 4.6760596644077504e-10 0 -6.2231100946153743e-07 6.4508888183248916e-07 0 -7.3583240644388384e-07 1.0716661451378139e-06 0 -4.7451075309595206e-07 1.4028406522482069e-06 0 -2.636389160550179e-07 7.3864370563810226e-07 0 -7.3583240644388384e-07 1.0716661451378139e-06 0 -2.6527896388634899e-10 3.5009902059086885e-10 0 -4.091438855733213e-10 4.6760596644077504e-10 0 -2.636389160550179e-07 7.3864370563810226e-07 0 -7.3583240644388384e-07 1.0716661451378139e-06 0 -1.4084500999437265e-06 1.4144862859136318e-06 0 -1.0254140173481224e-06 1.5667896653024196e-06 0 -1.7220032467744375e-06 1.7179047182131796e-06 0 -1.0254140173481224e-06 1.5667896653024196e-06 0 -1.4084500999437265e-06 1.4144862859136318e-06 0 -4.7451075309595206e-07 1.4028406522482069e-06 0 -7.3583240644388384e-07 1.0716661451378139e-06 0 -1.0254140173481224e-06 1.5667896653024196e-06 0 -4.7451075309595206e-07 1.4028406522482069e-06 0 -7.2552549512883035e-07 1.8598149240835504e-06 0 -6.0281049494108849e-08 1.5683368494239559e-06 0 -4.7451075309595206e-07 1.4028406522482069e-06 0 -1.0254140173481224e-06 1.5667896653024196e-06 0 -7.2552549512883035e-07 1.8598149240835504e-06 0 -4.7451075309595206e-07 1.4028406522482069e-06 0 -6.0281049494108849e-08 1.5683368494239559e-06 0 -1.1492533619152285e-07 8.8241612228500927e-07 0 1.0404795340734059e-07 9.6476222428491312e-07 0 -1.1492533619152285e-07 8.8241612228500927e-07 0 -6.0281049494108849e-08 1.5683368494239559e-06 0 -7.2552549512883035e-07 1.8598149240835504e-06 0 -1.1868651808334743e-07 1.8829759738105792e-06 0 -6.0281049494108849e-08 1.5683368494239559e-06 0 -2.9870709157277325e-07 1.9613252314538135e-06 0 -1.1868651808334734e-07 1.8829759738105792e-06 0 -7.2552549512883035e-07 1.8598149240835504e-06 0 -2.9870709157277325e-07 1.9613252314538135e-06 0 -7.2552549512883035e-07 1.8598149240835504e-06 0 -1.31059942629375e-06 1.9034789167256373e-06 0 -1.7220032467744375e-06 1.7179047182131796e-06 0 -2.3921839028828332e-06 1.7214479486534499e-06 0 -1.31059942629375e-06 1.9034789167256373e-06 0 -1.7220032467744375e-06 1.7179047182131796e-06 0 -7.2552549512883035e-07 1.8598149240835502e-06 0 -1.0254140173481224e-06 1.5667896653024196e-06 0 -1.7220032467744375e-06 1.7179047182131796e-06 0 -1.31059942629375e-06 1.9034789167256373e-06 0 -7.2552549512883035e-07 1.8598149240835504e-06 0 -1.7220032467744375e-06 1.7179047182131796e-06 0 -2.7096869882932249e-06 1.5181784457027773e-06 0 -2.3921839028828328e-06 1.7214479486534499e-06 0 -1.8003949507239149e-06 1.732495058329046e-06 0 -2.3921839028828328e-06 1.7214479486534499e-06 0 -3.3760186383487828e-06 1.4406505486091088e-06 0 -1.8003949507239149e-06 1.732495058329046e-06 0 -3.3760186383487828e-06 1.4406505486091088e-06 0 -2.8364649480245324e-06 1.286031430708773e-06 0 -1.8003949507239149e-06 1.732495058329046e-06 0 -2.8364649480245324e-06 1.2860314307087727e-06 0 -1.7299585059958874e-06 1.2969190189551402e-06 0 -1.8003949507239149e-06 1.732495058329046e-06 0 -1.31059942629375e-06 1.9034789167256373e-06 0 -2.3921839028828328e-06 1.7214479486534499e-06 0 -2.9870709157277325e-07 1.9613252314538135e-06 0 -1.31059942629375e-06 1.9034789167256373e-06 0 -6.9099908228019033e-07 1.7890725171365009e-06 0 -1.8003949507239149e-06 1.732495058329046e-06 0 -6.9099908228019033e-07 1.7890725171365009e-06 0 -1.31059942629375e-06 1.9034789167256373e-06 0 -1.8003949507239149e-06 1.732495058329046e-06 0 -1.7299585059958874e-06 1.2969190189551402e-06 0 -6.9099908228019033e-07 1.7890725171365009e-06 0 3.2971427573934764e-07 1.5173259464469847e-06 0 4.6879112385278398e-07 1.865532241021656e-06 0 -6.9099908228019033e-07 1.7890725171365009e-06 0 -2.9870709157277325e-07 1.9613252314538135e-06 0 -6.9099908228019033e-07 1.7890725171365009e-06 0 4.6879112385278404e-07 1.8655322410216558e-06 0 -3.4743427848072179e-06 6.4973440146416628e-07 0 -4.2366225199020396e-06 9.865967171066449e-07 0 -2.9752470023558173e-06 1.1837140960820882e-06 0 -3.8487036371873311e-06 1.3531842035509358e-06 0 -2.9752470023558169e-06 1.1837140960820882e-06 0 -4.2366225199020396e-06 9.865967171066449e-07 0 -3.4743427848072179e-06 6.4973440146416628e-07 0 -5.206649670272572e-06 4.9433777559966713e-07 0 -4.2366225199020396e-06 9.865967171066449e-07 0 -3.4743427848072179e-06 6.4973440146416628e-07 0 -2.9752470023558177e-06 1.1837140960820882e-06 0 -2.0494191487293672e-06 8.4540085161470198e-07 0 -2.9752470023558173e-06 1.1837140960820882e-06 0 -2.7096869882932249e-06 1.5181784457027773e-06 0 -2.1066707862679591e-06 1.3521921731219171e-06 0 -1.7220032467744375e-06 1.7179047182131796e-06 0 -2.1066707862679591e-06 1.3521921731219171e-06 0 -2.7096869882932249e-06 1.5181784457027773e-06 0 -3.8487036371873311e-06 1.3531842035509358e-06 0 -2.3921839028828328e-06 1.7214479486534499e-06 0 -2.7096869882932249e-06 1.5181784457027773e-06 0 -3.8487036371873311e-06 1.3531842035509358e-06 0 -2.7096869882932249e-06 1.5181784457027773e-06 0 -2.9752470023558173e-06 1.1837140960820882e-06 0 -3.8487036371873311e-06 1.3531842035509358e-06 0 -3.3760186383487828e-06 1.4406505486091088e-06 0 -2.3921839028828328e-06 1.7214479486534499e-06 0 -3.8487036371873311e-06 1.3531842035509358e-06 0 -4.7934562919497144e-06 1.0323360475576203e-06 0 -3.3760186383487828e-06 1.4406505486091088e-06 0 -4.5812224859375863e-06 7.9221903193106011e-07 0 -3.3760186383487828e-06 1.4406505486091088e-06 0 -4.7934562919497152e-06 1.0323360475576203e-06 0 -3.8487036371873311e-06 1.3531842035509358e-06 0 -5.4024409893095868e-06 7.9538251360969911e-07 0 -4.7934562919497152e-06 1.0323360475576203e-06 0 -6.6105199790672572e-06 2.7733169853427908e-07 0 -4.7934562919497152e-06 1.0323360475576203e-06 0 -5.4024409893095868e-06 7.9538251360969911e-07 0 -3.8487036371873311e-06 1.3531842035509358e-06 0 -4.2366225199020396e-06 9.865967171066449e-07 0 -5.4024409893095868e-06 7.9538251360969911e-07 0 -5.206649670272572e-06 4.9433777559966713e-07 0 -5.4024409893095868e-06 7.9538251360969911e-07 0 -4.2366225199020396e-06 9.865967171066449e-07 0 -5.206649670272572e-06 4.9433777559966713e-07 0 -7.2013930483107836e-06 -5.7418729725836809e-08 0 -5.4024409893095868e-06 7.9538251360969911e-07 0 -7.2013930483107836e-06 -5.7418729725836782e-08 0 -9.3501063215901075e-06 -1.0822117842289483e-06 0 -6.6105199790672572e-06 2.7733169853427908e-07 0 -7.2013930483107836e-06 -5.7418729725836782e-08 0 -6.6105199790672572e-06 2.7733169853427908e-07 0 -5.4024409893095868e-06 7.9538251360969911e-07 0 -9.3501063215901075e-06 -1.0822117842289483e-06 0 -8.9016157733892201e-06 -1.0893109851997901e-06 0 -6.6105199790672572e-06 2.7733169853427908e-07 0 -9.3501063215901075e-06 -1.0822117842289483e-06 0 -1.1870571758723305e-05 -2.6880911046617933e-06 0 -8.9016157733892201e-06 -1.0893109851997901e-06 0 -7.9904400104888632e-06 -1.5646693773811068e-06 0 -8.9016157733892201e-06 -1.0893109851997901e-06 0 -1.0848028387066301e-05 -2.5585732966426774e-06 0 -7.9904400104888632e-06 -1.5646693773811068e-06 0 -1.0848028387066301e-05 -2.5585732966426774e-06 0 -1.1092380109126976e-05 -3.870214745715018e-06 0 -1.1870571758723305e-05 -2.6880911046617933e-06 0 -1.0848028387066301e-05 -2.5585732966426774e-06 0 -8.9016157733892201e-06 -1.0893109851997901e-06 0 -1.1870571758723305e-05 -2.6880911046617933e-06 0 -1.4703656061852036e-05 -4.9680457622041353e-06 0 -1.0848028387066301e-05 -2.5585732966426774e-06 0 -7.9904400104888632e-06 -1.5646693773811068e-06 0 -7.6359510908286731e-06 -3.3125452108950834e-06 0 -5.18693636101353e-06 -1.4537034739181466e-06 0 -7.9904400104888632e-06 -1.5646693773811068e-06 0 -5.18693636101353e-06 -1.4537034739181466e-06 0 -5.3589494515756364e-06 -2.4266080856800727e-07 0 -7.9904400104888632e-06 -1.5646693773811068e-06 0 -6.6947079020915512e-06 -2.3324922457281124e-07 0 -8.9016157733892201e-06 -1.0893109851997901e-06 0 -7.9904400104888632e-06 -1.5646693773811068e-06 0 -5.3589494515756364e-06 -2.4266080856800727e-07 0 -6.6947079020915512e-06 -2.3324922457281124e-07 0 -4.5812224859375863e-06 7.9221903193106011e-07 0 -6.6947079020915521e-06 -2.3324922457281126e-07 0 -5.3589494515756364e-06 -2.4266080856800727e-07 0 -6.6105199790672572e-06 2.7733169853427908e-07 0 -8.9016157733892201e-06 -1.0893109851997901e-06 0 -6.6947079020915512e-06 -2.3324922457281124e-07 0 -6.6947079020915512e-06 -2.3324922457281124e-07 0 -4.5812224859375863e-06 7.9221903193106011e-07 0 -6.6105199790672572e-06 2.7733169853427908e-07 0 -6.6105199790672572e-06 2.7733169853427908e-07 0 -4.5812224859375863e-06 7.9221903193106011e-07 0 -4.7934562919497152e-06 1.0323360475576203e-06 0 -4.5812224859375863e-06 7.9221903193106011e-07 0 -2.8364649480245324e-06 1.286031430708773e-06 0 -3.3760186383487828e-06 1.4406505486091088e-06 0 -4.5812224859375863e-06 7.9221903193106011e-07 0 -3.2907632956536772e-06 6.6015319875971867e-07 0 -2.8364649480245324e-06 1.286031430708773e-06 0 -1.7299585059958874e-06 1.2969190189551402e-06 0 -2.836464948024532e-06 1.286031430708773e-06 0 -3.2907632956536772e-06 6.6015319875971867e-07 0 -3.5666309828420535e-06 -2.5737649434174929e-07 0 -1.8187557058540284e-06 3.7986584923328352e-07 0 -3.2907632956536772e-06 6.6015319875971867e-07 0 -1.7299585059958874e-06 1.2969190189551402e-06 0 -3.2907632956536772e-06 6.6015319875971867e-07 0 -1.8187557058540284e-06 3.7986584923328352e-07 0 -4.5812224859375863e-06 7.9221903193106011e-07 0 -5.3589494515756364e-06 -2.4266080856800727e-07 0 -3.2907632956536772e-06 6.6015319875971867e-07 0 -5.1519846567052769e-07 1.1179657597025206e-06 0 3.2971427573934764e-07 1.5173259464469847e-06 0 -6.9099908228019033e-07 1.7890725171365009e-06 0 -1.7299585059958874e-06 1.2969190189551402e-06 0 -5.1519846567052769e-07 1.1179657597025206e-06 0 -6.9099908228019033e-07 1.7890725171365009e-06 0 -1.7299585059958874e-06 1.2969190189551402e-06 0 -1.8187557058540282e-06 3.7986584923328352e-07 0 -5.1519846567052769e-07 1.1179657597025206e-06 0 -1.4317729559353504e-07 -1.6448971574712682e-07 0 8.8911975040474332e-07 9.4874132456389556e-07 0 -5.1519846567052769e-07 1.1179657597025206e-06 0 -1.4317729559353504e-07 -1.6448971574712682e-07 0 -5.151984656705279e-07 1.1179657597025204e-06 0 -1.8187557058540284e-06 3.7986584923328352e-07 0 -1.4317729559353504e-07 -1.6448971574712682e-07 0 -1.8187557058540284e-06 3.7986584923328352e-07 0 -2.5438721799327348e-06 -9.7139264797849102e-07 0 -1.4317729559353504e-07 -1.6448971574712682e-07 0 -2.5438721799327348e-06 -9.7139264797849102e-07 0 -9.4562565472128147e-07 -2.0261757528076581e-06 0 -1.4317729559353504e-07 -1.6448971574712682e-07 0 -9.4562565472128147e-07 -2.0261757528076581e-06 0 1.3946366155812909e-06 -1.4517781693453422e-06 0 -3.5666309828420535e-06 -2.5737649434174929e-07 0 -3.2907632956536772e-06 6.6015319875971867e-07 0 -5.3589494515756364e-06 -2.4266080856800727e-07 0 -3.5666309828420535e-06 -2.5737649434174929e-07 0 -5.3589494515756355e-06 -2.4266080856800716e-07 0 -5.18693636101353e-06 -1.4537034739181466e-06 0 -3.5666309828420535e-06 -2.5737649434174929e-07 0 -2.5438721799327348e-06 -9.7139264797849102e-07 0 -1.8187557058540284e-06 3.7986584923328352e-07 0 -4.0816636690412061e-06 -2.7985504081524899e-06 0 -2.5438721799327348e-06 -9.7139264797849102e-07 0 -5.18693636101353e-06 -1.4537034739181466e-06 0 -3.5666309828420535e-06 -2.5737649434174929e-07 0 -5.18693636101353e-06 -1.4537034739181466e-06 0 -2.5438721799327348e-06 -9.7139264797849102e-07 0 -4.0816636690412061e-06 -2.7985504081524899e-06 0 -5.18693636101353e-06 -1.4537034739181466e-06 0 -7.6359510908286731e-06 -3.3125452108950834e-06 0 -4.0816636690412061e-06 -2.7985504081524899e-06 0 -6.4895155590893972e-06 -5.6368597060488716e-06 0 -2.1191444092698565e-06 -4.1774060520249726e-06 0 -4.0816636690412061e-06 -2.7985504081524899e-06 0 -7.6359510908286731e-06 -3.3125452108950834e-06 0 -6.4895155590893972e-06 -5.6368597060488716e-06 0 9.1391473796891764e-07 -3.4651432187842233e-06 0 1.3946366155812909e-06 -1.4517781693453422e-06 0 -9.4562565472128147e-07 -2.0261757528076581e-06 0 -4.0816636690412061e-06 -2.7985504081524899e-06 0 -9.4562565472128158e-07 -2.0261757528076577e-06 0 -2.5438721799327348e-06 -9.7139264797849102e-07 0 -4.0816636690412061e-06 -2.7985504081524899e-06 0 -2.1191444092698565e-06 -4.1774060520249726e-06 0 -9.4562565472128147e-07 -2.0261757528076581e-06 0 9.1391473796891764e-07 -3.4651432187842233e-06 0 -9.4562565472128147e-07 -2.0261757528076581e-06 0 -2.1191444092698565e-06 -4.1774060520249726e-06 0 9.1391473796891764e-07 -3.4651432187842233e-06 0 -2.1191444092698565e-06 -4.1774060520249726e-06 0 -1.6521090447571854e-07 -6.0942787301793702e-06 0 -3.296441670226758e-06 -7.3788536586006641e-06 0 -1.6521090447571846e-07 -6.0942787301793694e-06 0 -2.1191444092698565e-06 -4.1774060520249726e-06 0 -3.296441670226758e-06 -7.3788536586006641e-06 0 -5.2750695607052416e-06 -1.1701011937975834e-05 0 -1.8274268654149809e-06 -1.0153759258959616e-05 0 -3.296441670226758e-06 -7.3788536586006641e-06 0 -1.8274268654149809e-06 -1.0153759258959616e-05 0 -1.6521090447571854e-07 -6.0942787301793702e-06 0 1.565766986765088e-06 -8.3480015519486013e-06 0 -1.6521090447571854e-07 -6.0942787301793702e-06 0 -1.8274268654149809e-06 -1.0153759258959616e-05 0 -3.296441670226758e-06 -7.3788536586006641e-06 0 -6.4895155590893972e-06 -5.6368597060488716e-06 0 -7.178765454460337e-06 -8.9343571083980346e-06 0 -3.296441670226758e-06 -7.3788536586006641e-06 0 -2.1191444092698565e-06 -4.1774060520249726e-06 0 -6.4895155590893972e-06 -5.6368597060488716e-06 0 -3.296441670226758e-06 -7.3788536586006641e-06 0 -7.178765454460337e-06 -8.9343571083980346e-06 0 -5.2750695607052416e-06 -1.1701011937975834e-05 0 -6.4895155590893972e-06 -5.6368597060488716e-06 0 -1.1208846135069518e-05 -8.9949903301764062e-06 0 -7.178765454460337e-06 -8.9343571083980346e-06 0 -9.6501369284012593e-06 -1.1639347724603875e-05 0 -7.178765454460337e-06 -8.9343571083980346e-06 0 -1.1208846135069518e-05 -8.9949903301764062e-06 0 -1.0955896686188089e-05 -5.9883294363033966e-06 0 -1.1208846135069518e-05 -8.9949903301764062e-06 0 -6.4895155590893972e-06 -5.6368597060488716e-06 0 -1.0955896686188089e-05 -5.9883294363033966e-06 0 -1.5186390199062223e-05 -9.0146383340797426e-06 0 -1.1208846135069518e-05 -8.9949903301764062e-06 0 -1.6065710059129749e-05 -1.3817009219351235e-05 0 -1.1208846135069518e-05 -8.9949903301764062e-06 0 -1.5186390199062223e-05 -9.0146383340797426e-06 0 -2.0865533879551022e-05 -1.2506401542498626e-05 0 -1.6065710059129749e-05 -1.3817009219351235e-05 0 -1.5186390199062223e-05 -9.0146383340797426e-06 0 -1.77368455259529e-05 -8.2381533556080702e-06 0 -2.0865533879551022e-05 -1.2506401542498626e-05 0 -1.5186390199062223e-05 -9.0146383340797426e-06 0 -1.77368455259529e-05 -8.2381533556080702e-06 0 -1.5186390199062223e-05 -9.0146383340797426e-06 0 -1.3951723593892176e-05 -6.2979505078406317e-06 0 -1.0955896686188089e-05 -5.9883294363033966e-06 0 -1.3951723593892176e-05 -6.2979505078406326e-06 0 -1.5186390199062223e-05 -9.0146383340797426e-06 0 -1.4703656061852036e-05 -4.9680457622041353e-06 0 -1.3951723593892176e-05 -6.2979505078406317e-06 0 -1.1092380109126976e-05 -3.870214745715018e-06 0 -1.0955896686188089e-05 -5.9883294363033966e-06 0 -1.1092380109126976e-05 -3.870214745715018e-06 0 -1.3951723593892176e-05 -6.2979505078406317e-06 0 -1.4703656061852036e-05 -4.9680457622041353e-06 0 -1.77368455259529e-05 -8.2381533556080702e-06 0 -1.3951723593892176e-05 -6.2979505078406317e-06 0 -1.4703656061852036e-05 -4.9680457622041353e-06 0 -1.1092380109126976e-05 -3.8702147457150172e-06 0 -1.0848028387066301e-05 -2.5585732966426774e-06 0 -7.9904400104888632e-06 -1.5646693773811068e-06 0 -1.1092380109126976e-05 -3.870214745715018e-06 0 -7.6359510908286731e-06 -3.3125452108950834e-06 0 -1.0955896686188089e-05 -5.9883294363033966e-06 0 -6.4895155590893964e-06 -5.6368597060488708e-06 0 -7.6359510908286731e-06 -3.3125452108950834e-06 0 -1.0955896686188089e-05 -5.9883294363033966e-06 0 -7.6359510908286731e-06 -3.3125452108950834e-06 0 -1.1092380109126976e-05 -3.870214745715018e-06 0 5.7679848529631359e-06 -8.4135910274338225e-07 0 5.3218195612710884e-06 -1.5304802188702879e-07 0 4.7716607098081347e-06 -1.5411184160242834e-06 0 4.4387348425462426e-06 -6.184586094506718e-07 0 4.7716607098081347e-06 -1.5411184160242834e-06 0 5.3218195612710884e-06 -1.5304802188702879e-07 0 4.4387348425462426e-06 -6.184586094506718e-07 0 3.7359075878877339e-06 -1.6839050272087244e-06 0 4.7716607098081347e-06 -1.5411184160242834e-06 0 5.7679848529631359e-06 -8.4135910274338225e-07 0 6.4762311657120517e-06 6.1488266449151335e-07 0 5.3218195612710884e-06 -1.5304802188702879e-07 0 7.648487375966181e-06 1.6058172779113999e-06 0 6.4762311657120517e-06 6.1488266449151346e-07 0 7.3411824012314197e-06 4.9179740902733229e-07 0 5.7679848529631359e-06 -8.4135910274338225e-07 0 7.3411824012314197e-06 4.9179740902733229e-07 0 6.4762311657120517e-06 6.1488266449151346e-07 0 5.7679848529631359e-06 -8.4135910274338225e-07 0 6.4834116996487237e-06 -9.7848515424137746e-07 0 7.3411824012314197e-06 4.9179740902733229e-07 0 5.7679848529631359e-06 -8.4135910274338225e-07 0 5.6431158238818643e-06 -2.4274273081605235e-06 0 6.4834116996487237e-06 -9.7848515424137725e-07 0 7.198614902062052e-06 -1.3038177722107494e-06 0 7.3411824012314197e-06 4.9179740902733229e-07 0 6.4834116996487237e-06 -9.7848515424137725e-07 0 7.198614902062052e-06 -1.3038177722107494e-06 0 6.4834116996487237e-06 -9.7848515424137704e-07 0 5.6431158238818643e-06 -2.4274273081605235e-06 0 4.2480106789971778e-06 -4.5119690705562016e-06 0 5.6431158238818643e-06 -2.4274273081605235e-06 0 4.6736339707248067e-06 -2.8250633778212809e-06 0 5.7679848529631359e-06 -8.4135910274338225e-07 0 4.6736339707248067e-06 -2.8250633778212805e-06 0 5.6431158238818643e-06 -2.4274273081605235e-06 0 5.7679848529631359e-06 -8.4135910274338225e-07 0 4.7716607098081347e-06 -1.5411184160242834e-06 0 4.6736339707248067e-06 -2.8250633778212809e-06 0 4.0751346753627993e-06 -2.9892748354045825e-06 0 4.6736339707248067e-06 -2.8250633778212805e-06 0 4.7716607098081347e-06 -1.5411184160242834e-06 0 4.2480106789971778e-06 -4.5119690705562016e-06 0 4.6736339707248067e-06 -2.8250633778212809e-06 0 3.628572651729208e-06 -4.7383642642469408e-06 0 4.2652611937104529e-06 -7.1116583325803532e-06 0 3.628572651729208e-06 -4.7383642642469408e-06 0 3.8091912022756884e-06 -4.7126918961506084e-06 0 4.0751346753627993e-06 -2.9892748354045825e-06 0 3.8091912022756884e-06 -4.7126918961506084e-06 0 3.628572651729208e-06 -4.7383642642469408e-06 0 4.0751346753627993e-06 -2.9892748354045825e-06 0 3.1064483726711963e-06 -2.8405201037481778e-06 0 3.8091912022756884e-06 -4.7126918961506084e-06 0 4.0751346753627993e-06 -2.9892748354045825e-06 0 3.628572651729208e-06 -4.7383642642469408e-06 0 4.6736339707248067e-06 -2.8250633778212809e-06 0 4.2652611937104529e-06 -7.1116583325803532e-06 0 2.6789030710886862e-06 -5.1884004271094554e-06 0 1.565766986765088e-06 -8.3480015519486013e-06 0 1.565766986765088e-06 -8.3480015519486013e-06 0 2.6789030710886862e-06 -5.1884004271094554e-06 0 -1.6521090447571854e-07 -6.0942787301793702e-06 0 4.2652611937104529e-06 -7.1116583325803532e-06 0 3.8091912022756884e-06 -4.7126918961506084e-06 0 2.6789030710886862e-06 -5.1884004271094554e-06 0 3.1064483726711963e-06 -2.8405201037481778e-06 0 2.6789030710886862e-06 -5.1884004271094554e-06 0 3.8091912022756884e-06 -4.7126918961506084e-06 0 9.1391473796891764e-07 -3.4651432187842233e-06 0 -1.6521090447571854e-07 -6.0942787301793702e-06 0 2.6789030710886862e-06 -5.1884004271094554e-06 0 9.1391473796891764e-07 -3.4651432187842233e-06 0 2.6789030710886857e-06 -5.1884004271094554e-06 0 3.1064483726711963e-06 -2.8405201037481778e-06 0 9.1391473796891764e-07 -3.4651432187842233e-06 0 3.1064483726711963e-06 -2.8405201037481778e-06 0 1.3946366155812909e-06 -1.4517781693453422e-06 0 2.8101126526467801e-06 -8.2817692700488793e-07 0 1.3946366155812909e-06 -1.4517781693453422e-06 0 3.1064483726711963e-06 -2.8405201037481778e-06 0 4.0751346753627993e-06 -2.9892748354045825e-06 0 4.7716607098081347e-06 -1.5411184160242834e-06 0 3.7359075878877339e-06 -1.6839050272087244e-06 0 4.0751346753627993e-06 -2.9892748354045825e-06 0 3.7359075878877339e-06 -1.6839050272087244e-06 0 3.1064483726711963e-06 -2.8405201037481778e-06 0 2.8101126526467801e-06 -8.2817692700488793e-07 0 3.1064483726711963e-06 -2.8405201037481778e-06 0 3.7359075878877339e-06 -1.6839050272087244e-06 0 3.7359075878877339e-06 -1.6839050272087244e-06 0 3.6798147531336956e-06 3.9304613712725146e-07 0 2.8101126526467801e-06 -8.2817692700488793e-07 0 4.4387348425462426e-06 -6.184586094506718e-07 0 3.6798147531336956e-06 3.9304613712725146e-07 0 3.7359075878877339e-06 -1.6839050272087244e-06 0 2.8101126526467801e-06 -8.2817692700488793e-07 0 3.6798147531336956e-06 3.9304613712725167e-07 0 2.7144427777715927e-06 2.801673339050075e-07 0 3.6798147531336956e-06 3.9304613712725146e-07 0 2.9909418085532502e-06 9.2920335089475405e-07 0 2.7144427777715927e-06 2.801673339050075e-07 0 -1.4317729559353504e-07 -1.6448971574712682e-07 0 1.3946366155812909e-06 -1.4517781693453422e-06 0 1.6971098594911805e-06 1.2270135280419591e-08 0 2.8101126526467801e-06 -8.2817692700488793e-07 0 1.6971098594911807e-06 1.2270135280419628e-08 0 1.3946366155812909e-06 -1.4517781693453422e-06 0 2.8101126526467801e-06 -8.2817692700488793e-07 0 2.7144427777715922e-06 2.8016733390500755e-07 0 1.6971098594911805e-06 1.2270135280419591e-08 0 2.0930468304792758e-06 9.3164098705800887e-07 0 1.6971098594911805e-06 1.2270135280419591e-08 0 2.7144427777715927e-06 2.801673339050075e-07 0 -1.4317729559353504e-07 -1.6448971574712682e-07 0 1.6971098594911805e-06 1.2270135280419717e-08 0 8.8911975040474332e-07 9.4874132456389556e-07 0 2.0930468304792758e-06 9.3164098705800887e-07 0 8.8911975040474332e-07 9.4874132456389545e-07 0 1.6971098594911805e-06 1.2270135280419591e-08 0 2.0930468304792758e-06 9.3164098705800887e-07 0 1.3889329539414665e-06 1.6071901729397322e-06 0 8.8911975040474332e-07 9.4874132456389556e-07 0 3.2971427573934764e-07 1.5173259464469847e-06 0 8.8911975040474332e-07 9.4874132456389556e-07 0 1.3889329539414665e-06 1.6071901729397322e-06 0 3.2971427573934764e-07 1.5173259464469847e-06 0 -5.1519846567052769e-07 1.1179657597025206e-06 0 8.8911975040474332e-07 9.4874132456389556e-07 0 3.5754196089105004e-06 1.2775401483027493e-06 0 2.9909418085532502e-06 9.2920335089475405e-07 0 3.6798147531336956e-06 3.9304613712725146e-07 0 2.0930468304792758e-06 9.3164098705800887e-07 0 2.7144427777715927e-06 2.801673339050075e-07 0 2.9909418085532502e-06 9.2920335089475405e-07 0 2.0930468304792758e-06 9.3164098705800887e-07 0 2.9909418085532502e-06 9.2920335089475405e-07 0 2.5205145311281338e-06 1.4149264321719667e-06 0 2.0930468304792758e-06 9.3164098705800887e-07 0 2.5205145311281338e-06 1.4149264321719667e-06 0 1.3889329539414665e-06 1.6071901729397322e-06 0 3.5754196089105004e-06 1.2775401483027493e-06 0 2.5205145311281338e-06 1.4149264321719667e-06 0 2.9909418085532502e-06 9.2920335089475405e-07 0 3.5754196089105004e-06 1.2775401483027493e-06 0 2.5890258967581191e-06 1.6570115599347126e-06 0 2.5205145311281338e-06 1.4149264321719667e-06 0 3.5754196089105004e-06 1.2775401483027493e-06 0 4.7060099270752568e-06 1.2885555156295523e-06 0 3.5981611674510361e-06 1.5034605935346836e-06 0 4.7060099270752568e-06 1.2885555156295523e-06 0 4.7382023220294602e-06 1.4271174250104548e-06 0 3.5981611674510361e-06 1.5034605935346836e-06 0 3.5754196089105004e-06 1.2775401483027493e-06 0 4.4437403359362109e-06 8.6791331792422762e-07 0 4.7060099270752568e-06 1.2885555156295523e-06 0 3.5754196089105004e-06 1.2775401483027493e-06 0 3.6798147531336956e-06 3.9304613712725146e-07 0 4.4437403359362109e-06 8.6791331792422762e-07 0 3.6798147531336956e-06 3.9304613712725146e-07 0 4.714109338549118e-06 2.8974604064775055e-07 0 4.4437403359362109e-06 8.6791331792422762e-07 0 5.540060118320547e-06 8.9417081703059151e-07 0 4.4437403359362109e-06 8.6791331792422762e-07 0 4.714109338549118e-06 2.8974604064775055e-07 0 5.540060118320547e-06 8.9417081703059151e-07 0 4.7060099270752568e-06 1.2885555156295523e-06 0 4.4437403359362109e-06 8.6791331792422762e-07 0 5.540060118320547e-06 8.9417081703059151e-07 0 4.714109338549118e-06 2.8974604064775055e-07 0 5.3218195612710884e-06 -1.5304802188702879e-07 0 4.4387348425462426e-06 -6.184586094506718e-07 0 5.3218195612710884e-06 -1.530480218870289e-07 0 4.714109338549118e-06 2.8974604064775055e-07 0 4.4387348425462426e-06 -6.184586094506718e-07 0 4.714109338549118e-06 2.8974604064775049e-07 0 3.6798147531336956e-06 3.9304613712725146e-07 0 7.648487375966181e-06 1.6058172779113999e-06 0 6.577423667119581e-06 1.3195019384251145e-06 0 6.4762311657120517e-06 6.1488266449151346e-07 0 5.540060118320547e-06 8.9417081703059151e-07 0 6.4762311657120517e-06 6.1488266449151346e-07 0 6.577423667119581e-06 1.3195019384251145e-06 0 5.540060118320547e-06 8.9417081703059151e-07 0 5.3218195612710884e-06 -1.5304802188702879e-07 0 6.4762311657120517e-06 6.1488266449151346e-07 0 5.540060118320547e-06 8.9417081703059151e-07 0 5.8339176781999685e-06 1.3957892054614226e-06 0 4.7060099270752568e-06 1.2885555156295523e-06 0 6.577423667119581e-06 1.3195019384251145e-06 0 7.2496451816779985e-06 1.7843491474398298e-06 0 5.8339176781999685e-06 1.3957892054614226e-06 0 5.540060118320547e-06 8.9417081703059151e-07 0 6.577423667119581e-06 1.3195019384251145e-06 0 5.8339176781999685e-06 1.3957892054614226e-06 0 5.9637793022366043e-06 1.4659943174007468e-06 0 4.7382023220294602e-06 1.4271174250104548e-06 0 5.8339176781999685e-06 1.3957892054614226e-06 0 4.7060099270752568e-06 1.2885555156295523e-06 0 5.8339176781999685e-06 1.3957892054614226e-06 0 4.7382023220294602e-06 1.4271174250104548e-06 0 5.9637793022366043e-06 1.4659943174007468e-06 0 4.8669127925777872e-06 1.3158782428512264e-06 0 4.7382023220294602e-06 1.4271174250104548e-06 0 3.8845825330893917e-06 1.4335784167591045e-06 0 4.8669127925777872e-06 1.3158782428512264e-06 0 3.7431686114431809e-06 1.2154370240828461e-06 0 3.8845825330893917e-06 1.4335784167591045e-06 0 3.7431686114431809e-06 1.2154370240828461e-06 0 3.033406176242171e-06 1.4938797161908917e-06 0 3.8845825330893917e-06 1.4335784167591045e-06 0 3.5981611674510361e-06 1.5034605935346836e-06 0 4.7382023220294602e-06 1.4271174250104548e-06 0 3.8845825330893917e-06 1.4335784167591045e-06 0 4.7382023220294602e-06 1.4271174250104548e-06 0 4.8669127925777872e-06 1.3158782428512264e-06 0 3.5754196089105004e-06 1.2775401483027493e-06 0 3.5981611674510361e-06 1.5034605935346836e-06 0 2.5890258967581195e-06 1.6570115599347126e-06 0 2.1056488378077304e-06 1.6122001297663824e-06 0 2.5890258967581195e-06 1.6570115599347126e-06 0 3.033406176242171e-06 1.4938797161908917e-06 0 2.5890258967581195e-06 1.6570115599347126e-06 0 3.5981611674510361e-06 1.5034605935346836e-06 0 3.033406176242171e-06 1.4938797161908917e-06 0 3.8845825330893917e-06 1.4335784167591045e-06 0 3.033406176242171e-06 1.4938797161908917e-06 0 3.5981611674510361e-06 1.5034605935346836e-06 0 2.7940058147106272e-06 1.195107279913505e-06 0 2.0926289852345431e-06 1.3202645318196595e-06 0 3.033406176242171e-06 1.4938797161908917e-06 0 2.1056488378077304e-06 1.6122001297663824e-06 0 3.033406176242171e-06 1.4938797161908917e-06 0 2.0926289852345431e-06 1.3202645318196595e-06 0 2.1056488378077304e-06 1.6122001297663824e-06 0 2.0926289852345431e-06 1.3202645318196595e-06 0 1.3807306484458538e-06 1.3556195965218931e-06 0 2.7940058147106272e-06 1.195107279913505e-06 0 1.9274535069663209e-06 9.391697903530402e-07 0 2.0926289852345431e-06 1.3202645318196595e-06 0 2.3473401659252127e-06 6.6648773444855802e-07 0 1.9274535069663209e-06 9.391697903530402e-07 0 2.7940058147106272e-06 1.195107279913505e-06 0 2.3473401659252127e-06 6.6648773444855802e-07 0 2.7940058147106272e-06 1.195107279913505e-06 0 3.350147966477345e-06 8.791216446297415e-07 0 2.7940058147106272e-06 1.195107279913505e-06 0 3.7431686114431809e-06 1.2154370240828461e-06 0 3.350147966477345e-06 8.791216446297415e-07 0 2.7940058147106272e-06 1.195107279913505e-06 0 3.033406176242171e-06 1.4938797161908917e-06 0 3.7431686114431809e-06 1.2154370240828461e-06 0 3.2971427573934764e-07 1.5173259464469847e-06 0 1.3889329539414665e-06 1.6071901729397322e-06 0 4.6879112385278404e-07 1.8655322410216558e-06 0 1.3374829016451069e-06 1.8480500054553039e-06 0 4.6879112385278404e-07 1.8655322410216558e-06 0 1.3889329539414665e-06 1.6071901729397322e-06 0 1.3374829016451069e-06 1.8480500054553039e-06 0 5.5976243313741555e-07 1.9249539668776158e-06 0 4.6879112385278404e-07 1.8655322410216558e-06 0 1.3374829016451069e-06 1.8480500054553039e-06 0 1.9844124766986073e-06 1.6852989165273694e-06 0 1.8601006263254353e-06 1.7532653803228487e-06 0 1.3374829016451069e-06 1.8480500054553039e-06 0 1.3889329539414665e-06 1.6071901729397322e-06 0 1.9844124766986073e-06 1.6852989165273694e-06 0 1.3889329539414665e-06 1.6071901729397322e-06 0 2.5205145311281338e-06 1.4149264321719667e-06 0 1.9844124766986073e-06 1.6852989165273694e-06 0 2.5890258967581195e-06 1.6570115599347126e-06 0 1.9844124766986073e-06 1.6852989165273694e-06 0 2.5205145311281338e-06 1.4149264321719667e-06 0 2.5890258967581195e-06 1.6570115599347126e-06 0 1.8601006263254353e-06 1.7532653803228487e-06 0 1.9844124766986073e-06 1.6852989165273694e-06 0 2.1056488378077304e-06 1.6122001297663824e-06 0 1.8601006263254355e-06 1.7532653803228487e-06 0 2.5890258967581195e-06 1.6570115599347126e-06 0 2.1056488378077304e-06 1.6122001297663824e-06 0 1.1737143535048521e-06 1.7492776782761444e-06 0 1.8601006263254353e-06 1.7532653803228487e-06 0 2.1056488378077304e-06 1.6122001297663824e-06 0 1.3807306484458538e-06 1.3556195965218931e-06 0 1.1737143535048521e-06 1.7492776782761444e-06 0 1.3374829016451069e-06 1.8480500054553039e-06 0 1.8601006263254353e-06 1.7532653803228487e-06 0 1.1737143535048521e-06 1.7492776782761444e-06 0 1.3374829016451069e-06 1.8480500054553039e-06 0 1.1737143535048521e-06 1.7492776782761444e-06 0 5.5976243313741555e-07 1.9249539668776158e-06 0 2.6084174081267513e-07 1.771913108697066e-06 0 5.5976243313741555e-07 1.9249539668776158e-06 0 1.1737143535048521e-06 1.7492776782761444e-06 0 2.6084174081267513e-07 1.771913108697066e-06 0 -1.1868651808334743e-07 1.8829759738105792e-06 0 5.5976243313741555e-07 1.9249539668776158e-06 0 -2.9870709157277325e-07 1.9613252314538135e-06 0 4.6879112385278404e-07 1.8655322410216558e-06 0 5.5976243313741555e-07 1.9249539668776158e-06 0 -2.9870709157277325e-07 1.9613252314538135e-06 0 5.5976243313741555e-07 1.9249539668776158e-06 0 -1.1868651808334743e-07 1.8829759738105792e-06 0 1.0404795340734059e-07 9.6476222428491312e-07 0 -6.0281049494108849e-08 1.5683368494239559e-06 0 4.9176433148991051e-07 1.4811646019862105e-06 0 2.6084174081267513e-07 1.771913108697066e-06 0 -6.0281049494108849e-08 1.5683368494239559e-06 0 -1.1868651808334743e-07 1.8829759738105792e-06 0 2.6084174081267513e-07 1.771913108697066e-06 0 4.9176433148991051e-07 1.4811646019862105e-06 0 -6.0281049494108849e-08 1.5683368494239559e-06 0 2.6084174081267513e-07 1.771913108697066e-06 0 1.1737143535048521e-06 1.7492776782761444e-06 0 4.9176433148991051e-07 1.4811646019862105e-06 0 1.0404795340734059e-07 9.6476222428491312e-07 0 4.9176433148991051e-07 1.4811646019862105e-06 0 3.0924675863606773e-07 8.353097645500431e-07 0 7.882641438590608e-07 1.2916448248443794e-06 0 3.0924675863606773e-07 8.353097645500431e-07 0 4.9176433148991051e-07 1.4811646019862105e-06 0 7.882641438590608e-07 1.2916448248443794e-06 0 4.9176433148991051e-07 1.4811646019862103e-06 0 1.1737143535048521e-06 1.7492776782761444e-06 0 7.882641438590608e-07 1.2916448248443794e-06 0 1.1737143535048521e-06 1.7492776782761444e-06 0 1.3807306484458538e-06 1.3556195965218931e-06 0 7.882641438590608e-07 1.2916448248443794e-06 0 1.3807306484458538e-06 1.3556195965218931e-06 0 5.4672346982038254e-07 7.8393574464154697e-07 0 7.882641438590608e-07 1.2916448248443794e-06 0 5.4672346982038254e-07 7.8393574464154687e-07 0 3.0924675863606773e-07 8.353097645500431e-07 0 3.5933225204146555e-10 3.7673189172603704e-10 0 3.0924675863606773e-07 8.353097645500431e-07 0 5.4672346982038254e-07 7.8393574464154697e-07 0 3.5933225204146555e-10 3.7673189172603704e-10 0 2.0574603413736837e-10 3.7466561192607992e-10 0 3.0924675863606773e-07 8.353097645500431e-07 0 2.0574603413736837e-10 3.7466561192607992e-10 0 1.0404795340734059e-07 9.6476222428491312e-07 0 3.0924675863606773e-07 8.353097645500431e-07 0 2.0574603413736837e-10 3.7466561192607992e-10 0 -2.8151628016214925e-11 4.241397556728334e-10 0 1.0404795340734059e-07 9.6476222428491312e-07 0 -2.8151628016214925e-11 4.241397556728334e-10 0 -1.1492533619152285e-07 8.8241612228500927e-07 0 1.0404795340734059e-07 9.6476222428491312e-07 0 1.1527404470912395e-06 8.6682224420715029e-07 0 1.9274535069663209e-06 9.3916979035304009e-07 0 1.1903420396804021e-06 4.9860473582314006e-07 0 2.3473401659252127e-06 6.6648773444855802e-07 0 1.1903420396804021e-06 4.9860473582314006e-07 0 1.9274535069663209e-06 9.391697903530402e-07 0 1.9274535069663209e-06 9.391697903530402e-07 0 1.1527404470912395e-06 8.6682224420715029e-07 0 2.0926289852345431e-06 1.3202645318196595e-06 0 1.1527404470912395e-06 8.6682224420715029e-07 0 1.3807306484458538e-06 1.3556195965218931e-06 0 2.0926289852345431e-06 1.3202645318196595e-06 0 1.1527404470912395e-06 8.6682224420715029e-07 0 5.4672346982038254e-07 7.8393574464154697e-07 0 1.3807306484458538e-06 1.3556195965218931e-06 0 1.1527404470912395e-06 8.6682224420715029e-07 0 4.727637967972423e-07 4.7735958139187238e-07 0 5.4672346982038254e-07 7.8393574464154697e-07 0 5.8192657070994503e-10 2.5065384582491049e-10 0 3.5933225204146555e-10 3.7673189172603704e-10 0 5.4672346982038254e-07 7.8393574464154697e-07 0 5.8192657070994503e-10 2.5065384582491049e-10 0 5.4672346982038254e-07 7.8393574464154697e-07 0 4.7276379679724235e-07 4.7735958139187248e-07 0 6.8952712765635003e-10 2.1051425070264582e-10 0 5.8192657070994503e-10 2.5065384582491049e-10 0 4.7276379679724235e-07 4.7735958139187248e-07 0 6.8952712765635003e-10 2.1051425070264582e-10 0 4.727637967972424e-07 4.7735958139187259e-07 0 5.0028338297368244e-07 3.5448479958472746e-07 0 7.4179581575809907e-10 1.7182120257768114e-10 0 5.0028338297368244e-07 3.5448479958472746e-07 0 1.1903420396804021e-06 4.9860473582314006e-07 0 1.1527404470912395e-06 8.6682224420715029e-07 0 1.1903420396804021e-06 4.9860473582314006e-07 0 5.0028338297368244e-07 3.5448479958472746e-07 0 1.1527404470912395e-06 8.6682224420715029e-07 0 5.0028338297368244e-07 3.5448479958472746e-07 0 4.7276379679724235e-07 4.7735958139187248e-07 0 7.4179581575809907e-10 1.7182120257768114e-10 0 6.8952712765635003e-10 2.1051425070264582e-10 0 5.0028338297368244e-07 3.5448479958472746e-07 0 7.4179581575809907e-10 1.7182120257768114e-10 0 1.1903420396804021e-06 4.9860473582314006e-07 0 7.7185276346574227e-07 1.3929240860450446e-07 0 8.0482133982132433e-10 -5.7170795520079013e-11 0 7.4179581575814115e-10 1.7182120257768874e-10 0 7.7185276346574227e-07 1.3929240860450446e-07 0 8.0482133982132433e-10 -5.7170795520079013e-11 0 7.7185276346574227e-07 1.3929240860450446e-07 0 5.8877697994136913e-07 -6.7267297082011088e-08 0 1.4726923498521835e-06 -3.4801125150890071e-08 0 5.8877697994136913e-07 -6.7267297082011088e-08 0 7.7185276346574227e-07 1.3929240860450446e-07 0 1.1903420396804021e-06 4.9860473582314006e-07 0 1.6125828735977497e-06 2.6883134400869936e-07 0 7.7185276346574227e-07 1.3929240860450446e-07 0 2.3473401659252127e-06 6.6648773444855802e-07 0 1.6125828735977495e-06 2.6883134400869936e-07 0 1.1903420396804021e-06 4.9860473582314006e-07 0 1.4726923498521835e-06 -3.4801125150890071e-08 0 7.7185276346574227e-07 1.3929240860450446e-07 0 1.6125828735977495e-06 2.6883134400869936e-07 0 1.4726923498521835e-06 -3.4801125150890071e-08 0 1.6125828735977495e-06 2.6883134400869936e-07 0 2.3496725154131065e-06 6.9084110471103672e-08 0 1.6125828735977495e-06 2.6883134400869936e-07 0 2.3473401659252127e-06 6.6648773444855802e-07 0 2.3496725154131065e-06 6.9084110471103672e-08 0 1.4726923498521835e-06 -3.4801125150890071e-08 0 2.3496725154131065e-06 6.9084110471103672e-08 0 1.9916996364523066e-06 -3.9184220090325331e-07 0 1.4562820208641224e-06 -7.5536925911577594e-07 0 8.4479575741314033e-07 -3.365188237082698e-07 0 1.9916996364523066e-06 -3.9184220090325331e-07 0 1.4726923498521835e-06 -3.4801125150890071e-08 0 1.9916996364523066e-06 -3.9184220090325331e-07 0 8.4479575741314033e-07 -3.365188237082698e-07 0 1.4726923498521835e-06 -3.4801125150890071e-08 0 8.4479575741314033e-07 -3.365188237082698e-07 0 5.8877697994136913e-07 -6.7267297082011088e-08 0 8.2111162743462557e-10 6.139878784758364e-12 0 8.0482133982121648e-10 -5.7170795520066689e-11 0 5.8877697994136913e-07 -6.7267297082011088e-08 0 6.312547307751419e-10 -2.7985139238736253e-10 0 8.2111162743462557e-10 6.139878784758364e-12 0 8.4479575741314033e-07 -3.365188237082698e-07 0 8.2111162743462557e-10 6.139878784758364e-12 0 5.8877697994136913e-07 -6.7267297082011114e-08 0 8.4479575741314033e-07 -3.365188237082698e-07 0 4.6036670683645401e-10 -3.5190609447449547e-10 0 6.312547307751419e-10 -2.7985139238736253e-10 0 6.5080143863654664e-07 -6.3845568799413746e-07 0 1.4562820208641224e-06 -7.5536925911577594e-07 0 6.5080143863654675e-07 -6.3845568799413746e-07 0 8.4479575741314033e-07 -3.365188237082698e-07 0 6.312547307751419e-10 -2.7985139238736253e-10 0 8.4479575741314033e-07 -3.365188237082698e-07 0 6.5080143863654664e-07 -6.3845568799413746e-07 0 1.9197947468289156e-10 -5.1710968169164568e-10 0 4.6036670683645401e-10 -3.5190609447449547e-10 0 4.1445587944590461e-07 -9.9843823669871858e-07 0 4.6036670683645401e-10 -3.5190609447449547e-10 0 6.5080143863654664e-07 -6.3845568799413746e-07 0 4.1445587944590461e-07 -9.9843823669871858e-07 0 1.9197947468289156e-10 -5.1710968169164568e-10 0 4.1445587944590461e-07 -9.9843823669871858e-07 0 8.5245672873241916e-08 -1.0765331542670481e-06 0 4.1445587944590461e-07 -9.9843823669871858e-07 0 1.4063663438890506e-06 -1.3107502249522525e-06 0 5.2032314728570762e-07 -1.7226765281110615e-06 0 1.2554047489751716e-06 -1.7304381819777925e-06 0 5.2032314728570762e-07 -1.7226765281110615e-06 0 1.4063663438890506e-06 -1.3107502249522525e-06 0 4.1445587944590461e-07 -9.9843823669871858e-07 0 6.5080143863654664e-07 -6.3845568799413746e-07 0 1.4063663438890506e-06 -1.3107502249522525e-06 0 1.2554047489751716e-06 -1.7304381819777925e-06 0 1.0221273550479147e-06 -2.0268388048510182e-06 0 5.2032314728570762e-07 -1.7226765281110615e-06 0 1.4562820208641224e-06 -7.5536925911577594e-07 0 1.4063663438890506e-06 -1.3107502249522525e-06 0 6.5080143863654664e-07 -6.3845568799413746e-07 0 1.4562820208641224e-06 -7.5536925911577594e-07 0 2.3020910170246265e-06 -7.5695243903062264e-07 0 1.4063663438890506e-06 -1.3107502249522525e-06 0 1.4562820208641224e-06 -7.5536925911577594e-07 0 1.991699636452307e-06 -3.9184220090325331e-07 0 2.3020910170246265e-06 -7.5695243903062264e-07 0 3.0959449638365738e-06 -1.0046760896296378e-06 0 1.4063663438890506e-06 -1.3107502249522525e-06 0 2.3020910170246265e-06 -7.5695243903062264e-07 0 3.3677844494801669e-06 -2.3278678044333506e-07 0 3.0959449638365738e-06 -1.0046760896296378e-06 0 2.3020910170246265e-06 -7.5695243903062264e-07 0 3.3677844494801669e-06 -2.3278678044333506e-07 0 4.434614129934156e-06 -1.5278465698381183e-07 0 3.0959449638365738e-06 -1.0046760896296378e-06 0 3.0959449638365738e-06 -1.0046760896296378e-06 0 2.1292479035789404e-06 -1.5819254628906842e-06 0 1.4063663438890506e-06 -1.3107502249522525e-06 0 1.2554047489751716e-06 -1.7304381819777925e-06 0 2.1292479035789404e-06 -1.5819254628906842e-06 0 1.0221273550479147e-06 -2.0268388048510182e-06 0 1.2554047489751716e-06 -1.7304381819777925e-06 0 1.4063663438890506e-06 -1.3107502249522525e-06 0 2.1292479035789404e-06 -1.5819254628906842e-06 0 3.0959449638365738e-06 -1.0046760896296378e-06 0 2.9420729185559373e-06 -1.4406011371731369e-06 0 2.1292479035789404e-06 -1.5819254628906842e-06 0 1.448111175122865e-06 -2.1277864665446939e-06 0 1.0221273550479147e-06 -2.0268388048510182e-06 0 2.1292479035789404e-06 -1.5819254628906842e-06 0 1.448111175122865e-06 -2.1277864665446939e-06 0 2.1292479035789404e-06 -1.5819254628906842e-06 0 2.9420729185559373e-06 -1.4406011371731369e-06 0 1.448111175122865e-06 -2.1277864665446939e-06 0 2.9420729185559373e-06 -1.4406011371731369e-06 0 3.3477306433323707e-06 -1.4024759537697402e-06 0 4.5889219708321371e-06 -6.3946812988824214e-07 0 3.3477306433323707e-06 -1.4024759537697402e-06 0 2.9420729185559373e-06 -1.4406011371731369e-06 0 4.5889219708321371e-06 -6.3946812988824214e-07 0 5.112396534838521e-06 -4.5012440961515663e-07 0 3.3477306433323707e-06 -1.4024759537697402e-06 0 3.3861094653749476e-06 -1.1333390231542176e-06 0 1.2507241812532348e-06 -2.0347962563825509e-06 0 3.3477306433323707e-06 -1.4024759537697402e-06 0 3.3861094653749476e-06 -1.1333390231542176e-06 0 3.3477306433323707e-06 -1.4024759537697402e-06 0 5.112396534838521e-06 -4.5012440961515674e-07 0 4.5889219708321371e-06 -6.3946812988824214e-07 0 3.0959449638365738e-06 -1.0046760896296378e-06 0 4.434614129934156e-06 -1.5278465698381183e-07 0 4.5889219708321371e-06 -6.3946812988824214e-07 0 2.9420729185559373e-06 -1.4406011371731369e-06 0 3.0959449638365738e-06 -1.0046760896296378e-06 0 4.5889219708321371e-06 -6.3946812988824214e-07 0 4.434614129934156e-06 -1.5278465698381183e-07 0 5.7915604411638455e-06 3.0446477518209903e-07 0 4.5889219708321371e-06 -6.3946812988824214e-07 0 5.7915604411638455e-06 3.0446477518209903e-07 0 6.6874261413198367e-06 5.4457258309843477e-07 0 5.2843998552540961e-06 5.9030165819276296e-07 0 5.7915604411638455e-06 3.0446477518209903e-07 0 4.434614129934156e-06 -1.5278465698381183e-07 0 6.4970689103605625e-06 9.4326936207821276e-07 0 5.7915604411638455e-06 3.0446477518209903e-07 0 5.2843998552540961e-06 5.9030165819276296e-07 0 5.2843998552540961e-06 5.9030165819276296e-07 0 4.434614129934156e-06 -1.5278465698381183e-07 0 4.1065048371364181e-06 2.8288089396893312e-07 0 4.3607940287209662e-06 8.5829893745126227e-07 0 5.2843998552540961e-06 5.9030165819276275e-07 0 4.1065048371364181e-06 2.8288089396893312e-07 0 6.4970689103605625e-06 9.4326936207821276e-07 0 5.2843998552540961e-06 5.9030165819276296e-07 0 5.7633136971156035e-06 1.1442175115320696e-06 0 4.3607940287209662e-06 8.5829893745126227e-07 0 5.7633136971156043e-06 1.1442175115320696e-06 0 5.2843998552540961e-06 5.9030165819276296e-07 0 4.3607940287209662e-06 8.5829893745126227e-07 0 4.8669127925777872e-06 1.3158782428512264e-06 0 5.7633136971156035e-06 1.1442175115320696e-06 0 4.3607940287209662e-06 8.5829893745126227e-07 0 3.350147966477345e-06 8.791216446297415e-07 0 3.7431686114431809e-06 1.2154370240828461e-06 0 4.3607940287209662e-06 8.5829893745126227e-07 0 3.7431686114431809e-06 1.2154370240828461e-06 0 4.8669127925777872e-06 1.3158782428512264e-06 0 4.3607940287209662e-06 8.5829893745126227e-07 0 4.1065048371364181e-06 2.8288089396893312e-07 0 3.1520637286953264e-06 3.7319825970182902e-07 0 4.3607940287209662e-06 8.5829893745126227e-07 0 3.1520637286953264e-06 3.7319825970182902e-07 0 3.350147966477345e-06 8.791216446297415e-07 0 2.3473401659252127e-06 6.6648773444855802e-07 0 3.350147966477345e-06 8.791216446297415e-07 0 3.1520637286953264e-06 3.7319825970182902e-07 0 2.3496725154131065e-06 6.9084110471103672e-08 0 2.3473401659252127e-06 6.6648773444855802e-07 0 3.1520637286953264e-06 3.7319825970182902e-07 0 3.3677844494801669e-06 -2.3278678044333506e-07 0 2.3496725154131065e-06 6.9084110471103672e-08 0 3.1520637286953264e-06 3.7319825970182902e-07 0 3.3677844494801669e-06 -2.3278678044333506e-07 0 1.9916996364523066e-06 -3.9184220090325331e-07 0 2.3496725154131065e-06 6.9084110471103672e-08 0 3.3677844494801669e-06 -2.3278678044333506e-07 0 2.3020910170246265e-06 -7.5695243903062264e-07 0 1.9916996364523066e-06 -3.9184220090325331e-07 0 4.1065048371364181e-06 2.8288089396893312e-07 0 4.434614129934156e-06 -1.5278465698381183e-07 0 3.3677844494801669e-06 -2.3278678044333506e-07 0 3.3677844494801669e-06 -2.3278678044333506e-07 0 3.1520637286953264e-06 3.7319825970182907e-07 0 4.1065048371364181e-06 2.8288089396893312e-07 0 -4.8166367564220474e-06 -1.2491753480274676e-06 0 -2.7169095742610644e-06 -8.9331367673430847e-07 0 -2.7302724113891595e-06 -1.4637070750112285e-06 0 -1.6903725043454104e-06 -1.6126554006680388e-06 0 -2.7302724113891595e-06 -1.4637070750112285e-06 0 -1.2483743535168466e-06 -8.3302646002778285e-07 0 -1.1200659224897874e-06 -2.9820605165919068e-07 0 -1.2483743535168466e-06 -8.3302646002778285e-07 0 -2.7169095742610644e-06 -8.9331367673430847e-07 0 -2.7169095742610644e-06 -8.9331367673430847e-07 0 -1.2483743535168466e-06 -8.3302646002778285e-07 0 -2.7302724113891595e-06 -1.4637070750112285e-06 0 -1.1200659224897874e-06 -2.9820605165919068e-07 0 -5.2772686395628525e-07 -2.7125658069278284e-07 0 -1.2483743535168466e-06 -8.3302646002778285e-07 0 -8.0376680616348923e-10 3.2822846840785503e-10 0 -5.2772686395628525e-07 -2.7125658069278284e-07 0 -1.1200659224897874e-06 -2.9820605165919068e-07 0 -8.0376680616348923e-10 3.2822846840785503e-10 0 -1.0196177890076588e-09 -4.0082273903427379e-10 0 -5.2772686395628525e-07 -2.7125658069278284e-07 0 -1.0196177890076588e-09 -4.0082273903427379e-10 0 -1.2483743535168466e-06 -8.3302646002778285e-07 0 -5.2772686395628525e-07 -2.7125658069278284e-07 0 -1.0196177890076588e-09 -4.0082273903427379e-10 0 -7.6195196383468267e-07 -1.0094227755758305e-06 0 -1.2483743535168466e-06 -8.3302646002778285e-07 0 -1.6903725043454104e-06 -1.6126554006680388e-06 0 -1.2483743535168466e-06 -8.3302646002778285e-07 0 -7.6195196383468256e-07 -1.0094227755758305e-06 0 -1.0196177890076588e-09 -4.0082273903427379e-10 0 -9.292280388258117e-10 -2.9494051235113249e-10 0 -7.6195196383468256e-07 -1.0094227755758305e-06 0 -9.2922803882598458e-10 -2.9494051235136172e-10 0 -4.1635960317178521e-10 -6.9879962861220467e-10 0 -7.6195196383468256e-07 -1.0094227755758305e-06 0 -1.6903725043454104e-06 -1.6126554006680388e-06 0 -7.6195196383468256e-07 -1.0094227755758305e-06 0 -7.6358351933815061e-07 -1.5580724721077437e-06 0 -1.6903725043454104e-06 -1.6126554006680388e-06 0 -7.6358351933815071e-07 -1.5580724721077437e-06 0 -1.5581847017483338e-06 -2.1281736455294869e-06 0 -1.6903725043454104e-06 -1.6126554006680388e-06 0 -2.6230825124592168e-06 -2.160841328071449e-06 0 -2.7302724113891595e-06 -1.4637070750112285e-06 0 -3.9621969491125857e-06 -1.999403654439396e-06 0 -2.7302724113891595e-06 -1.4637070750112285e-06 0 -2.6230825124592168e-06 -2.160841328071449e-06 0 -1.722652150711721e-06 -2.5353841242180948e-06 0 -2.6230825124592164e-06 -2.1608413280714486e-06 0 -1.5581847017483338e-06 -2.1281736455294869e-06 0 -1.6903725043454104e-06 -1.6126554006680388e-06 0 -1.5581847017483338e-06 -2.1281736455294869e-06 0 -2.6230825124592168e-06 -2.160841328071449e-06 0 -1.722652150711721e-06 -2.5353841242180948e-06 0 -1.5581847017483338e-06 -2.1281736455294869e-06 0 -8.8425526732654866e-07 -2.2094780909733299e-06 0 -1.7503513695104409e-07 -1.8149601854140793e-06 0 -8.8425526732654866e-07 -2.2094780909733299e-06 0 -7.6358351933815061e-07 -1.5580724721077437e-06 0 -7.6358351933815061e-07 -1.5580724721077437e-06 0 -8.8425526732654855e-07 -2.2094780909733299e-06 0 -1.5581847017483338e-06 -2.1281736455294869e-06 0 -4.1635960317178521e-10 -6.9879962861220467e-10 0 -1.8588724073076756e-07 -1.0028411802362397e-06 0 -7.6358351933815061e-07 -1.5580724721077437e-06 0 -4.1635960317178521e-10 -6.9879962861220467e-10 0 -7.6358351933815061e-07 -1.5580724721077439e-06 0 -7.6195196383468256e-07 -1.0094227755758305e-06 0 -4.1635960317178521e-10 -6.9879962861220467e-10 0 -1.4679857257319843e-10 -4.7893764596279921e-10 0 -1.8588724073076756e-07 -1.0028411802362397e-06 0 -1.7503513695104409e-07 -1.8149601854140793e-06 0 -7.6358351933815082e-07 -1.5580724721077437e-06 0 -1.8588724073076756e-07 -1.0028411802362397e-06 0 -1.7503513695104409e-07 -1.8149601854140793e-06 0 -1.8588724073076756e-07 -1.0028411802362397e-06 0 8.5245672873241916e-08 -1.0765331542670481e-06 0 -1.4679857257319843e-10 -4.7893764596279921e-10 0 8.5245672873241916e-08 -1.0765331542670481e-06 0 -1.8588724073076756e-07 -1.0028411802362397e-06 0 -1.4679857257319843e-10 -4.7893764596279921e-10 0 1.9197947468289156e-10 -5.1710968169164568e-10 0 8.5245672873241916e-08 -1.0765331542670481e-06 0 4.1445587944590461e-07 -9.9843823669871858e-07 0 5.2032314728570762e-07 -1.7226765281110615e-06 0 8.5245672873241916e-08 -1.0765331542670481e-06 0 -1.7503513695104409e-07 -1.8149601854140793e-06 0 8.5245672873241916e-08 -1.0765331542670481e-06 0 5.2032314728570762e-07 -1.7226765281110615e-06 0 -1.7503513695104409e-07 -1.8149601854140793e-06 0 -3.1888215593997365e-08 -2.3765103688921721e-06 0 -8.8425526732654866e-07 -2.2094780909733299e-06 0 -1.7503513695104409e-07 -1.8149601854140793e-06 0 5.2032314728570762e-07 -1.7226765281110615e-06 0 -3.1888215593997365e-08 -2.3765103688921721e-06 0 -3.1888215593997365e-08 -2.3765103688921721e-06 0 5.2032314728570762e-07 -1.7226765281110615e-06 0 1.0221273550479147e-06 -2.0268388048510182e-06 0 1.448111175122865e-06 -2.1277864665446939e-06 0 -3.1888215593997365e-08 -2.3765103688921721e-06 0 1.0221273550479147e-06 -2.0268388048510182e-06 0 1.448111175122865e-06 -2.1277864665446939e-06 0 -6.8077987091224722e-07 -2.5834706603029559e-06 0 -3.1888215593997365e-08 -2.3765103688921721e-06 0 1.448111175122865e-06 -2.1277864665446939e-06 0 3.3477306433323707e-06 -1.4024759537697402e-06 0 1.2507241812532348e-06 -2.0347962563825509e-06 0 -7.801602548039738e-07 -2.3168975089955937e-06 0 1.2507241812532348e-06 -2.0347962563825509e-06 0 -3.9110373831353651e-07 -1.7253798708539846e-06 0 -7.801602548039738e-07 -2.3168975089955937e-06 0 -6.8077987091224722e-07 -2.5834706603029559e-06 0 1.2507241812532348e-06 -2.0347962563825509e-06 0 1.448111175122865e-06 -2.1277864665446939e-06 0 1.2507241812532348e-06 -2.0347962563825509e-06 0 -6.8077987091224722e-07 -2.5834706603029559e-06 0 -7.801602548039738e-07 -2.3168975089955937e-06 0 -2.8950673054652616e-06 -2.5886422955759446e-06 0 -6.8077987091224722e-07 -2.5834706603029559e-06 0 -7.801602548039738e-07 -2.3168975089955937e-06 0 -3.9110373831353651e-07 -1.7253798708539846e-06 0 -2.9474757964552036e-06 -2.1468292242485013e-06 0 -7.801602548039738e-07 -2.3168975089955937e-06 0 -2.9474757964552036e-06 -2.1468292242485013e-06 0 -2.8950673054652616e-06 -2.5886422955759446e-06 0 -1.722652150711721e-06 -2.5353841242180948e-06 0 -6.8077987091224722e-07 -2.5834706603029559e-06 0 -2.8950673054652616e-06 -2.5886422955759446e-06 0 -1.722652150711721e-06 -2.5353841242180948e-06 0 -2.8950673054652616e-06 -2.5886422955759446e-06 0 -3.2932001798734714e-06 -2.4250140261597525e-06 0 -1.722652150711721e-06 -2.5353841242180948e-06 0 -3.1888215593997365e-08 -2.3765103688921721e-06 0 -6.8077987091224722e-07 -2.5834706603029559e-06 0 -1.722652150711721e-06 -2.5353841242180948e-06 0 -8.8425526732654866e-07 -2.2094780909733295e-06 0 -3.1888215593997365e-08 -2.3765103688921721e-06 0 -1.722652150711721e-06 -2.5353841242180948e-06 0 -3.2932001798734714e-06 -2.4250140261597525e-06 0 -2.6230825124592168e-06 -2.160841328071449e-06 0 -3.9621969491125857e-06 -1.999403654439396e-06 0 -2.6230825124592168e-06 -2.160841328071449e-06 0 -3.2932001798734714e-06 -2.4250140261597525e-06 0 -5.0719770047338574e-06 -2.2237310877359833e-06 0 -3.9621969491125849e-06 -1.999403654439396e-06 0 -3.2932001798734714e-06 -2.4250140261597525e-06 0 -5.0719770047338574e-06 -2.2237310877359833e-06 0 -3.2932001798734714e-06 -2.4250140261597525e-06 0 -2.8950673054652616e-06 -2.5886422955759446e-06 0 -5.0719770047338574e-06 -2.2237310877359833e-06 0 -2.8950673054652616e-06 -2.5886422955759446e-06 0 -6.0353287602608546e-06 -1.8918582908626374e-06 0 -2.8950673054652616e-06 -2.5886422955759446e-06 0 -2.9474757964552036e-06 -2.1468292242485013e-06 0 -6.0353287602608546e-06 -1.8918582908626374e-06 0 -5.0719770047338574e-06 -2.2237310877359833e-06 0 -6.0353287602608537e-06 -1.8918582908626376e-06 0 -7.7795609165003958e-06 -1.5017224479558093e-06 0 -5.0719770047338574e-06 -2.2237310877359833e-06 0 -7.7795609165003958e-06 -1.5017224479558093e-06 0 -5.9190518972003285e-06 -1.7537235983151497e-06 0 -9.960401515303918e-06 -5.7137383147067777e-07 0 -7.7795609165003958e-06 -1.5017224479558093e-06 0 -6.0353287602608546e-06 -1.8918582908626374e-06 0 -1.0571982849144089e-05 -2.5619315151429073e-07 0 -7.4122470313682747e-06 -1.0584952477243569e-06 0 -7.7795609165003958e-06 -1.5017224479558093e-06 0 -7.4122470313682747e-06 -1.0584952477243569e-06 0 -5.9190518972003285e-06 -1.7537235983151497e-06 0 -7.7795609165003958e-06 -1.5017224479558093e-06 0 -7.4122470313682747e-06 -1.0584952477243569e-06 0 -4.8166367564220474e-06 -1.2491753480274676e-06 0 -5.9190518972003285e-06 -1.7537235983151497e-06 0 -5.0719770047338574e-06 -2.2237310877359833e-06 0 -5.9190518972003285e-06 -1.7537235983151497e-06 0 -3.9621969491125857e-06 -1.999403654439396e-06 0 -4.8166367564220474e-06 -1.2491753480274676e-06 0 -3.9621969491125857e-06 -1.999403654439396e-06 0 -5.9190518972003285e-06 -1.7537235983151497e-06 0 -4.8166367564220474e-06 -1.2491753480274676e-06 0 -2.7302724113891599e-06 -1.4637070750112285e-06 0 -3.9621969491125857e-06 -1.999403654439396e-06 0 -1.8720284015896359e-05 4.4555837179636832e-06 0 -1.3206541425537621e-05 1.6210073136890327e-06 0 -1.6661546796023097e-05 4.2626466064591591e-06 0 -2.3986314704414702e-05 8.8096765430149779e-06 0 -1.8720284015896359e-05 4.4555837179636832e-06 0 -1.6661546796023097e-05 4.2626466064591591e-06 0 -1.1588400039584105e-05 2.8389151184050885e-06 0 -1.6661546796023097e-05 4.2626466064591591e-06 0 -1.3206541425537621e-05 1.6210073136890327e-06 0 -1.1588400039584105e-05 2.8389151184050885e-06 0 -1.6873783499916116e-05 6.8368276195160792e-06 0 -1.6661546796023097e-05 4.2626466064591591e-06 0 -1.8720284015896359e-05 4.4555837179636832e-06 0 -1.4279450046012637e-05 1.4728668474416746e-06 0 -1.3206541425537621e-05 1.6210073136890327e-06 0 -1.4279450046012637e-05 1.4728668474416746e-06 0 -1.0571982849144089e-05 -2.5619315151429073e-07 0 -9.960401515303918e-06 -5.7137383147067777e-07 0 -1.0571982849144089e-05 -2.5619315151429073e-07 0 -7.7795609165003958e-06 -1.5017224479558093e-06 0 -9.960401515303918e-06 -5.7137383147067777e-07 0 -1.4279450046012637e-05 1.4728668474416746e-06 0 -9.960401515303918e-06 -5.7137383147067777e-07 0 -1.3206541425537621e-05 1.6210073136890327e-06 0 -9.960401515303918e-06 -5.7137383147067777e-07 0 -7.6547821601237511e-06 -1.8825777763590562e-07 0 -1.3206541425537621e-05 1.6210073136890327e-06 0 -4.8962201102917166e-06 -1.4601494105636762e-06 0 -7.6547821601237511e-06 -1.8825777763590538e-07 0 -6.0353287602608546e-06 -1.8918582908626374e-06 0 -9.960401515303918e-06 -5.7137383147067777e-07 0 -6.0353287602608546e-06 -1.8918582908626374e-06 0 -7.6547821601237511e-06 -1.8825777763590538e-07 0 -4.8962201102917166e-06 -1.4601494105636762e-06 0 -6.0353287602608546e-06 -1.8918582908626374e-06 0 -2.9474757964552036e-06 -2.1468292242485013e-06 0 -1.1588400039584105e-05 2.8389151184050885e-06 0 -7.6547821601237511e-06 -1.8825777763590538e-07 0 -7.231634495471543e-06 2.3504942995752497e-06 0 -1.1588400039584105e-05 2.8389151184050885e-06 0 -1.3206541425537621e-05 1.6210073136890327e-06 0 -7.6547821601237511e-06 -1.8825777763590538e-07 0 -1.1588400039584105e-05 2.8389151184050885e-06 0 -7.231634495471543e-06 2.3504942995752492e-06 0 -1.0643105877846012e-05 5.9023723578537847e-06 0 -7.231634495471543e-06 2.3504942995752497e-06 0 -2.9762786006010779e-06 5.6507114306561989e-07 0 -3.1390489003352199e-06 4.5299365025153451e-06 0 -2.9762786006010779e-06 5.6507114306561999e-07 0 5.4824725495178688e-07 1.6577712247265663e-06 0 -3.1390489003352199e-06 4.5299365025153451e-06 0 -2.9762786006010779e-06 5.6507114306561999e-07 0 6.9786555757976448e-08 -4.8912090546115801e-07 0 5.4824725495178688e-07 1.6577712247265663e-06 0 -2.9762786006010779e-06 5.6507114306561999e-07 0 -7.231634495471543e-06 2.3504942995752497e-06 0 -7.6547821601237511e-06 -1.8825777763590538e-07 0 -2.9762786006010779e-06 5.6507114306561999e-07 0 -7.6547821601237511e-06 -1.8825777763590538e-07 0 -2.7868330438266341e-06 -1.0472738847656918e-06 0 -4.8962201102917166e-06 -1.4601494105636762e-06 0 -2.7868330438266341e-06 -1.0472738847656918e-06 0 -7.6547821601237511e-06 -1.8825777763590538e-07 0 -4.8962201102917166e-06 -1.4601494105636762e-06 0 -2.9474757964552036e-06 -2.1468292242485013e-06 0 -2.7868330438266341e-06 -1.0472738847656918e-06 0 -3.9110373831353651e-07 -1.7253798708539846e-06 0 -2.7868330438266341e-06 -1.0472738847656916e-06 0 -2.9474757964552036e-06 -2.1468292242485013e-06 0 -3.9110373831353651e-07 -1.7253798708539846e-06 0 6.9786555757975932e-08 -4.8912090546115822e-07 0 -2.7868330438266341e-06 -1.0472738847656918e-06 0 -2.9762786006010779e-06 5.6507114306561999e-07 0 -2.7868330438266337e-06 -1.0472738847656918e-06 0 6.9786555757976448e-08 -4.8912090546115801e-07 0 -3.9110373831353651e-07 -1.7253798708539846e-06 0 2.1332168126626887e-06 -1.0701892736799503e-06 0 6.9786555757976448e-08 -4.8912090546115801e-07 0 3.2197309940153502e-06 5.6623471868035986e-07 0 6.9786555757976448e-08 -4.8912090546115801e-07 0 2.1332168126626883e-06 -1.0701892736799503e-06 0 -3.9110373831353651e-07 -1.7253798708539846e-06 0 1.2507241812532348e-06 -2.0347962563825509e-06 0 2.1332168126626883e-06 -1.0701892736799503e-06 0 3.3861094653749476e-06 -1.1333390231542176e-06 0 4.6773756314692288e-06 -1.5787572543900491e-07 0 2.1332168126626883e-06 -1.0701892736799503e-06 0 3.3861094653749476e-06 -1.1333390231542176e-06 0 2.1332168126626883e-06 -1.0701892736799503e-06 0 1.2507241812532348e-06 -2.0347962563825509e-06 0 3.2197309940153502e-06 5.6623471868035986e-07 0 2.1332168126626878e-06 -1.0701892736799505e-06 0 4.6773756314692288e-06 -1.5787572543900491e-07 0 3.2197309940153502e-06 5.6623471868035986e-07 0 4.6773756314692288e-06 -1.5787572543900491e-07 0 6.8567370435287033e-06 1.8443093706690832e-06 0 3.2197309940153502e-06 5.6623471868035986e-07 0 5.4824725495178688e-07 1.6577712247265663e-06 0 6.9786555757976448e-08 -4.8912090546115801e-07 0 3.2197309940153502e-06 5.6623471868035986e-07 0 4.0759800500954461e-06 3.3423381237627846e-06 0 5.4824725495178688e-07 1.6577712247265663e-06 0 3.2197309940153502e-06 5.6623471868035986e-07 0 6.8567370435287033e-06 1.8443093706690832e-06 0 4.0759800500954469e-06 3.3423381237627846e-06 0 9.2690497959512527e-06 4.4407305650202038e-06 0 6.8295577396826678e-06 6.3269281867198441e-06 0 4.0759800500954469e-06 3.3423381237627846e-06 0 9.2690497959512527e-06 4.4407305650202038e-06 0 4.0759800500954469e-06 3.3423381237627846e-06 0 6.8567370435287033e-06 1.8443093706690832e-06 0 -3.1390489003352199e-06 4.5299365025153451e-06 0 4.0759800500954461e-06 3.342338123762785e-06 0 1.8760698151090356e-06 7.0119618350924508e-06 0 -3.1390489003352199e-06 4.5299365025153451e-06 0 5.4824725495178688e-07 1.6577712247265663e-06 0 4.0759800500954469e-06 3.3423381237627846e-06 0 4.0759800500954469e-06 3.3423381237627846e-06 0 6.8295577396826678e-06 6.3269281867198441e-06 0 1.8760698151090356e-06 7.0119618350924508e-06 0 5.0492227383879351e-06 1.1427036668131375e-05 0 6.8295577396826687e-06 6.3269281867198432e-06 0 1.166821986455999e-05 8.1951352758003274e-06 0 5.0492227383879351e-06 1.1427036668131375e-05 0 1.166821986455999e-05 8.1951352758003274e-06 0 1.0801364048546153e-05 1.7598964436874539e-05 0 5.0492227383879351e-06 1.1427036668131375e-05 0 1.0801364048546153e-05 1.7598964436874539e-05 0 4.6129054876122248e-06 1.9210599160154926e-05 0 5.0492227383879351e-06 1.1427036668131375e-05 0 4.612905487612224e-06 1.9210599160154926e-05 0 -2.2632171526996803e-06 2.0253375908442012e-05 0 5.0492227383879351e-06 1.1427036668131375e-05 0 -4.3769608779813258e-06 1.1842389896846184e-05 0 1.8760698151090356e-06 7.0119618350924508e-06 0 5.0492227383879351e-06 1.1427036668131375e-05 0 1.8760698151090364e-06 7.0119618350924508e-06 0 6.8295577396826678e-06 6.3269281867198441e-06 0 5.0492227383879351e-06 1.1427036668131375e-05 0 -2.2632171526996803e-06 2.0253375908442012e-05 0 -4.3769608779813258e-06 1.1842389896846184e-05 0 -1.2027545276583224e-05 2.083399953225144e-05 0 -4.3769608779813258e-06 1.1842389896846184e-05 0 -2.2632171526996803e-06 2.0253375908442012e-05 0 -1.2027545276583224e-05 2.083399953225144e-05 0 -1.0066922710295736e-05 1.0387165836843156e-05 0 -4.3769608779813258e-06 1.1842389896846184e-05 0 -3.1390489003352199e-06 4.5299365025153451e-06 0 -4.3769608779813241e-06 1.1842389896846184e-05 0 -1.0066922710295738e-05 1.0387165836843156e-05 0 -3.1390489003352199e-06 4.5299365025153451e-06 0 -1.0066922710295738e-05 1.0387165836843156e-05 0 -1.0643105877846012e-05 5.9023723578537847e-06 0 -3.1390489003352199e-06 4.5299365025153451e-06 0 1.8760698151090354e-06 7.0119618350924516e-06 0 -4.3769608779813258e-06 1.1842389896846184e-05 0 -3.1390489003352199e-06 4.5299365025153451e-06 0 -1.0643105877846012e-05 5.9023723578537847e-06 0 -7.231634495471543e-06 2.3504942995752497e-06 0 -1.1588400039584105e-05 2.8389151184050885e-06 0 -1.0643105877846012e-05 5.9023723578537847e-06 0 -1.6873783499916116e-05 6.8368276195160792e-06 0 -1.6162173833357389e-05 1.0973748219653571e-05 0 -1.6873783499916116e-05 6.8368276195160792e-06 0 -1.0643105877846012e-05 5.9023723578537847e-06 0 -1.6162173833357389e-05 1.0973748219653571e-05 0 -1.0643105877846012e-05 5.9023723578537847e-06 0 -1.0066922710295738e-05 1.0387165836843156e-05 0 -1.6162173833357389e-05 1.0973748219653571e-05 0 -1.0066922710295738e-05 1.0387165836843156e-05 0 -1.7433763567194361e-05 1.672830109100357e-05 0 -1.2027545276583224e-05 2.083399953225144e-05 0 -1.7433763567194361e-05 1.672830109100357e-05 0 -1.0066922710295738e-05 1.0387165836843156e-05 0 -2.539219855474379e-05 2.6721125357742348e-05 0 -2.4350997739475009e-05 1.7333990933488024e-05 0 -1.7433763567194361e-05 1.672830109100357e-05 0 -1.2027545276583224e-05 2.083399953225144e-05 0 -2.539219855474379e-05 2.6721125357742348e-05 0 -1.7433763567194361e-05 1.672830109100357e-05 0 -1.6162173833357389e-05 1.0973748219653571e-05 0 -1.7433763567194361e-05 1.672830109100357e-05 0 -2.4350997739475009e-05 1.7333990933488024e-05 0 -1.6162173833357389e-05 1.0973748219653571e-05 0 -2.4350997739475009e-05 1.7333990933488024e-05 0 -2.230310214669587e-05 1.1426424621402628e-05 0 -3.5751910927044174e-05 2.4298703245223346e-05 0 -2.4350997739475009e-05 1.7333990933488024e-05 0 -2.539219855474379e-05 2.6721125357742348e-05 0 -3.5751910927044174e-05 2.4298703245223346e-05 0 -2.9808821390860205e-05 1.5405049060586139e-05 0 -2.4350997739475009e-05 1.7333990933488024e-05 0 -2.9808821390860205e-05 1.5405049060586139e-05 0 -2.230310214669587e-05 1.1426424621402628e-05 0 -2.4350997739475009e-05 1.7333990933488024e-05 0 -2.9808821390860205e-05 1.5405049060586139e-05 0 -2.3986314704414702e-05 8.8096765430149779e-06 0 -2.230310214669587e-05 1.1426424621402628e-05 0 -2.3986314704414702e-05 8.8096765430149779e-06 0 -1.6873783499916112e-05 6.8368276195160801e-06 0 -2.230310214669587e-05 1.1426424621402628e-05 0 -1.6162173833357389e-05 1.0973748219653571e-05 0 -2.230310214669587e-05 1.1426424621402628e-05 0 -1.6873783499916116e-05 6.8368276195160792e-06 0 -2.3986314704414702e-05 8.8096765430149779e-06 0 -1.6661546796023097e-05 4.2626466064591591e-06 0 -1.6873783499916116e-05 6.8368276195160792e-06 0 8.1355899044226723e-06 2.033961655654949e-06 0 9.2340575416114022e-06 2.6058957561301879e-06 0 8.1138771649176392e-06 1.7436701656219517e-06 0 9.7689854268532835e-06 2.7434977961926387e-06 0 8.1138771649176392e-06 1.7436701656219517e-06 0 9.2340575416114022e-06 2.6058957561301879e-06 0 9.7689854268532835e-06 2.7434977961926387e-06 0 9.2340575416114022e-06 2.6058957561301879e-06 0 1.084291255534679e-05 3.676260473792063e-06 0 8.1355899044226723e-06 2.033961655654949e-06 0 8.7487339697355969e-06 2.3789734774368448e-06 0 9.2340575416114022e-06 2.6058957561301879e-06 0 7.648487375966181e-06 1.6058172779113999e-06 0 8.7487339697355969e-06 2.3789734774368448e-06 0 7.2496451816779985e-06 1.7843491474398298e-06 0 8.1355899044226723e-06 2.033961655654949e-06 0 7.2496451816779985e-06 1.7843491474398298e-06 0 8.7487339697355969e-06 2.3789734774368448e-06 0 7.648487375966181e-06 1.6058172779113999e-06 0 7.2496451816779985e-06 1.7843491474398298e-06 0 6.577423667119581e-06 1.3195019384251145e-06 0 8.1355899044226723e-06 2.033961655654949e-06 0 6.98785652670559e-06 1.5207782937295593e-06 0 7.2496451816779985e-06 1.7843491474398298e-06 0 5.9637793022366043e-06 1.4659943174007468e-06 0 7.2496451816779985e-06 1.7843491474398298e-06 0 6.98785652670559e-06 1.5207782937295593e-06 0 5.8339176781999685e-06 1.3957892054614226e-06 0 7.2496451816779985e-06 1.7843491474398298e-06 0 5.9637793022366043e-06 1.4659943174007468e-06 0 5.9637793022366043e-06 1.4659943174007468e-06 0 5.7633136971156035e-06 1.1442175115320696e-06 0 4.8669127925777872e-06 1.3158782428512264e-06 0 5.9637793022366043e-06 1.4659943174007468e-06 0 6.98785652670559e-06 1.5207782937295593e-06 0 5.7633136971156035e-06 1.1442175115320696e-06 0 6.4970689103605625e-06 9.4326936207821276e-07 0 5.7633136971156035e-06 1.1442175115320696e-06 0 6.98785652670559e-06 1.5207782937295593e-06 0 8.1355899044226723e-06 2.033961655654949e-06 0 8.1138771649176392e-06 1.7436701656219517e-06 0 6.98785652670559e-06 1.5207782937295593e-06 0 6.4970689103605625e-06 9.4326936207821276e-07 0 6.98785652670559e-06 1.5207782937295593e-06 0 8.1138771649176392e-06 1.7436701656219517e-06 0 6.4970689103605625e-06 9.4326936207821276e-07 0 8.1138771649176392e-06 1.7436701656219517e-06 0 6.6874261413198367e-06 5.4457258309843477e-07 0 6.4970689103605625e-06 9.4326936207821276e-07 0 6.6874261413198367e-06 5.4457258309843456e-07 0 5.7915604411638455e-06 3.0446477518209903e-07 0 4.5889219708321371e-06 -6.3946812988824214e-07 0 6.6874261413198367e-06 5.4457258309843477e-07 0 5.112396534838521e-06 -4.5012440961515674e-07 0 6.9546779749533911e-06 7.9986097331465405e-07 0 6.6874261413198367e-06 5.4457258309843487e-07 0 8.2335569279976502e-06 1.5808765604020923e-06 0 6.9546779749533911e-06 7.9986097331465405e-07 0 5.112396534838521e-06 -4.5012440961515674e-07 0 6.6874261413198367e-06 5.4457258309843477e-07 0 6.6874261413198367e-06 5.4457258309843477e-07 0 8.1138771649176392e-06 1.7436701656219517e-06 0 8.2335569279976502e-06 1.5808765604020923e-06 0 3.3861094653749476e-06 -1.1333390231542176e-06 0 5.112396534838521e-06 -4.5012440961515674e-07 0 4.6773756314692288e-06 -1.5787572543900491e-07 0 6.9546779749533911e-06 7.9986097331465405e-07 0 4.6773756314692288e-06 -1.5787572543900499e-07 0 5.112396534838521e-06 -4.5012440961515674e-07 0 6.9546779749533911e-06 7.9986097331465405e-07 0 6.8567370435287033e-06 1.8443093706690832e-06 0 4.6773756314692288e-06 -1.5787572543900491e-07 0 6.9546779749533911e-06 7.9986097331465405e-07 0 9.597867381505767e-06 2.735333777327714e-06 0 6.8567370435287033e-06 1.8443093706690832e-06 0 9.2690497959512527e-06 4.4407305650202038e-06 0 6.8567370435287033e-06 1.8443093706690832e-06 0 9.597867381505767e-06 2.735333777327714e-06 0 9.7689854268532835e-06 2.7434977961926387e-06 0 8.2335569279976502e-06 1.5808765604020923e-06 0 8.1138771649176392e-06 1.7436701656219517e-06 0 6.9546779749533911e-06 7.9986097331465405e-07 0 8.2335569279976502e-06 1.5808765604020921e-06 0 9.597867381505767e-06 2.735333777327714e-06 0 9.7689854268532835e-06 2.7434977961926387e-06 0 9.597867381505767e-06 2.735333777327714e-06 0 8.2335569279976502e-06 1.5808765604020923e-06 0 9.7689854268532835e-06 2.7434977961926387e-06 0 1.1440481938462274e-05 4.1551721844559667e-06 0 9.597867381505767e-06 2.735333777327714e-06 0 9.7689854268532835e-06 2.7434977961926387e-06 0 1.084291255534679e-05 3.676260473792063e-06 0 1.1440481938462276e-05 4.1551721844559658e-06 0 9.597867381505767e-06 2.735333777327714e-06 0 1.1440481938462276e-05 4.1551721844559658e-06 0 1.335833632531811e-05 6.0013054115357804e-06 0 1.2829949366765444e-05 5.1205474754622639e-06 0 1.335833632531811e-05 6.0013054115357804e-06 0 1.1440481938462276e-05 4.1551721844559658e-06 0 1.2829949366765444e-05 5.1205474754622639e-06 0 1.084291255534679e-05 3.676260473792063e-06 0 1.1268104575512579e-05 3.8233397329410697e-06 0 1.2829949366765444e-05 5.1205474754622639e-06 0 1.1440481938462274e-05 4.1551721844559658e-06 0 1.084291255534679e-05 3.676260473792063e-06 0 9.2690497959512527e-06 4.4407305650202038e-06 0 9.597867381505767e-06 2.735333777327714e-06 0 1.335833632531811e-05 6.0013054115357804e-06 0 9.2690497959512527e-06 4.4407305650202038e-06 0 1.335833632531811e-05 6.0013054115357804e-06 0 1.166821986455999e-05 8.1951352758003274e-06 0 9.2690497959512527e-06 4.4407305650202038e-06 0 1.166821986455999e-05 8.1951352758003274e-06 0 6.8295577396826678e-06 6.3269281867198441e-06 0 1.9036040460184138e-05 1.0423253442463303e-05 0 1.1668219864559988e-05 8.1951352758003274e-06 0 1.335833632531811e-05 6.0013054115357804e-06 0 1.9036040460184138e-05 1.0423253442463303e-05 0 1.0801364048546153e-05 1.7598964436874539e-05 0 1.166821986455999e-05 8.1951352758003274e-06 0 1.9036040460184138e-05 1.0423253442463303e-05 0 1.335833632531811e-05 6.0013054115357804e-06 0 1.45651752832437e-05 6.9240871945940804e-06 0 1.2829949366765444e-05 5.1205474754622639e-06 0 1.2035581657457048e-05 4.1092311287130872e-06 0 1.45651752832437e-05 6.9240871945940804e-06 0 1.2829949366765444e-05 5.1205474754622639e-06 0 1.1268104575512579e-05 3.8233397329410697e-06 0 1.2035581657457048e-05 4.1092311287130872e-06 0 1.2829949366765444e-05 5.1205474754622639e-06 0 1.45651752832437e-05 6.9240871945940804e-06 0 1.335833632531811e-05 6.0013054115357804e-06 0 1.2786968415268327e-05 2.5137919928391188e-06 0 1.45651752832437e-05 6.9240871945940804e-06 0 1.2035581657457048e-05 4.1092311287130872e-06 0 1.2786968415268327e-05 2.5137919928391188e-06 0 1.2035581657457048e-05 4.1092311287130872e-06 0 1.1183209366860039e-05 3.4499939402974616e-07 0 1.0141939919598343e-05 2.2756333185746223e-06 0 1.1183209366860039e-05 3.4499939402974616e-07 0 1.2035581657457048e-05 4.1092311287130872e-06 0 1.0141939919598343e-05 2.2756333185746223e-06 0 1.2035581657457048e-05 4.1092311287130872e-06 0 1.1268104575512579e-05 3.8233397329410697e-06 0 1.0028732855162963e-05 3.1226838465790345e-06 0 1.1268104575512579e-05 3.8233397329410697e-06 0 1.084291255534679e-05 3.676260473792063e-06 0 1.1268104575512579e-05 3.8233397329410697e-06 0 1.0028732855162963e-05 3.1226838465790345e-06 0 1.0141939919598343e-05 2.2756333185746223e-06 0 1.0028732855162963e-05 3.1226838465790345e-06 0 8.8787245212924133e-06 1.9328226756769976e-06 0 1.0141939919598343e-05 2.2756333185746223e-06 0 1.0028732855162963e-05 3.1226838465790345e-06 0 8.7487339697355969e-06 2.3789734774368448e-06 0 8.8787245212924133e-06 1.9328226756769972e-06 0 1.0028732855162963e-05 3.1226838465790345e-06 0 9.2340575416114022e-06 2.6058957561301879e-06 0 8.7487339697355969e-06 2.3789734774368448e-06 0 1.0028732855162963e-05 3.1226838465790345e-06 0 1.084291255534679e-05 3.676260473792063e-06 0 9.2340575416114022e-06 2.6058957561301879e-06 0 7.648487375966181e-06 1.6058172779113999e-06 0 8.8787245212924133e-06 1.9328226756769972e-06 0 8.7487339697355969e-06 2.3789734774368448e-06 0 7.648487375966181e-06 1.6058172779113999e-06 0 7.3411824012314197e-06 4.9179740902733229e-07 0 8.8787245212924133e-06 1.9328226756769972e-06 0 1.0141939919598343e-05 2.2756333185746223e-06 0 8.4342257178434734e-06 2.4136505421141921e-07 0 9.4722441948034384e-06 -1.986905404824405e-06 0 7.198614902062052e-06 -1.3038177722107494e-06 0 8.4342257178434734e-06 2.4136505421141921e-07 0 7.3411824012314197e-06 4.9179740902733229e-07 0 7.3411824012314197e-06 4.9179740902733229e-07 0 8.4342257178434734e-06 2.4136505421141921e-07 0 8.8787245212924133e-06 1.9328226756769972e-06 0 1.0141939919598343e-05 2.2756333185746223e-06 0 8.8787245212924133e-06 1.9328226756769972e-06 0 8.4342257178434734e-06 2.4136505421141921e-07 0 7.198614902062052e-06 -1.3038177722107494e-06 0 7.9183089613794037e-06 -2.9215059744179982e-06 0 8.4342257178434734e-06 2.4136505421141921e-07 0 9.4722441948034384e-06 -1.986905404824405e-06 0 8.4342257178434734e-06 2.4136505421141921e-07 0 7.9183089613794037e-06 -2.9215059744179982e-06 0 9.4722441948034384e-06 -1.986905404824405e-06 0 7.9183089613794037e-06 -2.9215059744179982e-06 0 9.6436593685088988e-06 -5.0383976820370947e-06 0 1.1360940618682588e-05 -4.6324724236758854e-06 0 9.4722441948034367e-06 -1.9869054048244054e-06 0 9.6436593685088988e-06 -5.0383976820370947e-06 0 7.9868595347272351e-06 -5.551689955603e-06 0 9.6436593685088988e-06 -5.0383976820370947e-06 0 7.9183089613794037e-06 -2.9215059744179982e-06 0 7.9868595347272351e-06 -5.551689955603e-06 0 1.0336214160785786e-05 -8.3301858179560114e-06 0 9.6436593685088988e-06 -5.0383976820370947e-06 0 1.1360940618682588e-05 -4.6324724236758854e-06 0 9.6436593685088971e-06 -5.0383976820370939e-06 0 1.0336214160785787e-05 -8.3301858179560114e-06 0 7.9868595347272351e-06 -5.551689955603e-06 0 7.7808096469894774e-06 -8.203839683188177e-06 0 1.0336214160785787e-05 -8.3301858179560114e-06 0 1.6270052548782784e-05 -1.015575838707802e-05 0 1.47983256311147e-05 -6.9062176082795772e-06 0 1.3605735679730164e-05 -9.2623348176344842e-06 0 1.1360940618682588e-05 -4.6324724236758854e-06 0 1.3605735679730164e-05 -9.2623348176344842e-06 0 1.47983256311147e-05 -6.9062176082795772e-06 0 1.1360940618682588e-05 -4.6324724236758854e-06 0 1.0336214160785787e-05 -8.3301858179560114e-06 0 1.3605735679730164e-05 -9.2623348176344842e-06 0 1.1360940618682588e-05 -4.6324724236758854e-06 0 1.47983256311147e-05 -6.906217608279578e-06 0 1.3155245412585107e-05 -1.8559921734121567e-06 0 1.0141939919598343e-05 2.2756333185746223e-06 0 9.4722441948034401e-06 -1.9869054048244046e-06 0 1.1183209366860039e-05 3.4499939402974616e-07 0 1.1360940618682588e-05 -4.6324724236758854e-06 0 1.3155245412585107e-05 -1.8559921734121558e-06 0 1.1183209366860039e-05 3.4499939402974616e-07 0 1.1360940618682588e-05 -4.6324724236758854e-06 0 1.1183209366860039e-05 3.4499939402974616e-07 0 9.4722441948034384e-06 -1.986905404824405e-06 0 1.2786968415268327e-05 2.5137919928391188e-06 0 1.1183209366860039e-05 3.4499939402974616e-07 0 1.3155245412585107e-05 -1.8559921734121567e-06 0 1.2786968415268327e-05 2.5137919928391188e-06 0 1.4953568600770414e-05 2.2620706072551934e-06 0 1.45651752832437e-05 6.9240871945940804e-06 0 1.2786968415268327e-05 2.5137919928391188e-06 0 1.3155245412585107e-05 -1.8559921734121567e-06 0 1.4953568600770414e-05 2.2620706072551929e-06 0 1.9036040460184138e-05 1.0423253442463303e-05 0 1.45651752832437e-05 6.9240871945940812e-06 0 1.4953568600770414e-05 2.2620706072551929e-06 0 2.0373980663753913e-05 -1.9348011469797518e-06 0 1.4953568600770414e-05 2.2620706072551929e-06 0 1.692144722954238e-05 -4.8903494400104179e-06 0 1.692144722954238e-05 -4.8903494400104179e-06 0 1.4953568600770414e-05 2.2620706072551929e-06 0 1.3155245412585107e-05 -1.8559921734121567e-06 0 1.0801364048546153e-05 1.7598964436874539e-05 0 1.9036040460184138e-05 1.0423253442463303e-05 0 1.5512634603708694e-05 3.1473047352852971e-05 0 1.9036040460184138e-05 1.0423253442463303e-05 0 1.4953568600770414e-05 2.2620706072551929e-06 0 2.0373980663753913e-05 -1.9348011469797518e-06 0 1.3340277104637418e-05 8.9029033337579937e-06 0 2.589269831887683e-05 1.5976574791921509e-05 0 1.9036040460184138e-05 1.0423253442463303e-05 0 2.7194624064715561e-05 3.1197985115045127e-05 0 1.5512634603708694e-05 3.1473047352852971e-05 0 3.1969896122372662e-05 4.7037332556980797e-05 0 1.4542478068860495e-05 4.4987475141813564e-05 0 1.5512634603708694e-05 3.1473047352852971e-05 0 2.589269831887683e-05 1.5976574791921509e-05 0 2.6046217211911226e-05 1.9398129736606701e-05 0 2.0373980663753913e-05 -1.9348011469797518e-06 0 1.692144722954238e-05 -4.8903494400104179e-06 0 2.0762436354165168e-05 -6.8408142929364699e-06 0 2.7194624064715561e-05 3.1197985115045127e-05 0 3.1969896122372662e-05 4.7037332556980797e-05 0 1.5512634603708694e-05 3.1473047352852971e-05 0 2.6046217211911226e-05 1.9398129736606701e-05 0 2.8909608976124174e-05 2.6789948287045314e-05 0 2.0762436354165168e-05 -6.8408142929364699e-06 0 1.8557994869553518e-05 -9.0300882326882675e-06 0 2.1422628364894503e-05 -1.0167294950597481e-05 0 3.1969896122372662e-05 4.7037332556980797e-05 0 2.4254350626861823e-05 5.7111379758411603e-05 0 1.4542478068860495e-05 4.4987475141813564e-05 0 1.692144722954238e-05 -4.8903494400104179e-06 0 1.3155245412585107e-05 -1.8559921734121567e-06 0 1.47983256311147e-05 -6.9062176082795772e-06 0 2.0762436354165168e-05 -6.8408142929364699e-06 0 1.692144722954238e-05 -4.8903494400104179e-06 0 1.8557994869553518e-05 -9.0300882326882675e-06 0 1.692144722954238e-05 -4.8903494400104179e-06 0 1.47983256311147e-05 -6.9062176082795772e-06 0 1.8557994869553518e-05 -9.0300882326882675e-06 0 1.6270052548782784e-05 -1.015575838707802e-05 0 1.8557994869553518e-05 -9.0300882326882675e-06 0 1.47983256311147e-05 -6.9062176082795772e-06 0 1.6270052548782784e-05 -1.015575838707802e-05 0 1.9099088791987415e-05 -1.2440423149694466e-05 0 1.8557994869553518e-05 -9.0300882326882675e-06 0 2.1422628364894503e-05 -1.0167294950597481e-05 0 1.8557994869553518e-05 -9.0300882326882675e-06 0 1.9099088791987415e-05 -1.2440423149694466e-05 0 2.1422628364894503e-05 -1.0167294950597481e-05 0 1.9099088791987415e-05 -1.2440423149694466e-05 0 2.2506537883189521e-05 -1.3100195533173129e-05 0 1.6270052548782784e-05 -1.015575838707802e-05 0 1.598371970864631e-05 -1.2496642367907339e-05 0 1.9099088791987415e-05 -1.2440423149694466e-05 0 1.3531609494558739e-05 6.1764793606952073e-05 0 2.4254350626861823e-05 5.7111379758411603e-05 0 2.6917713941895383e-05 6.7835875210664159e-05 0 3.6113843588453166e-05 6.2917490323934037e-05 0 2.6917713941895383e-05 6.7835875210664159e-05 0 2.4254350626861823e-05 5.7111379758411603e-05 0 3.1969896122372662e-05 4.7037332556980797e-05 0 3.6113843588453166e-05 6.2917490323934037e-05 0 2.4254350626861823e-05 5.7111379758411603e-05 0 2.8909608976124174e-05 2.6789948287045314e-05 0 3.1001216097387885e-05 3.3195048466556414e-05 0 3.6113843588453166e-05 6.2917490323934037e-05 0 3.9755809378040482e-05 7.9882321207348932e-05 0 2.6917713941895383e-05 6.7835875210664159e-05 0 3.9755809378040475e-05 7.9882321207348946e-05 0 2.161249192086005e-05 7.7266364052296367e-05 0 2.6917713941895383e-05 6.7835875210664159e-05 0 3.9755809378040475e-05 7.9882321207348946e-05 0 2.7591218668177678e-05 8.9386902407667486e-05 0 2.161249192086005e-05 7.7266364052296367e-05 0 3.9755809378040475e-05 7.9882321207348946e-05 0 4.3078924296892018e-05 9.7968614999007728e-05 0 2.7591218668177678e-05 8.9386902407667486e-05 0 2.2506537883189521e-05 -1.3100195533173129e-05 0 2.0999371335121055e-05 -1.5432949833035308e-05 0 2.3829317311551842e-05 -1.6114112753232544e-05 0 3.1001216097387885e-05 3.3195048466556414e-05 0 3.3164951753897383e-05 4.072365245088381e-05 0 4.3078924296892018e-05 9.7968614999007728e-05 0 2.451882486053646e-05 0.00010196223459114609 0 2.7591218668177678e-05 8.9386902407667486e-05 0 1.8052402159134227e-05 -1.5075311327142438e-05 0 2.0999371335121055e-05 -1.5432949833035308e-05 0 1.9099088791987415e-05 -1.2440423149694466e-05 0 1.8052402159134227e-05 -1.5075311327142438e-05 0 1.9099088791987415e-05 -1.2440423149694466e-05 0 1.598371970864631e-05 -1.2496642367907341e-05 0 2.2506537883189521e-05 -1.3100195533173129e-05 0 1.9099088791987412e-05 -1.2440423149694466e-05 0 2.0999371335121055e-05 -1.5432949833035308e-05 0 1.8052402159134227e-05 -1.5075311327142438e-05 0 1.8457876223818616e-05 -1.7526621211031967e-05 0 2.0999371335121055e-05 -1.5432949833035308e-05 0 2.2005384265475885e-05 -1.8864918061553741e-05 0 2.0999371335121055e-05 -1.5432949833035308e-05 0 1.8457876223818616e-05 -1.7526621211031967e-05 0 1.8052402159134227e-05 -1.5075311327142438e-05 0 1.4543197009553175e-05 -1.5309185735998994e-05 0 1.8457876223818616e-05 -1.7526621211031967e-05 0 1.6419543083014116e-05 -1.9208550611463697e-05 0 1.8457876223818616e-05 -1.7526621211031967e-05 0 1.4543197009553175e-05 -1.5309185735998994e-05 0 1.8052402159134227e-05 -1.5075311327142438e-05 0 1.598371970864631e-05 -1.2496642367907341e-05 0 1.4543197009553175e-05 -1.5309185735998994e-05 0 1.3284941495537782e-05 -1.2221499174942296e-05 0 1.0948879089242177e-05 -1.2263118370600754e-05 0 1.4543197009553175e-05 -1.5309185735998994e-05 0 1.3284941495537782e-05 -1.2221499174942296e-05 0 1.4543197009553175e-05 -1.5309185735998994e-05 0 1.598371970864631e-05 -1.2496642367907341e-05 0 1.0904598195433276e-05 -1.5006250130395229e-05 0 1.2858208503941622e-05 -1.8967380733793261e-05 0 1.4543197009553175e-05 -1.5309185735998994e-05 0 1.0904598195433276e-05 -1.5006250130395229e-05 0 9.3475006947513886e-06 -1.6645271715428068e-05 0 1.2858208503941624e-05 -1.8967380733793261e-05 0 1.0904598195433276e-05 -1.5006250130395229e-05 0 1.0948879089242177e-05 -1.2263118370600754e-05 0 8.5616711511511172e-06 -1.3484033282000519e-05 0 1.0904598195433276e-05 -1.5006250130395229e-05 0 1.4543197009553175e-05 -1.5309185735998994e-05 0 1.0948879089242177e-05 -1.2263118370600754e-05 0 1.3284941495537782e-05 -1.2221499174942296e-05 0 1.0336214160785787e-05 -8.3301858179560114e-06 0 1.0948879089242177e-05 -1.2263118370600754e-05 0 8.8767661570394034e-06 -1.0721007995408893e-05 0 8.5616711511511172e-06 -1.3484033282000519e-05 0 1.0948879089242177e-05 -1.2263118370600754e-05 0 8.8767661570394034e-06 -1.0721007995408893e-05 0 1.0948879089242177e-05 -1.2263118370600754e-05 0 1.0336214160785787e-05 -8.3301858179560114e-06 0 8.8767661570394034e-06 -1.0721007995408893e-05 0 1.0336214160785787e-05 -8.3301858179560114e-06 0 7.7808096469894774e-06 -8.203839683188177e-06 0 1.3284941495537782e-05 -1.2221499174942296e-05 0 1.3605735679730164e-05 -9.2623348176344842e-06 0 1.0336214160785787e-05 -8.3301858179560114e-06 0 1.6270052548782784e-05 -1.015575838707802e-05 0 1.3605735679730164e-05 -9.2623348176344842e-06 0 1.598371970864631e-05 -1.2496642367907341e-05 0 1.3284941495537782e-05 -1.2221499174942296e-05 0 1.598371970864631e-05 -1.2496642367907341e-05 0 1.3605735679730164e-05 -9.2623348176344842e-06 0 -4.6897168926781243e-05 4.9122629064723667e-05 0 -3.4498084538428924e-05 4.0570009651489487e-05 0 -3.497377423065835e-05 5.3955632493549364e-05 0 -5.1552230968413446e-05 6.4561726165151008e-05 0 -4.6897168926781243e-05 4.9122629064723667e-05 0 -3.497377423065835e-05 5.3955632493549364e-05 0 -2.4516947356154523e-05 4.0432005562964635e-05 0 -3.497377423065835e-05 5.3955632493549364e-05 0 -3.4498084538428924e-05 4.0570009651489487e-05 0 -4.6897168926781243e-05 4.9122629064723667e-05 0 -4.1272332147210093e-05 3.5547222032742551e-05 0 -3.4498084538428924e-05 4.0570009651489487e-05 0 -4.1272332147210093e-05 3.5547222032742551e-05 0 -3.5751910927044174e-05 2.4298703245223346e-05 0 -2.539219855474379e-05 2.6721125357742348e-05 0 -2.4516947356154523e-05 4.0432005562964635e-05 0 -3.4498084538428924e-05 4.0570009651489487e-05 0 -2.539219855474379e-05 2.6721125357742348e-05 0 -4.1272332147210093e-05 3.5547222032742551e-05 0 -2.539219855474379e-05 2.6721125357742348e-05 0 -3.4498084538428924e-05 4.0570009651489487e-05 0 -2.4516947356154523e-05 4.0432005562964635e-05 0 -2.539219855474379e-05 2.6721125357742348e-05 0 -1.6613737110146092e-05 3.2125603680644679e-05 0 -1.2027545276583224e-05 2.083399953225144e-05 0 -1.6613737110146092e-05 3.2125603680644679e-05 0 -2.539219855474379e-05 2.6721125357742348e-05 0 -7.6122139347989245e-06 3.3926498934063965e-05 0 -1.5982942604001868e-05 4.1523645286482338e-05 0 -1.6613737110146092e-05 3.2125603680644679e-05 0 -2.4516947356154523e-05 4.0432005562964635e-05 0 -1.6613737110146092e-05 3.2125603680644679e-05 0 -1.5982942604001868e-05 4.1523645286482338e-05 0 -2.4516947356154523e-05 4.0432005562964635e-05 0 -1.5982942604001865e-05 4.1523645286482345e-05 0 -2.1550243171324116e-05 5.2552812776358567e-05 0 -2.4516947356154523e-05 4.0432005562964635e-05 0 -2.1550243171324116e-05 5.2552812776358567e-05 0 -3.497377423065835e-05 5.3955632493549364e-05 0 -9.5146580974034584e-06 5.0362795529529855e-05 0 -2.1550243171324116e-05 5.2552812776358567e-05 0 -1.5982942604001868e-05 4.1523645286482338e-05 0 -9.5146580974034584e-06 5.0362795529529855e-05 0 2.3710200802234429e-06 4.6809453638873846e-05 0 -1.3273753952114527e-06 6.2313717538495009e-05 0 -9.5146580974034584e-06 5.0362795529529855e-05 0 -7.6122139347989245e-06 3.3926498934063965e-05 0 2.3710200802234429e-06 4.6809453638873846e-05 0 4.542900624554366e-06 2.9928694612092459e-05 0 2.371020080223442e-06 4.6809453638873846e-05 0 -7.6122139347989245e-06 3.3926498934063965e-05 0 -9.5146580974034584e-06 5.0362795529529855e-05 0 -1.5982942604001868e-05 4.1523645286482338e-05 0 -7.6122139347989245e-06 3.3926498934063965e-05 0 -1.2027545276583224e-05 2.083399953225144e-05 0 -7.6122139347989245e-06 3.3926498934063965e-05 0 -1.6613737110146092e-05 3.2125603680644679e-05 0 -1.2027545276583224e-05 2.083399953225144e-05 0 -2.2632171526996807e-06 2.0253375908442009e-05 0 -7.6122139347989245e-06 3.3926498934063965e-05 0 4.542900624554366e-06 2.9928694612092459e-05 0 -7.6122139347989245e-06 3.3926498934063965e-05 0 -2.2632171526996803e-06 2.0253375908442012e-05 0 4.542900624554366e-06 2.9928694612092459e-05 0 -2.2632171526996816e-06 2.0253375908442012e-05 0 4.6129054876122248e-06 1.9210599160154926e-05 0 4.542900624554366e-06 2.9928694612092459e-05 0 4.612905487612224e-06 1.9210599160154926e-05 0 1.0801364048546153e-05 1.7598964436874539e-05 0 4.542900624554366e-06 2.9928694612092459e-05 0 1.0801364048546153e-05 1.7598964436874539e-05 0 1.5512634603708694e-05 3.1473047352852971e-05 0 4.542900624554366e-06 2.9928694612092459e-05 0 1.5512634603708694e-05 3.1473047352852971e-05 0 1.4542478068860495e-05 4.4987475141813564e-05 0 4.542900624554366e-06 2.9928694612092459e-05 0 1.4542478068860495e-05 4.4987475141813564e-05 0 2.3710200802234429e-06 4.6809453638873846e-05 0 1.3531609494558739e-05 6.1764793606952073e-05 0 2.3710200802234429e-06 4.6809453638873846e-05 0 1.4542478068860495e-05 4.4987475141813564e-05 0 1.3531609494558739e-05 6.1764793606952073e-05 0 1.4542478068860495e-05 4.4987475141813564e-05 0 2.4254350626861823e-05 5.7111379758411603e-05 0 1.3531609494558739e-05 6.1764793606952073e-05 0 -1.3273753952114537e-06 6.2313717538495009e-05 0 2.3710200802234429e-06 4.6809453638873846e-05 0 1.3531609494558739e-05 6.1764793606952073e-05 0 7.3864009062876725e-06 7.294807348721804e-05 0 -1.3273753952114527e-06 6.2313717538495009e-05 0 1.3531609494558739e-05 6.1764793606952073e-05 0 2.161249192086005e-05 7.7266364052296367e-05 0 7.3864009062876725e-06 7.294807348721804e-05 0 1.3531609494558739e-05 6.1764793606952073e-05 0 2.6917713941895383e-05 6.7835875210664159e-05 0 2.161249192086005e-05 7.7266364052296367e-05 0 2.161249192086005e-05 7.7266364052296367e-05 0 2.7591218668177678e-05 8.9386902407667486e-05 0 9.7055386639800991e-06 8.9169135743102684e-05 0 2.7591218668177678e-05 8.9386902407667486e-05 0 2.451882486053646e-05 0.00010196223459114609 0 9.7055386639800991e-06 8.9169135743102684e-05 0 9.7055386639800991e-06 8.9169135743102684e-05 0 7.3864009062876725e-06 7.294807348721804e-05 0 2.161249192086005e-05 7.7266364052296367e-05 0 9.7055386639800991e-06 8.9169135743102684e-05 0 -6.1559810434835634e-06 7.5119236844861469e-05 0 7.3864009062876725e-06 7.294807348721804e-05 0 9.7055386639800991e-06 8.9169135743102684e-05 0 -8.8956223145872914e-06 9.0548646541026854e-05 0 -6.1559810434835634e-06 7.5119236844861469e-05 0 9.7055386639800991e-06 8.9169135743102684e-05 0 -5.0846763873752523e-06 0.00010594779852630425 0 -8.8956223145872914e-06 9.0548646541026854e-05 0 -2.1427945812720014e-05 8.922998304970297e-05 0 -6.1559810434835643e-06 7.5119236844861455e-05 0 -8.8956223145872914e-06 9.0548646541026854e-05 0 -2.1427945812720014e-05 8.922998304970297e-05 0 -1.6367964911857295e-05 6.7207255873432477e-05 0 -6.1559810434835634e-06 7.5119236844861469e-05 0 -6.1559810434835634e-06 7.5119236844861469e-05 0 -1.6367964911857295e-05 6.7207255873432477e-05 0 -1.3273753952114527e-06 6.2313717538495009e-05 0 -6.1559810434835634e-06 7.5119236844861469e-05 0 -1.3273753952114527e-06 6.2313717538495009e-05 0 7.3864009062876725e-06 7.294807348721804e-05 0 -9.5146580974034584e-06 5.0362795529529855e-05 0 -1.3273753952114527e-06 6.2313717538495009e-05 0 -1.6367964911857295e-05 6.7207255873432477e-05 0 -9.5146580974034584e-06 5.0362795529529855e-05 0 -1.6367964911857295e-05 6.7207255873432477e-05 0 -2.1550243171324116e-05 5.2552812776358567e-05 0 -2.8280298408636702e-05 6.4663977689774952e-05 0 -2.1550243171324116e-05 5.2552812776358567e-05 0 -1.6367964911857295e-05 6.7207255873432477e-05 0 -2.8280298408636702e-05 6.4663977689774952e-05 0 -3.497377423065835e-05 5.3955632493549364e-05 0 -2.1550243171324116e-05 5.2552812776358567e-05 0 -2.8280298408636702e-05 6.4663977689774952e-05 0 -2.9171462645654438e-05 7.6682460249721929e-05 0 -4.0658229553853068e-05 7.3781347384777157e-05 0 -2.8280298408636702e-05 6.4663977689774952e-05 0 -1.6367964911857295e-05 6.7207255873432477e-05 0 -2.9171462645654438e-05 7.6682460249721929e-05 0 -2.1427945812720014e-05 8.922998304970297e-05 0 -2.9171462645654441e-05 7.6682460249721942e-05 0 -1.6367964911857295e-05 6.7207255873432477e-05 0 -2.1427945812720014e-05 8.922998304970297e-05 0 -8.8956223145872914e-06 9.0548646541026854e-05 0 -2.0263401448592717e-05 0.00010598408085978106 0 -2.1427945812720014e-05 8.922998304970297e-05 0 -3.1977724853819053e-05 0.00010170611447848479 0 -3.9707637395028601e-05 8.9800647621584846e-05 0 -2.1427945812720014e-05 8.922998304970297e-05 0 -3.9707637395028601e-05 8.9800647621584846e-05 0 -2.9171462645654438e-05 7.6682460249721929e-05 0 -3.9707637395028601e-05 8.9800647621584846e-05 0 -4.0658229553853068e-05 7.3781347384777157e-05 0 -2.9171462645654438e-05 7.6682460249721929e-05 0 -5.8693482257260644e-05 9.9982197873372072e-05 0 -5.5601015895446436e-05 8.1685688093360991e-05 0 -3.9707637395028601e-05 8.9800647621584846e-05 0 -5.8693482257260644e-05 9.9982197873372072e-05 0 -3.9707637395028601e-05 8.9800647621584846e-05 0 -4.4838503340278366e-05 0.00010729275796171718 0 -5.5601015895446436e-05 8.1685688093360991e-05 0 -4.0658229553853068e-05 7.3781347384777157e-05 0 -3.9707637395028601e-05 8.9800647621584846e-05 0 -5.5601015895446436e-05 8.1685688093360991e-05 0 -5.1552230968413446e-05 6.4561726165151008e-05 0 -4.0658229553853068e-05 7.3781347384777157e-05 0 -2.8280298408636702e-05 6.4663977689774952e-05 0 -4.0658229553853068e-05 7.3781347384777157e-05 0 -3.497377423065835e-05 5.3955632493549364e-05 0 -5.1552230968413446e-05 6.4561726165151008e-05 0 -3.497377423065835e-05 5.3955632493549364e-05 0 -4.0658229553853068e-05 7.3781347384777157e-05 0 -6.2792359624509511e-05 0.00013910292005024882 0 -3.8138781411117574e-05 0.00013940663176572265 0 -4.5711054978852237e-05 0.00015884083948089278 0 -6.2792359624509511e-05 0.00013910292005024882 0 -4.7738208800924673e-05 0.0001246832108943861 0 -3.8138781411117574e-05 0.00013940663176572265 0 -3.3930438442728943e-05 0.00011719859220452897 0 -3.8138781411117574e-05 0.00013940663176572265 0 -4.773820880092468e-05 0.0001246832108943861 0 -6.2792359624509511e-05 0.00013910292005024882 0 -6.1152531921493858e-05 0.00011920757517494668 0 -4.773820880092468e-05 0.0001246832108943861 0 -6.1152531921493858e-05 0.00011920757517494668 0 -4.4838503340278366e-05 0.00010729275796171718 0 -4.773820880092468e-05 0.0001246832108943861 0 -6.1152531921493858e-05 0.00011920757517494668 0 -5.8693482257260644e-05 9.9982197873372072e-05 0 -4.4838503340278366e-05 0.00010729275796171718 0 -3.9707637395028601e-05 8.9800647621584846e-05 0 -3.1977724853819053e-05 0.00010170611447848479 0 -4.4838503340278366e-05 0.00010729275796171718 0 -3.3930438442728943e-05 0.00011719859220452897 0 -4.773820880092468e-05 0.0001246832108943861 0 -4.4838503340278366e-05 0.00010729275796171718 0 -3.3930438442728943e-05 0.00011719859220452897 0 -3.1977724853819053e-05 0.00010170611447848479 0 -2.0263401448592717e-05 0.00010598408085978106 0 -3.3930438442728943e-05 0.00011719859220452897 0 -4.4838503340278366e-05 0.00010729275796171718 0 -3.1977724853819053e-05 0.00010170611447848479 0 -2.1427945812720014e-05 8.922998304970297e-05 0 -2.0263401448592717e-05 0.00010598408085978106 0 -3.1977724853819053e-05 0.00010170611447848479 0 -3.3930438442728943e-05 0.00011719859220452897 0 -2.0263401448592717e-05 0.00010598408085978106 0 -2.0481459051194043e-05 0.00012294208106915298 0 -3.8138781411117574e-05 0.00013940663176572265 0 -2.0481459051194043e-05 0.00012294208106915298 0 -1.9665267921733866e-05 0.00014109451716606497 0 -3.3930438442728943e-05 0.00011719859220452897 0 -2.0481459051194043e-05 0.00012294208106915298 0 -3.8138781411117574e-05 0.00013940663176572265 0 -2.6949143120948855e-05 0.00016089840002800099 0 -3.8138781411117574e-05 0.00013940663176572265 0 -1.9665267921733866e-05 0.00014109451716606497 0 -7.0154742122114034e-06 0.00012922044912551292 0 -5.6846563615050616e-06 0.000151469330189732 0 -1.9665267921733866e-05 0.00014109451716606497 0 -7.0154742122114034e-06 0.00012922044912551292 0 8.1480834138977684e-06 0.00013762488968807303 0 -5.684656361505065e-06 0.000151469330189732 0 -7.0154742122114034e-06 0.00012922044912551292 0 4.5874117532829768e-06 0.0001184852913969118 0 8.1480834138977684e-06 0.00013762488968807303 0 -7.0154742122114034e-06 0.00012922044912551292 0 -1.9665267921733866e-05 0.00014109451716606497 0 -2.0481459051194043e-05 0.00012294208106915298 0 -5.0846763873752523e-06 0.00010594779852630425 0 -2.0481459051194043e-05 0.00012294208106915298 0 -2.0263401448592717e-05 0.00010598408085978106 0 -7.0154742122114034e-06 0.00012922044912551292 0 -2.0481459051194043e-05 0.00012294208106915298 0 -5.0846763873752523e-06 0.00010594779852630425 0 -5.0846763873752523e-06 0.00010594779852630425 0 -2.0263401448592717e-05 0.00010598408085978106 0 -8.8956223145872914e-06 9.0548646541026854e-05 0 -5.0846763873752523e-06 0.00010594779852630425 0 1.0460043662046456e-05 0.00010687908403297461 0 4.5874117532829785e-06 0.0001184852913969118 0 -7.0154742122114034e-06 0.00012922044912551292 0 -5.084676387375254e-06 0.00010594779852630425 0 4.5874117532829785e-06 0.0001184852913969118 0 1.8963581873394029e-05 0.00011908051389518494 0 4.5874117532829785e-06 0.0001184852913969118 0 1.0460043662046456e-05 0.00010687908403297461 0 9.7055386639800991e-06 8.9169135743102684e-05 0 2.451882486053646e-05 0.00010196223459114609 0 1.0460043662046456e-05 0.00010687908403297461 0 9.7055386639800991e-06 8.9169135743102684e-05 0 1.0460043662046456e-05 0.00010687908403297461 0 -5.0846763873752523e-06 0.00010594779852630425 0 1.8963581873394029e-05 0.00011908051389518494 0 1.0460043662046456e-05 0.00010687908403297461 0 2.451882486053646e-05 0.00010196223459114609 0 1.8963581873394029e-05 0.00011908051389518494 0 2.451882486053646e-05 0.00010196223459114609 0 3.3317841438194328e-05 0.0001124360849610933 0 1.8963581873394029e-05 0.00011908051389518494 0 2.5984119745399578e-05 0.00014085374507121718 0 8.1480834138977684e-06 0.00013762488968807303 0 1.8963581873394029e-05 0.00011908051389518494 0 3.3699556803654992e-05 0.00012563793987700587 0 2.5984119745399578e-05 0.00014085374507121718 0 1.8963581873394029e-05 0.00011908051389518494 0 8.1480834138977684e-06 0.00013762488968807303 0 4.5874117532829785e-06 0.0001184852913969118 0 1.3890509177366746e-05 0.00016105160026827801 0 8.1480834138977684e-06 0.00013762488968807303 0 2.5984119745399578e-05 0.00014085374507121718 0 1.3890509177366746e-05 0.00016105160026827801 0 2.5984119745399578e-05 0.00014085374507121718 0 3.360489863954094e-05 0.00015985383973088048 0 1.3890509177366746e-05 0.00016105160026827801 0 3.129723488015746e-05 0.00017892012811388823 0 1.1720866429068782e-05 0.00018272121805261023 0 1.3890509177366746e-05 0.00016105160026827801 0 3.3604898639540946e-05 0.00015985383973088048 0 3.1297234880157467e-05 0.00017892012811388823 0 3.1297234880157467e-05 0.00017892012811388823 0 2.4446190761451915e-05 0.00019196478128868819 0 1.1720866429068782e-05 0.00018272121805261023 0 3.1297234880157467e-05 0.00017892012811388823 0 4.2622078738439921e-05 0.00019106970596815257 0 2.4446190761451915e-05 0.00019196478128868819 0 3.6763351982264617e-05 0.00020400153491359572 0 2.4446190761451915e-05 0.00019196478128868819 0 4.2622078738439921e-05 0.00019106970596815257 0 3.6763351982264617e-05 0.00020400153491359572 0 1.4481081990614838e-05 0.00020237461767784882 0 2.4446190761451915e-05 0.00019196478128868819 0 1.4481081990614838e-05 0.00020237461767784882 0 1.1720866429068782e-05 0.00018272121805261023 0 2.4446190761451915e-05 0.00019196478128868819 0 -5.7961528429004523e-06 0.00020086361088944847 0 -2.3750040637206441e-05 0.00018144221787296663 0 -6.4414658434458298e-06 0.00017488740933317939 0 -5.7961528429004523e-06 0.00020086361088944847 0 -6.4414658434458298e-06 0.00017488740933317939 0 1.1720866429068782e-05 0.00018272121805261023 0 1.4481081990614838e-05 0.00020237461767784882 0 -5.7961528429004523e-06 0.00020086361088944847 0 1.1720866429068782e-05 0.00018272121805261023 0 -2.6949143120948855e-05 0.00016089840002800099 0 -5.684656361505065e-06 0.000151469330189732 0 -6.4414658434458298e-06 0.00017488740933317939 0 1.3890509177366746e-05 0.00016105160026827801 0 1.1720866429068782e-05 0.00018272121805261023 0 -6.4414658434458298e-06 0.00017488740933317939 0 1.3890509177366746e-05 0.00016105160026827801 0 -6.4414658434458298e-06 0.00017488740933317939 0 -5.684656361505065e-06 0.000151469330189732 0 1.3890509177366746e-05 0.00016105160026827801 0 -5.684656361505065e-06 0.000151469330189732 0 8.1480834138977684e-06 0.00013762488968807303 0 -2.6949143120948855e-05 0.00016089840002800099 0 -1.9665267921733866e-05 0.00014109451716606497 0 -5.684656361505065e-06 0.000151469330189732 0 -2.6949143120948855e-05 0.00016089840002800099 0 -4.5711054978852237e-05 0.00015884083948089278 0 -3.8138781411117574e-05 0.00013940663176572265 0 -2.6949143120948855e-05 0.00016089840002800099 0 -2.3750040637206434e-05 0.00018144221787296663 0 -4.2167030079702358e-05 0.000177128976764205 0 -2.6949143120948855e-05 0.00016089840002800099 0 -4.2167030079702358e-05 0.000177128976764205 0 -4.5711054978852237e-05 0.00015884083948089278 0 -2.6949143120948855e-05 0.00016089840002800099 0 -6.4414658434458264e-06 0.00017488740933317937 0 -2.3750040637206434e-05 0.00018144221787296663 0 -5.7961528429004523e-06 0.00020086361088944847 0 -2.505915481148704e-05 0.00019991938475210819 0 -2.3750040637206434e-05 0.00018144221787296663 0 -2.505915481148704e-05 0.00019991938475210819 0 -4.4547911845804964e-05 0.00019947705669337969 0 -3.4862755373284104e-05 0.00018943184760864703 0 -2.505915481148704e-05 0.00019991938475210819 0 -3.4862755373284104e-05 0.00018943184760864703 0 -2.3750040637206434e-05 0.00018144221787296663 0 -4.2167030079702358e-05 0.000177128976764205 0 -2.3750040637206434e-05 0.00018144221787296663 0 -3.4862755373284104e-05 0.00018943184760864703 0 -4.2167030079702358e-05 0.000177128976764205 0 -3.4862755373284104e-05 0.00018943184760864703 0 -5.1071597356096858e-05 0.00018823607959714175 0 -4.4547911845804964e-05 0.00019947705669337969 0 -5.1071597356096858e-05 0.00018823607959714175 0 -3.4862755373284104e-05 0.00018943184760864703 0 -6.4183821192163225e-05 0.00019944041128743895 0 -5.1071597356096858e-05 0.00018823607959714175 0 -4.4547911845804964e-05 0.00019947705669337969 0 -6.4183821192163225e-05 0.00019944041128743895 0 -6.4139643119682241e-05 0.00017960871170450289 0 -5.1071597356096858e-05 0.00018823607959714175 0 -6.4139643119682241e-05 0.00017960871170450289 0 -4.2167030079702358e-05 0.000177128976764205 0 -5.1071597356096858e-05 0.00018823607959714175 0 -6.4139643119682241e-05 0.00017960871170450289 0 -6.3725865746291555e-05 0.00015944498161819248 0 -4.5711054978852237e-05 0.00015884083948089278 0 -6.4139643119682241e-05 0.00017960871170450289 0 -4.5711054978852237e-05 0.00015884083948089278 0 -4.2167030079702358e-05 0.000177128976764205 0 -6.3725865746291555e-05 0.00015944498161819248 0 -6.2792359624509511e-05 0.00013910292005024882 0 -4.5711054978852237e-05 0.00015884083948089278 0 1.6107153142796042e-05 -2.6577644771613562e-05 0 1.7136630789409289e-05 -2.2454110314380601e-05 0 1.3958701243245228e-05 -2.3184843268200382e-05 0 2.0850408079167367e-05 -2.4119674492005272e-05 0 1.7136630789409289e-05 -2.2454110314380601e-05 0 1.9892230583618265e-05 -2.7053461753952233e-05 0 2.0850408079167367e-05 -2.4119674492005272e-05 0 1.9603303575355133e-05 -2.1036859563293935e-05 0 1.7136630789409289e-05 -2.2454110314380601e-05 0 1.6107153142796042e-05 -2.6577644771613562e-05 0 1.9892230583618265e-05 -2.7053461753952233e-05 0 1.7136630789409289e-05 -2.2454110314380601e-05 0 1.6107153142796042e-05 -2.6577644771613562e-05 0 1.3958701243245228e-05 -2.3184843268200382e-05 0 1.2134870500165552e-05 -2.6006355086526227e-05 0 1.3958701243245228e-05 -2.3184843268200382e-05 0 1.1196957639080276e-05 -2.1961986183002389e-05 0 1.2134870500165552e-05 -2.6006355086526227e-05 0 9.9372134520592284e-06 -2.4145687475665002e-05 0 1.2134870500165552e-05 -2.6006355086526227e-05 0 1.1196957639080276e-05 -2.1961986183002389e-05 0 1.3958701243245228e-05 -2.3184843268200382e-05 0 1.2858208503941624e-05 -1.8967380733793261e-05 0 1.1196957639080276e-05 -2.1961986183002389e-05 0 1.0142120773605738e-05 -1.9408434721204721e-05 0 1.1196957639080276e-05 -2.1961986183002389e-05 0 1.2858208503941624e-05 -1.8967380733793261e-05 0 1.0142120773605738e-05 -1.9408434721204721e-05 0 1.2858208503941624e-05 -1.8967380733793261e-05 0 9.3475006947513886e-06 -1.6645271715428068e-05 0 1.6419543083014116e-05 -1.9208550611463697e-05 0 1.4543197009553175e-05 -1.5309185735998994e-05 0 1.2858208503941624e-05 -1.8967380733793261e-05 0 1.7136630789409289e-05 -2.2454110314380601e-05 0 1.6419543083014116e-05 -1.9208550611463697e-05 0 1.2858208503941624e-05 -1.8967380733793261e-05 0 1.3958701243245228e-05 -2.3184843268200382e-05 0 1.7136630789409289e-05 -2.2454110314380601e-05 0 1.2858208503941624e-05 -1.8967380733793261e-05 0 1.6419543083014116e-05 -1.9208550611463697e-05 0 1.7136630789409289e-05 -2.2454110314380601e-05 0 1.9603303575355133e-05 -2.1036859563293935e-05 0 1.6419543083014116e-05 -1.9208550611463697e-05 0 1.9603303575355133e-05 -2.1036859563293935e-05 0 1.8457876223818616e-05 -1.7526621211031967e-05 0 2.2005384265475885e-05 -1.8864918061553741e-05 0 1.8457876223818616e-05 -1.7526621211031967e-05 0 1.9603303575355133e-05 -2.1036859563293935e-05 0 2.3829317311551842e-05 -1.6114112753232544e-05 0 2.0999371335121055e-05 -1.5432949833035308e-05 0 2.2005384265475885e-05 -1.8864918061553741e-05 0 2.5559725505262099e-05 -1.9478000755184566e-05 0 2.2005384265475885e-05 -1.8864918061553741e-05 0 2.3746704267074108e-05 -2.257603610099823e-05 0 2.2005384265475885e-05 -1.8864918061553741e-05 0 1.9603303575355133e-05 -2.1036859563293935e-05 0 2.3746704267074108e-05 -2.257603610099823e-05 0 4.3078924296892018e-05 9.7968614999007728e-05 0 3.3317841438194328e-05 0.0001124360849610933 0 2.451882486053646e-05 0.00010196223459114609 0 4.3078924296892018e-05 9.7968614999007728e-05 0 4.6200201981735006e-05 0.00011702904047264418 0 3.3317841438194328e-05 0.0001124360849610933 0 2.3829317311551842e-05 -1.6114112753232544e-05 0 2.2005384265475885e-05 -1.8864918061553741e-05 0 2.5559725505262099e-05 -1.9478000755184566e-05 0 3.3164951753897383e-05 4.072365245088381e-05 0 3.5571276807172916e-05 4.9392610598840387e-05 0 1.8963581873394029e-05 0.00011908051389518494 0 3.3317841438194328e-05 0.0001124360849610933 0 3.3699556803654992e-05 0.00012563793987700587 0 4.6200201981735006e-05 0.00011702904047264418 0 3.3699556803654992e-05 0.00012563793987700587 0 3.3317841438194328e-05 0.0001124360849610933 0 4.9126583218712559e-05 0.00013738114661001921 0 2.5984119745399578e-05 0.00014085374507121718 0 3.3699556803654992e-05 0.00012563793987700587 0 3.5571276807172916e-05 4.9392610598840387e-05 0 3.722871669004183e-05 5.561481312588104e-05 0 2.5559725505262099e-05 -1.9478000755184566e-05 0 2.3746704267074108e-05 -2.257603610099823e-05 0 2.77470371558794e-05 -2.3511504915854867e-05 0 4.6200201981735006e-05 0.00011702904047264418 0 4.9126583218712559e-05 0.00013738114661001921 0 3.3699556803654992e-05 0.00012563793987700587 0 3.722871669004183e-05 5.561481312588104e-05 0 4.2370003998587861e-05 6.7134885048322754e-05 0 4.9126583218712559e-05 0.00013738114661001921 0 3.360489863954094e-05 0.00015985383973088048 0 2.5984119745399578e-05 0.00014085374507121718 0 2.0850408079167367e-05 -2.4119674492005272e-05 0 2.3746704267074108e-05 -2.257603610099823e-05 0 1.9603303575355133e-05 -2.1036859563293935e-05 0 2.77470371558794e-05 -2.3511504915854867e-05 0 2.3746704267074108e-05 -2.257603610099823e-05 0 2.4617827473834687e-05 -2.7511927314122169e-05 0 2.0850408079167367e-05 -2.4119674492005272e-05 0 1.9892230583618265e-05 -2.7053461753952233e-05 0 2.4617827473834687e-05 -2.7511927314122169e-05 0 2.0850408079167367e-05 -2.4119674492005272e-05 0 2.4617827473834687e-05 -2.7511927314122169e-05 0 2.3746704267074108e-05 -2.257603610099823e-05 0 2.3088797155707295e-05 -3.1724403961443448e-05 0 2.7898899575157488e-05 -3.2017067234640979e-05 0 2.4617827473834687e-05 -2.7511927314122169e-05 0 2.3088797155707295e-05 -3.1724403961443448e-05 0 2.4617827473834687e-05 -2.7511927314122169e-05 0 1.9892230583618265e-05 -2.7053461753952233e-05 0 2.77470371558794e-05 -2.3511504915854867e-05 0 2.4617827473834687e-05 -2.7511927314122169e-05 0 3.0660788161487214e-05 -2.8261262547654383e-05 0 3.0660788161487214e-05 -2.8261262547654383e-05 0 2.4617827473834687e-05 -2.7511927314122169e-05 0 2.7898899575157488e-05 -3.2017067234640979e-05 0 2.3088797155707295e-05 -3.1724403961443448e-05 0 2.8568734027661399e-05 -3.6975715681371287e-05 0 2.7898899575157488e-05 -3.2017067234640979e-05 0 4.9126583218712559e-05 0.00013738114661001921 0 5.2111615666318561e-05 0.00015813686639666491 0 3.360489863954094e-05 0.00015985383973088048 0 4.2370003998587861e-05 6.7134885048322754e-05 0 3.6243228475332083e-05 7.0454169733572656e-05 0 3.0660788161487214e-05 -2.8261262547654383e-05 0 2.7898899575157488e-05 -3.2017067234640979e-05 0 3.4559251121333972e-05 -3.4496448553301527e-05 0 5.2111615666318561e-05 0.00015813686639666491 0 5.5520123093313907e-05 0.00018014657273064972 0 3.360489863954094e-05 0.00015985383973088048 0 5.5520123093313907e-05 0.00018014657273064972 0 3.129723488015746e-05 0.00017892012811388821 0 3.360489863954094e-05 0.00015985383973088048 0 5.5520123093313907e-05 0.00018014657273064972 0 4.2622078738439921e-05 0.00019106970596815257 0 3.1297234880157467e-05 0.00017892012811388823 0 3.6243228475332083e-05 7.0454169733572656e-05 0 7.631356970962816e-05 8.2288158252653314e-05 0 6.069754798468472e-05 0.00020299134092803997 0 4.2622078738439921e-05 0.00019106970596815257 0 5.5520123093313907e-05 0.00018014657273064972 0 6.069754798468472e-05 0.00020299134092803997 0 3.6763351982264617e-05 0.00020400153491359572 0 4.2622078738439921e-05 0.00019106970596815257 0 2.3088797155707295e-05 -3.1724403961443448e-05 0 2.0733865512574842e-05 -3.5860026707618151e-05 0 2.8568734027661399e-05 -3.6975715681371287e-05 0 3.4559251121333972e-05 -3.4496448553301527e-05 0 2.7898899575157488e-05 -3.2017067234640979e-05 0 2.8568734027661399e-05 -3.6975715681371287e-05 0 3.9439207531333284e-05 -4.260557025287145e-05 0 3.4559251121333972e-05 -3.4496448553301527e-05 0 2.8568734027661399e-05 -3.6975715681371287e-05 0 3.9439207531333284e-05 -4.260557025287145e-05 0 2.8568734027661399e-05 -3.6975715681371287e-05 0 2.9818504760771942e-05 -4.319724168809994e-05 0 2.9818504760771942e-05 -4.319724168809994e-05 0 2.8568734027661399e-05 -3.6975715681371287e-05 0 2.0733865512574842e-05 -3.5860026707618151e-05 0 1.6432901679637247e-05 -3.803115203174949e-05 0 2.0733865512574842e-05 -3.5860026707618151e-05 0 1.610639293107039e-05 -3.2351029227951327e-05 0 2.2315981990956045e-05 -4.1061545365900042e-05 0 2.9818504760771942e-05 -4.319724168809994e-05 0 2.0733865512574842e-05 -3.5860026707618151e-05 0 1.6432901679637247e-05 -3.803115203174949e-05 0 2.2315981990956045e-05 -4.1061545365900042e-05 0 2.0733865512574842e-05 -3.5860026707618151e-05 0 2.3088797155707295e-05 -3.1724403961443448e-05 0 1.8242416594157729e-05 -3.050626690457283e-05 0 2.0733865512574842e-05 -3.5860026707618151e-05 0 1.610639293107039e-05 -3.2351029227951327e-05 0 2.0733865512574842e-05 -3.5860026707618151e-05 0 1.8242416594157729e-05 -3.050626690457283e-05 0 1.6107153142796042e-05 -2.6577644771613562e-05 0 1.3725606868316518e-05 -2.9346515792441591e-05 0 1.8242416594157729e-05 -3.050626690457283e-05 0 1.6107153142796042e-05 -2.6577644771613562e-05 0 1.8242416594157729e-05 -3.050626690457283e-05 0 1.9892230583618265e-05 -2.7053461753952233e-05 0 2.3088797155707295e-05 -3.1724403961443448e-05 0 1.9892230583618265e-05 -2.7053461753952233e-05 0 1.8242416594157729e-05 -3.050626690457283e-05 0 1.1078501507944498e-05 -2.9114720727754583e-05 0 1.3725606868316518e-05 -2.9346515792441591e-05 0 1.2134870500165552e-05 -2.6006355086526227e-05 0 1.6107153142796042e-05 -2.6577644771613562e-05 0 1.2134870500165552e-05 -2.6006355086526227e-05 0 1.3725606868316518e-05 -2.9346515792441591e-05 0 1.610639293107039e-05 -3.2351029227951327e-05 0 1.3725606868316518e-05 -2.9346515792441591e-05 0 1.2943136201461877e-05 -3.2614224232743962e-05 0 1.610639293107039e-05 -3.2351029227951327e-05 0 1.8242416594157729e-05 -3.050626690457283e-05 0 1.3725606868316518e-05 -2.9346515792441591e-05 0 1.1078501507944498e-05 -2.9114720727754583e-05 0 1.2943136201461877e-05 -3.2614224232743962e-05 0 1.3725606868316518e-05 -2.9346515792441591e-05 0 1.6432901679637247e-05 -3.803115203174949e-05 0 1.610639293107039e-05 -3.2351029227951327e-05 0 1.2943136201461877e-05 -3.2614224232743962e-05 0 1.253809863605772e-05 -3.5001512812640828e-05 0 1.6432901679637247e-05 -3.803115203174949e-05 0 1.2943136201461877e-05 -3.2614224232743962e-05 0 1.253809863605772e-05 -3.5001512812640828e-05 0 1.2943136201461877e-05 -3.2614224232743962e-05 0 1.0706816893424551e-05 -3.1613841708340922e-05 0 9.7566650532577016e-06 -3.2015646361546613e-05 0 1.2538098636057722e-05 -3.5001512812640828e-05 0 1.0706816893424551e-05 -3.1613841708340922e-05 0 9.7566650532577016e-06 -3.2015646361546613e-05 0 1.0706816893424551e-05 -3.1613841708340922e-05 0 8.5309057025482951e-06 -2.9045278419769177e-05 0 1.1078501507944498e-05 -2.9114720727754583e-05 0 8.5309057025482951e-06 -2.9045278419769177e-05 0 1.0706816893424551e-05 -3.1613841708340922e-05 0 1.1078501507944498e-05 -2.9114720727754583e-05 0 1.0706816893424551e-05 -3.1613841708340922e-05 0 1.2943136201461877e-05 -3.2614224232743962e-05 0 8.6960006838839114e-06 -2.7228730995477241e-05 0 8.6504643198459965e-06 -2.9272156840139482e-05 0 7.4080994006582181e-06 -2.8505150433439318e-05 0 8.6504643198459965e-06 -2.9272156840139482e-05 0 9.7566650532577016e-06 -3.2015646361546613e-05 0 7.4080994006582181e-06 -2.8505150433439318e-05 0 9.7566650532577016e-06 -3.2015646361546613e-05 0 8.5309057025482951e-06 -2.9045278419769177e-05 0 7.4080994006582181e-06 -2.8505150433439318e-05 0 6.0058301267402648e-06 -2.6728896048543414e-05 0 7.4080994006582181e-06 -2.8505150433439318e-05 0 6.9702054256559722e-06 -2.6865712409796321e-05 0 8.5309057025482951e-06 -2.9045278419769177e-05 0 6.9702054256559714e-06 -2.6865712409796321e-05 0 7.4080994006582181e-06 -2.8505150433439318e-05 0 6.9702054256559722e-06 -2.6865712409796321e-05 0 8.8034512769840502e-06 -2.6462446722769201e-05 0 6.9618012009058646e-06 -2.4779594003528332e-05 0 6.9618012009058646e-06 -2.4779594003528332e-05 0 5.563030189138274e-06 -2.4841948577399929e-05 0 6.9702054256559722e-06 -2.6865712409796321e-05 0 6.0058301267402648e-06 -2.6728896048543414e-05 0 6.9702054256559722e-06 -2.6865712409796321e-05 0 5.563030189138274e-06 -2.4841948577399929e-05 0 1.1078501507944498e-05 -2.9114720727754583e-05 0 8.8034512769840502e-06 -2.6462446722769201e-05 0 8.5309057025482951e-06 -2.9045278419769177e-05 0 8.5309057025482951e-06 -2.9045278419769177e-05 0 8.8034512769840502e-06 -2.6462446722769201e-05 0 6.9702054256559722e-06 -2.6865712409796321e-05 0 1.1078501507944498e-05 -2.9114720727754583e-05 0 1.2134870500165552e-05 -2.6006355086526227e-05 0 8.8034512769840502e-06 -2.6462446722769201e-05 0 9.9372134520592284e-06 -2.4145687475665002e-05 0 8.8034512769840502e-06 -2.6462446722769201e-05 0 1.2134870500165552e-05 -2.6006355086526227e-05 0 9.9372134520592284e-06 -2.4145687475665002e-05 0 1.1196957639080276e-05 -2.1961986183002389e-05 0 9.0169919369117359e-06 -2.1810841358209082e-05 0 9.9372134520592284e-06 -2.4145687475665002e-05 0 9.0169919369117359e-06 -2.1810841358209082e-05 0 8.2058779253914867e-06 -2.4056973227169926e-05 0 7.1442360298121541e-06 -2.2112369241438838e-05 0 8.2058779253914867e-06 -2.4056973227169926e-05 0 9.0169919369117359e-06 -2.1810841358209082e-05 0 9.9372134520592284e-06 -2.4145687475665002e-05 0 8.2058779253914867e-06 -2.4056973227169926e-05 0 8.8034512769840502e-06 -2.6462446722769201e-05 0 6.9618012009058646e-06 -2.4779594003528332e-05 0 8.2058779253914867e-06 -2.4056973227169926e-05 0 7.1442360298121541e-06 -2.2112369241438838e-05 0 6.9618012009058646e-06 -2.4779594003528332e-05 0 8.8034512769840502e-06 -2.6462446722769201e-05 0 8.2058779253914867e-06 -2.4056973227169926e-05 0 6.9618012009058646e-06 -2.4779594003528332e-05 0 5.4811045008968704e-06 -2.1687517746256665e-05 0 5.563030189138274e-06 -2.4841948577399929e-05 0 4.4957682189007771e-06 -2.308834983035717e-05 0 5.563030189138274e-06 -2.4841948577399929e-05 0 5.4811045008968704e-06 -2.1687517746256665e-05 0 6.9618012009058646e-06 -2.4779594003528332e-05 0 7.1442360298121541e-06 -2.2112369241438838e-05 0 5.4811045008968704e-06 -2.1687517746256665e-05 0 5.4875132055298326e-06 -1.91157911991707e-05 0 7.1442360298121541e-06 -2.2112369241438838e-05 0 7.8655721125319013e-06 -1.9449488430109607e-05 0 5.4875132055298326e-06 -1.91157911991707e-05 0 5.4811045008968704e-06 -2.1687517746256665e-05 0 7.1442360298121541e-06 -2.2112369241438838e-05 0 5.4875132055298326e-06 -1.91157911991707e-05 0 3.2410938159284035e-06 -1.9970565575788778e-05 0 5.4811045008968704e-06 -2.1687517746256665e-05 0 5.4875132055298326e-06 -1.91157911991707e-05 0 7.8655721125319013e-06 -1.9449488430109607e-05 0 7.2376841134139472e-06 -1.6358195208758678e-05 0 7.2376841134139472e-06 -1.6358195208758678e-05 0 7.8655721125319013e-06 -1.9449488430109607e-05 0 9.3475006947513886e-06 -1.6645271715428068e-05 0 1.0142120773605738e-05 -1.9408434721204721e-05 0 9.3475006947513886e-06 -1.6645271715428068e-05 0 7.8655721125319013e-06 -1.9449488430109607e-05 0 1.0142120773605738e-05 -1.9408434721204721e-05 0 7.8655721125319013e-06 -1.9449488430109607e-05 0 9.0169919369117359e-06 -2.1810841358209082e-05 0 1.0142120773605738e-05 -1.9408434721204721e-05 0 9.0169919369117359e-06 -2.1810841358209082e-05 0 1.1196957639080276e-05 -2.1961986183002389e-05 0 7.1442360298121541e-06 -2.2112369241438838e-05 0 9.0169919369117359e-06 -2.1810841358209082e-05 0 7.8655721125319013e-06 -1.9449488430109607e-05 0 1.7255103523486258e-05 -5.7207444852391384e-05 0 9.2172532339482541e-06 -5.18765372376698e-05 0 1.0856934429287909e-05 -6.0947930421975377e-05 0 8.1125023110819787e-06 -3.3020967008041796e-05 0 9.2448953625322239e-06 -3.9691764528345061e-05 0 1.5686587400251529e-05 -4.7315677908903495e-05 0 9.2172532339482541e-06 -5.18765372376698e-05 0 1.7255103523486258e-05 -5.7207444852391384e-05 0 6.5378882742315131e-07 -1.8742119487704546e-05 0 1.3554650788556167e-06 -2.1992187239415323e-05 0 3.2410938159284035e-06 -1.9970565575788778e-05 0 6.5378882742315131e-07 -1.8742119487704546e-05 0 3.2410938159284035e-06 -1.9970565575788778e-05 0 2.3579069229554343e-06 -1.6771035601570492e-05 0 5.4875132055298326e-06 -1.91157911991707e-05 0 3.9850127785033133e-06 -1.7550277991487902e-05 0 3.2410938159284035e-06 -1.9970565575788778e-05 0 3.2410938159284035e-06 -1.9970565575788778e-05 0 3.9850127785033133e-06 -1.7550277991487902e-05 0 2.3579069229554343e-06 -1.6771035601570492e-05 0 4.4957682189007771e-06 -2.308834983035717e-05 0 5.4811045008968704e-06 -2.1687517746256665e-05 0 3.2410938159284035e-06 -1.9970565575788778e-05 0 1.3554650788556167e-06 -2.1992187239415323e-05 0 3.0388012542421889e-06 -2.2810599357034381e-05 0 3.2410938159284035e-06 -1.9970565575788778e-05 0 4.4957682189007771e-06 -2.308834983035717e-05 0 3.2410938159284035e-06 -1.9970565575788778e-05 0 3.0388012542421889e-06 -2.2810599357034381e-05 0 4.4957682189007771e-06 -2.308834983035717e-05 0 3.0388012542421889e-06 -2.2810599357034381e-05 0 4.3880594877844157e-06 -2.5109328190641214e-05 0 4.4957682189007771e-06 -2.308834983035717e-05 0 4.3880594877844157e-06 -2.5109328190641214e-05 0 5.563030189138274e-06 -2.4841948577399929e-05 0 2.5510215369780795e-06 -2.4777553948543655e-05 0 4.3880594877844157e-06 -2.5109328190641214e-05 0 3.0388012542421889e-06 -2.2810599357034381e-05 0 2.5510215369780795e-06 -2.4777553948543655e-05 0 4.3944465910539576e-06 -2.6839613943899081e-05 0 4.3880594877844157e-06 -2.5109328190641214e-05 0 1.8766360919778804e-05 -6.7913104325851165e-05 0 1.0856934429287909e-05 -6.0947930421975377e-05 0 6.4329111838110741e-06 -6.9127639245289451e-05 0 1.8766360919778804e-05 -6.7913104325851165e-05 0 6.4329111838110733e-06 -6.9127639245289451e-05 0 1.0943470997898823e-05 -7.9687135852717013e-05 0 1.0419670343984448e-05 -4.5988224055002742e-05 0 1.2572586747819377e-05 -5.3548638458392494e-05 0 1.3554650788556167e-06 -2.1992187239415323e-05 0 2.5510215369780795e-06 -2.4777553948543655e-05 0 3.0388012542421889e-06 -2.2810599357034381e-05 0 1.7255103523486258e-05 -5.7207444852391384e-05 0 1.0856934429287909e-05 -6.094793042197537e-05 0 1.8766360919778804e-05 -6.7913104325851165e-05 0 9.2448953625322239e-06 -3.9691764528345061e-05 0 1.0419670343984448e-05 -4.5988224055002742e-05 0 1.8766360919778804e-05 -6.7913104325851165e-05 0 1.0943470997898823e-05 -7.9687135852717013e-05 0 2.04410110267025e-05 -7.8976163252102562e-05 0 1.2572586747819377e-05 -5.3548638458392494e-05 0 1.3027038837970807e-05 -5.845613117304882e-05 0 4.3944465910539585e-06 -2.6839613943899081e-05 0 7.0388736964480397e-06 -2.7703271445235612e-05 0 5.5828505396822577e-06 -2.6667736160421397e-05 0 2.04410110267025e-05 -7.8976163252102562e-05 0 1.0943470997898823e-05 -7.9687135852717013e-05 0 2.242107771077906e-05 -9.0784985696509458e-05 0 2.242107771077906e-05 -9.0784985696509458e-05 0 1.0943470997898823e-05 -7.9687135852717013e-05 0 1.0195282576576296e-05 -9.0033634773464732e-05 0 6.0058301267402648e-06 -2.6728896048543414e-05 0 5.563030189138274e-06 -2.4841948577399929e-05 0 4.3880594877844157e-06 -2.5109328190641214e-05 0 6.0058301267402648e-06 -2.6728896048543414e-05 0 4.3880594877844157e-06 -2.5109328190641214e-05 0 5.5828505396822577e-06 -2.6667736160421397e-05 0 4.3944465910539585e-06 -2.6839613943899081e-05 0 5.5828505396822577e-06 -2.6667736160421397e-05 0 4.3880594877844157e-06 -2.5109328190641214e-05 0 6.0058301267402648e-06 -2.6728896048543414e-05 0 5.5828505396822577e-06 -2.6667736160421397e-05 0 6.9968319376461402e-06 -2.7160533223203884e-05 0 6.0058301267402648e-06 -2.6728896048543414e-05 0 6.9968319376461402e-06 -2.7160533223203884e-05 0 7.4080994006582181e-06 -2.8505150433439318e-05 0 7.0388736964480389e-06 -2.7703271445235612e-05 0 6.9968319376461402e-06 -2.7160533223203884e-05 0 5.5828505396822577e-06 -2.6667736160421397e-05 0 1.0398204397828518e-05 -2.7104162949740578e-05 0 6.9968319376461402e-06 -2.7160533223203884e-05 0 7.0388736964480389e-06 -2.7703271445235612e-05 0 1.0398204397828518e-05 -2.7104162949740578e-05 0 8.6960006838839114e-06 -2.7228730995477241e-05 0 6.9968319376461402e-06 -2.7160533223203884e-05 0 8.6960006838839114e-06 -2.7228730995477241e-05 0 7.4080994006582181e-06 -2.8505150433439318e-05 0 6.9968319376461402e-06 -2.7160533223203884e-05 0 2.242107771077906e-05 -9.0784985696509458e-05 0 1.0195282576576294e-05 -9.0033634773464732e-05 0 1.6140172362049253e-05 -9.6519333941745623e-05 0 1.3027038837970807e-05 -5.845613117304882e-05 0 2.276967551131e-05 -6.5723417926368758e-05 0 2.579952435415088e-05 -0.00010280892326263381 0 2.242107771077906e-05 -9.0784985696509458e-05 0 1.6140172362049253e-05 -9.6519333941745623e-05 0 2.579952435415088e-05 -0.00010280892326263381 0 1.6140172362049253e-05 -9.6519333941745623e-05 0 1.3435953133230876e-05 -0.0001031566958660501 0 1.3435953133230876e-05 -0.0001031566958660501 0 1.6140172362049253e-05 -9.6519333941745623e-05 0 6.9285974198332772e-06 -9.675274915241477e-05 0 1.9927777658734722e-06 -0.0001019525121271957 0 1.3435953133230876e-05 -0.0001031566958660501 0 6.9285974198332772e-06 -9.675274915241477e-05 0 1.0195282576576296e-05 -9.0033634773464732e-05 0 4.3331556784151466e-07 -9.1842962652868002e-05 0 6.9285974198332772e-06 -9.675274915241477e-05 0 1.0195282576576296e-05 -9.0033634773464732e-05 0 6.9285974198332772e-06 -9.675274915241477e-05 0 1.6140172362049253e-05 -9.6519333941745623e-05 0 1.9927777658734722e-06 -0.0001019525121271957 0 6.9285974198332789e-06 -9.6752749152414783e-05 0 4.3331556784151466e-07 -9.1842962652868002e-05 0 -8.2121813164401254e-06 -0.00010091053752065023 0 4.3331556784151466e-07 -9.1842962652868002e-05 0 -8.6268952906037617e-06 -8.7635643916137977e-05 0 -8.2121813164401254e-06 -0.00010091053752065023 0 -8.6268952906037617e-06 -8.7635643916137977e-05 0 -1.7225614420564515e-05 -9.0894135470926443e-05 0 -8.2121813164401254e-06 -0.00010091053752065023 0 1.9927777658734722e-06 -0.0001019525121271957 0 4.3331556784151466e-07 -9.1842962652868002e-05 0 1.3505717003731494e-06 -8.0757397730683714e-05 0 -8.6268952906037617e-06 -8.7635643916137977e-05 0 4.3331556784151466e-07 -9.1842962652868002e-05 0 1.3505717003731494e-06 -8.0757397730683714e-05 0 -9.4396123129931343e-06 -7.5446171884972993e-05 0 -8.6268952906037617e-06 -8.7635643916137977e-05 0 -1.8848137218749069e-05 -8.0099337782689047e-05 0 -8.6268952906037617e-06 -8.7635643916137977e-05 0 -9.4396123129931343e-06 -7.5446171884972993e-05 0 1.3505717003731494e-06 -8.0757397730683714e-05 0 -2.6593623691257256e-06 -7.0105387960153038e-05 0 -9.4396123129931343e-06 -7.5446171884972993e-05 0 1.3505717003731494e-06 -8.0757397730683714e-05 0 1.0943470997898823e-05 -7.9687135852717013e-05 0 6.4329111838110741e-06 -6.9127639245289451e-05 0 1.3505717003731494e-06 -8.0757397730683714e-05 0 1.0195282576576296e-05 -9.0033634773464732e-05 0 1.0943470997898823e-05 -7.9687135852717013e-05 0 1.3505717003731494e-06 -8.0757397730683714e-05 0 4.3331556784151376e-07 -9.1842962652868002e-05 0 1.0195282576576296e-05 -9.0033634773464732e-05 0 -3.7568836317636241e-05 -8.9930225176183405e-05 0 -3.0957994278130215e-05 -9.430951393372737e-05 0 -2.6445847074885805e-05 -8.8654032214636512e-05 0 -3.7593607732786686e-05 -9.9986563269665503e-05 0 -3.0957994278130215e-05 -9.430951393372737e-05 0 -3.7568836317636241e-05 -8.9930225176183405e-05 0 -3.7593607732786686e-05 -9.9986563269665503e-05 0 -2.7660495860021263e-05 -0.00010000670880423379 0 -3.0957994278130215e-05 -9.430951393372737e-05 0 -2.7660495860021259e-05 -0.00010000670880423379 0 -2.2783103613987045e-05 -9.4931157613937977e-05 0 -3.0957994278130215e-05 -9.430951393372737e-05 0 -2.6445847074885805e-05 -8.8654032214636512e-05 0 -3.0957994278130215e-05 -9.430951393372737e-05 0 -2.2783103613987045e-05 -9.4931157613937977e-05 0 -2.6445847074885805e-05 -8.8654032214636512e-05 0 -2.2783103613987045e-05 -9.4931157613937977e-05 0 -1.7225614420564515e-05 -9.0894135470926443e-05 0 -1.7840381772075913e-05 -0.00010028526399492025 0 -1.7225614420564515e-05 -9.0894135470926443e-05 0 -2.2783103613987045e-05 -9.4931157613937977e-05 0 -2.7660495860021259e-05 -0.00010000670880423379 0 -1.7840381772075913e-05 -0.00010028526399492025 0 -2.2783103613987045e-05 -9.4931157613937977e-05 0 -1.7840381772075913e-05 -0.00010028526399492025 0 -8.2121813164401254e-06 -0.00010091053752065023 0 -1.7225614420564515e-05 -9.0894135470926443e-05 0 -1.8848137218749069e-05 -8.0099337782689047e-05 0 -1.7225614420564515e-05 -9.0894135470926443e-05 0 -8.6268952906037617e-06 -8.7635643916137977e-05 0 -1.8848137218749069e-05 -8.0099337782689047e-05 0 -9.4396123129931343e-06 -7.5446171884972993e-05 0 -1.6374686533258217e-05 -6.8236135772863576e-05 0 -1.8848137218749069e-05 -8.0099337782689047e-05 0 -2.5083102240545017e-05 -6.9983728073132014e-05 0 -2.8331366162156331e-05 -7.9511138740198439e-05 0 -1.8848137218749069e-05 -8.0099337782689047e-05 0 -2.6445847074885805e-05 -8.8654032214636512e-05 0 -1.7225614420564515e-05 -9.0894135470926443e-05 0 -1.8848137218749069e-05 -8.0099337782689047e-05 0 -2.8331366162156331e-05 -7.9511138740198439e-05 0 -2.6445847074885805e-05 -8.8654032214636512e-05 0 -3.7568836317636241e-05 -8.9930225176183405e-05 0 -2.6445847074885805e-05 -8.8654032214636512e-05 0 -2.8331366162156331e-05 -7.9511138740198439e-05 0 -3.672288104443964e-05 -6.9201297592149643e-05 0 -3.731189377524172e-05 -7.9631044232273467e-05 0 -2.8331366162156331e-05 -7.9511138740198439e-05 0 -3.731189377524172e-05 -7.9631044232273467e-05 0 -3.7568836317636241e-05 -8.9930225176183405e-05 0 -2.8331366162156331e-05 -7.9511138740198439e-05 0 -3.5661666681334666e-05 -5.9053256619832086e-05 0 -3.672288104443964e-05 -6.9201297592149643e-05 0 -2.9165106173220934e-05 -6.2538597881656771e-05 0 -3.672288104443964e-05 -6.9201297592149643e-05 0 -2.8331366162156331e-05 -7.9511138740198439e-05 0 -2.5083102240545017e-05 -6.9983728073132014e-05 0 -2.1817049463352943e-05 -5.887283500067934e-05 0 -2.9165106173220934e-05 -6.2538597881656771e-05 0 -2.5083102240545017e-05 -6.9983728073132014e-05 0 -3.672288104443964e-05 -6.9201297592149643e-05 0 -2.5083102240545017e-05 -6.9983728073132014e-05 0 -2.9165106173220934e-05 -6.2538597881656771e-05 0 -2.1817049463352943e-05 -5.887283500067934e-05 0 -2.5083102240545017e-05 -6.9983728073132027e-05 0 -1.6374686533258217e-05 -6.8236135772863576e-05 0 -1.8848137218749069e-05 -8.0099337782689047e-05 0 -1.6374686533258217e-05 -6.8236135772863576e-05 0 -2.5083102240545017e-05 -6.9983728073132014e-05 0 -2.1817049463352943e-05 -5.887283500067934e-05 0 -1.6374686533258217e-05 -6.8236135772863576e-05 0 -1.4720791270923929e-05 -5.8504501258073949e-05 0 -8.9903992829019131e-06 -6.389866454124189e-05 0 -1.472079127092393e-05 -5.8504501258073949e-05 0 -1.6374686533258217e-05 -6.8236135772863576e-05 0 -2.1817049463352943e-05 -5.887283500067934e-05 0 -1.4720791270923929e-05 -5.8504501258073949e-05 0 -1.7469836885941973e-05 -5.215098634940348e-05 0 -1.5881588543689108e-05 -4.3638004588789653e-05 0 -1.7469836885941973e-05 -5.215098634940348e-05 0 -9.9609792046712706e-06 -5.2410872383240924e-05 0 -9.9609792046712706e-06 -5.2410872383240924e-05 0 -1.7469836885941973e-05 -5.215098634940348e-05 0 -1.4720791270923929e-05 -5.8504501258073949e-05 0 -2.1817049463352943e-05 -5.887283500067934e-05 0 -1.7469836885941973e-05 -5.215098634940348e-05 0 -2.4603422406444984e-05 -4.9251843391734387e-05 0 -2.1817049463352943e-05 -5.887283500067934e-05 0 -2.9150851400887794e-05 -5.5575957197425017e-05 0 -2.9165106173220934e-05 -6.2538597881656771e-05 0 -2.1817049463352943e-05 -5.887283500067934e-05 0 -2.4603422406444984e-05 -4.9251843391734387e-05 0 -2.9150851400887794e-05 -5.5575957197425017e-05 0 -3.4072669048547604e-05 -4.9239046089575042e-05 0 -2.9150851400887794e-05 -5.5575957197425023e-05 0 -2.4603422406444984e-05 -4.9251843391734387e-05 0 -3.4072669048547604e-05 -4.9239046089575042e-05 0 -3.5661666681334666e-05 -5.9053256619832086e-05 0 -2.9150851400887794e-05 -5.5575957197425017e-05 0 -3.5661666681334666e-05 -5.9053256619832086e-05 0 -2.9165106173220934e-05 -6.2538597881656771e-05 0 -2.9150851400887794e-05 -5.5575957197425017e-05 0 4.0596734718256296e-06 -5.7374945922657562e-05 0 -2.4122753798968193e-06 -6.0836361244763769e-05 0 6.4329111838110741e-06 -6.9127639245289451e-05 0 6.4329111838110741e-06 -6.9127639245289451e-05 0 -2.4122753798968193e-06 -6.0836361244763769e-05 0 -2.6593623691257256e-06 -7.0105387960153038e-05 0 4.0596734718256296e-06 -5.7374945922657562e-05 0 6.4329111838110733e-06 -6.9127639245289451e-05 0 1.0856934429287909e-05 -6.0947930421975377e-05 0 1.3505717003731494e-06 -8.0757397730683714e-05 0 6.4329111838110741e-06 -6.9127639245289451e-05 0 -2.6593623691257256e-06 -7.0105387960153038e-05 0 -8.9903992829019131e-06 -6.389866454124189e-05 0 -9.4396123129931343e-06 -7.5446171884972993e-05 0 -2.6593623691257256e-06 -7.0105387960153038e-05 0 -8.9903992829019131e-06 -6.389866454124189e-05 0 -1.6374686533258217e-05 -6.8236135772863576e-05 0 -9.4396123129931343e-06 -7.5446171884972993e-05 0 -8.9903992829019131e-06 -6.389866454124189e-05 0 -2.6593623691257256e-06 -7.0105387960153038e-05 0 -2.4122753798968193e-06 -6.0836361244763769e-05 0 -9.9609792046712706e-06 -5.2410872383240924e-05 0 -2.4122753798968193e-06 -6.0836361244763769e-05 0 -2.5215353329709646e-06 -5.1181782132802111e-05 0 -8.9903992829019131e-06 -6.389866454124189e-05 0 -2.4122753798968193e-06 -6.0836361244763769e-05 0 -9.9609792046712706e-06 -5.2410872383240924e-05 0 -8.9903992829019131e-06 -6.389866454124189e-05 0 -9.9609792046712706e-06 -5.2410872383240924e-05 0 -1.4720791270923929e-05 -5.8504501258073949e-05 0 -9.9609792046712706e-06 -5.2410872383240924e-05 0 -2.5215353329709642e-06 -5.1181782132802111e-05 0 -6.96025383494814e-06 -4.3585673002024088e-05 0 4.0596734718256296e-06 -5.7374945922657562e-05 0 3.1879401604017295e-06 -4.9265957171492691e-05 0 -2.5215353329709646e-06 -5.1181782132802111e-05 0 4.0596734718256296e-06 -5.7374945922657562e-05 0 -2.5215353329709646e-06 -5.1181782132802111e-05 0 -2.4122753798968193e-06 -6.0836361244763769e-05 0 4.0596734718256296e-06 -5.7374945922657562e-05 0 1.0856934429287909e-05 -6.0947930421975377e-05 0 9.2172532339482541e-06 -5.18765372376698e-05 0 4.0596734718256296e-06 -5.7374945922657562e-05 0 9.2172532339482541e-06 -5.18765372376698e-05 0 3.1879401604017295e-06 -4.9265957171492691e-05 0 6.7135713157753568e-06 -4.3077289953302004e-05 0 3.1879401604017295e-06 -4.9265957171492691e-05 0 9.2172532339482541e-06 -5.18765372376698e-05 0 -1.3730403437221402e-06 -4.3244702209040686e-05 0 3.1879401604017295e-06 -4.9265957171492691e-05 0 6.7135713157753568e-06 -4.3077289953302004e-05 0 -1.3730403437221402e-06 -4.3244702209040686e-05 0 6.7135713157753568e-06 -4.3077289953301997e-05 0 2.3024690560843039e-06 -3.7474404528788099e-05 0 6.7135713157753568e-06 -4.3077289953302004e-05 0 7.1581190931331958e-06 -3.4777658598515916e-05 0 2.3024690560843039e-06 -3.7474404528788099e-05 0 -1.3730403437221402e-06 -4.3244702209040686e-05 0 2.3024690560843039e-06 -3.7474404528788099e-05 0 -2.8981263140282145e-06 -3.622544965973581e-05 0 -1.3730403437221402e-06 -4.3244702209040686e-05 0 -2.5215353329709646e-06 -5.1181782132802111e-05 0 3.1879401604017295e-06 -4.9265957171492691e-05 0 -1.3730403437221402e-06 -4.3244702209040686e-05 0 -6.96025383494814e-06 -4.3585673002024088e-05 0 -2.5215353329709646e-06 -5.1181782132802111e-05 0 -1.5881588543689108e-05 -4.3638004588789653e-05 0 -9.9609792046712706e-06 -5.2410872383240924e-05 0 -6.96025383494814e-06 -4.3585673002024088e-05 0 -1.5881588543689108e-05 -4.3638004588789653e-05 0 -6.96025383494814e-06 -4.3585673002024088e-05 0 -9.2510473569929321e-06 -3.5881170108582403e-05 0 -1.3730403437221402e-06 -4.3244702209040686e-05 0 -2.8981263140282145e-06 -3.622544965973581e-05 0 -6.96025383494814e-06 -4.3585673002024088e-05 0 -9.2510473569929321e-06 -3.5881170108582403e-05 0 -6.96025383494814e-06 -4.3585673002024088e-05 0 -2.8981263140282145e-06 -3.622544965973581e-05 0 -9.2510473569929321e-06 -3.5881170108582403e-05 0 -2.8981263140282145e-06 -3.622544965973581e-05 0 -3.2717410803654061e-06 -2.8329402526453198e-05 0 -8.2953385721204919e-06 -2.5912310056891981e-05 0 -1.3127411087900245e-05 -3.0879238848607349e-05 0 -9.2510473569929321e-06 -3.5881170108582403e-05 0 -8.2953385721204919e-06 -2.5912310056891981e-05 0 -9.2510473569929321e-06 -3.5881170108582403e-05 0 -3.2717410803654061e-06 -2.8329402526453198e-05 0 1.9846484592187951e-06 -3.0530963419943677e-05 0 1.8874917519608852e-06 -2.1663505655525199e-05 0 -3.2717410803654061e-06 -2.8329402526453198e-05 0 1.9846484592187951e-06 -3.0530963419943677e-05 0 6.606049175695681e-06 -2.6076933917477884e-05 0 1.8874917519608852e-06 -2.1663505655525199e-05 0 1.9846484592187951e-06 -3.0530963419943677e-05 0 2.3024690560843047e-06 -3.7474404528788099e-05 0 7.1581190931331958e-06 -3.4777658598515916e-05 0 1.9846484592187951e-06 -3.0530963419943677e-05 0 -3.2717410803654069e-06 -2.8329402526453198e-05 0 -2.8981263140282145e-06 -3.622544965973581e-05 0 1.9846484592187951e-06 -3.0530963419943677e-05 0 -2.8981263140282145e-06 -3.622544965973581e-05 0 2.3024690560843039e-06 -3.7474404528788099e-05 0 -3.1993204386941748e-05 -4.0113083963057387e-05 0 -2.8322325841972437e-05 -4.4596496784459813e-05 0 -2.2693547688604698e-05 -3.9601820405879756e-05 0 -3.1993204386941748e-05 -4.0113083963057387e-05 0 -2.2693547688604698e-05 -3.9601820405879756e-05 0 -2.4657203599755224e-05 -3.3448282320378307e-05 0 -3.4072669048547604e-05 -4.9239046089575042e-05 0 -2.4603422406444984e-05 -4.9251843391734387e-05 0 -2.8322325841972437e-05 -4.4596496784459813e-05 0 -3.1993204386941748e-05 -4.0113083963057387e-05 0 -3.4072669048547604e-05 -4.9239046089575042e-05 0 -2.8322325841972437e-05 -4.4596496784459813e-05 0 -2.4603422406444984e-05 -4.9251843391734387e-05 0 -2.2693547688604698e-05 -3.9601820405879756e-05 0 -2.8322325841972437e-05 -4.4596496784459813e-05 0 -1.5881588543689108e-05 -4.3638004588789653e-05 0 -1.5623264496549597e-05 -3.6124605631475351e-05 0 -2.2693547688604698e-05 -3.9601820405879756e-05 0 -1.5881588543689108e-05 -4.3638004588789653e-05 0 -2.2693547688604695e-05 -3.9601820405879756e-05 0 -2.4603422406444984e-05 -4.9251843391734387e-05 0 -1.5881588543689108e-05 -4.3638004588789653e-05 0 -2.4603422406444984e-05 -4.9251843391734387e-05 0 -1.7469836885941973e-05 -5.215098634940348e-05 0 -1.5881588543689108e-05 -4.3638004588789653e-05 0 -9.2510473569929321e-06 -3.5881170108582396e-05 0 -1.5623264496549597e-05 -3.6124605631475351e-05 0 -1.8799078170153941e-05 -3.1403526577731605e-05 0 -1.5623264496549597e-05 -3.6124605631475351e-05 0 -1.3127411087900245e-05 -3.0879238848607349e-05 0 -9.2510473569929321e-06 -3.5881170108582403e-05 0 -1.3127411087900245e-05 -3.0879238848607349e-05 0 -1.5623264496549597e-05 -3.6124605631475351e-05 0 -8.2953385721204919e-06 -2.5912310056891981e-05 0 -1.3831347363058512e-05 -2.5714020408755938e-05 0 -1.3127411087900245e-05 -3.0879238848607349e-05 0 -1.8799078170153941e-05 -3.1403526577731605e-05 0 -1.3127411087900245e-05 -3.0879238848607349e-05 0 -1.3831347363058512e-05 -2.5714020408755938e-05 0 -1.8799078170153941e-05 -3.1403526577731605e-05 0 -1.3831347363058512e-05 -2.5714020408755938e-05 0 -2.1325187518064322e-05 -2.6335808665702802e-05 0 -1.8799078170153941e-05 -3.1403526577731605e-05 0 -2.2693547688604698e-05 -3.9601820405879756e-05 0 -1.5623264496549597e-05 -3.6124605631475351e-05 0 -1.8799078170153941e-05 -3.1403526577731605e-05 0 -2.4657203599755224e-05 -3.3448282320378307e-05 0 -2.2693547688604698e-05 -3.9601820405879756e-05 0 -1.8799078170153941e-05 -3.1403526577731605e-05 0 -2.1325187518064322e-05 -2.6335808665702802e-05 0 -2.4657203599755224e-05 -3.3448282320378307e-05 0 -2.9588882752891023e-05 -3.1768789548583561e-05 0 -2.4657203599755224e-05 -3.3448282320378307e-05 0 -2.1325187518064322e-05 -2.6335808665702802e-05 0 -2.9588882752891023e-05 -3.1768789548583561e-05 0 -3.1993204386941748e-05 -4.0113083963057387e-05 0 -2.4657203599755224e-05 -3.3448282320378307e-05 0 -2.3825537378901051e-05 -1.7870378357807843e-05 0 -2.6915470424412656e-05 -2.4328134478336474e-05 0 -2.0753788624617374e-05 -2.016909565638207e-05 0 -2.6915470424412656e-05 -2.4328134478336474e-05 0 -2.9588882752891023e-05 -3.1768789548583561e-05 0 -2.1325187518064322e-05 -2.6335808665702802e-05 0 -2.6915470424412656e-05 -2.4328134478336474e-05 0 -2.1325187518064322e-05 -2.6335808665702802e-05 0 -2.0753788624617374e-05 -2.016909565638207e-05 0 -1.5890329009321766e-05 -1.9899393771589676e-05 0 -2.0753788624617374e-05 -2.016909565638207e-05 0 -2.1325187518064322e-05 -2.6335808665702802e-05 0 -1.5890329009321766e-05 -1.9899393771589676e-05 0 -2.1325187518064322e-05 -2.6335808665702802e-05 0 -1.3831347363058512e-05 -2.5714020408755938e-05 0 -8.2953385721204919e-06 -2.5912310056891981e-05 0 -1.1657732457366031e-05 -2.0654517976803802e-05 0 -1.3831347363058512e-05 -2.5714020408755938e-05 0 -1.5890329009321766e-05 -1.9899393771589676e-05 0 -1.3831347363058512e-05 -2.5714020408755938e-05 0 -1.1657732457366031e-05 -2.0654517976803802e-05 0 -7.5106185825293418e-06 -1.7141736180050941e-05 0 -1.20399296582369e-05 -1.624054389936895e-05 0 -1.1657732457366031e-05 -2.0654517976803802e-05 0 -1.5890329009321766e-05 -1.9899393771589676e-05 0 -1.1657732457366031e-05 -2.0654517976803802e-05 0 -1.20399296582369e-05 -1.624054389936895e-05 0 -9.6501369284012593e-06 -1.1639347724603875e-05 0 -1.6065710059129749e-05 -1.3817009219351235e-05 0 -1.20399296582369e-05 -1.624054389936895e-05 0 -9.6501369284012593e-06 -1.1639347724603875e-05 0 -1.120884613506952e-05 -8.9949903301764079e-06 0 -1.6065710059129749e-05 -1.3817009219351235e-05 0 -1.5890329009321766e-05 -1.9899393771589676e-05 0 -1.20399296582369e-05 -1.624054389936895e-05 0 -1.6065710059129749e-05 -1.3817009219351235e-05 0 -2.3825537378901051e-05 -1.7870378357807843e-05 0 -2.0753788624617374e-05 -2.016909565638207e-05 0 -1.6065710059129749e-05 -1.3817009219351235e-05 0 -1.5890329009321766e-05 -1.9899393771589676e-05 0 -1.6065710059129749e-05 -1.3817009219351235e-05 0 -2.0753788624617374e-05 -2.016909565638207e-05 0 -2.0865533879551022e-05 -1.2506401542498626e-05 0 -2.3825537378901051e-05 -1.7870378357807843e-05 0 -1.6065710059129749e-05 -1.3817009219351235e-05 0 -2.1344320285925326e-06 -1.5480153827096285e-05 0 -3.8998881524949086e-06 -2.1394889864575624e-05 0 1.8874917519608852e-06 -2.1663505655525199e-05 0 -2.1344320285925326e-06 -1.5480153827096285e-05 0 1.8874917519608852e-06 -2.1663505655525199e-05 0 2.449819361635797e-06 -1.3655385481142429e-05 0 1.8874917519608852e-06 -2.1663505655525199e-05 0 -3.8998881524949086e-06 -2.1394889864575624e-05 0 -3.2717410803654061e-06 -2.8329402526453198e-05 0 -8.2953385721204919e-06 -2.5912310056891981e-05 0 -3.2717410803654061e-06 -2.8329402526453198e-05 0 -3.8998881524949086e-06 -2.1394889864575624e-05 0 -8.2953385721204919e-06 -2.5912310056891981e-05 0 -7.510618582529341e-06 -1.7141736180050941e-05 0 -1.1657732457366031e-05 -2.0654517976803802e-05 0 -8.2953385721204919e-06 -2.5912310056891981e-05 0 -3.8998881524949086e-06 -2.1394889864575624e-05 0 -7.5106185825293418e-06 -1.7141736180050941e-05 0 -2.1344320285925326e-06 -1.5480153827096285e-05 0 -7.5106185825293418e-06 -1.7141736180050941e-05 0 -3.8998881524949086e-06 -2.1394889864575624e-05 0 -2.1344320285925326e-06 -1.5480153827096285e-05 0 -5.2750695607052424e-06 -1.1701011937975834e-05 0 -7.5106185825293418e-06 -1.7141736180050941e-05 0 -9.6501369284012593e-06 -1.1639347724603875e-05 0 -1.20399296582369e-05 -1.624054389936895e-05 0 -7.5106185825293418e-06 -1.7141736180050941e-05 0 -9.6501369284012593e-06 -1.1639347724603875e-05 0 -5.2750695607052416e-06 -1.1701011937975834e-05 0 -7.178765454460337e-06 -8.9343571083980346e-06 0 -9.6501369284012593e-06 -1.1639347724603875e-05 0 -7.5106185825293418e-06 -1.7141736180050941e-05 0 -5.2750695607052416e-06 -1.1701011937975834e-05 0 -2.1344320285925326e-06 -1.5480153827096285e-05 0 -1.8274268654149809e-06 -1.0153759258959616e-05 0 -5.2750695607052416e-06 -1.1701011937975834e-05 0 -1.8274268654149809e-06 -1.0153759258959616e-05 0 -2.1344320285925326e-06 -1.5480153827096285e-05 0 2.449819361635797e-06 -1.3655385481142429e-05 0 1.565766986765088e-06 -8.3480015519486013e-06 0 -1.8274268654149809e-06 -1.0153759258959616e-05 0 2.449819361635797e-06 -1.3655385481142429e-05 0 4.2652611937104529e-06 -7.1116583325803532e-06 0 1.565766986765088e-06 -8.3480015519486013e-06 0 2.449819361635797e-06 -1.3655385481142429e-05 0 4.2652611937104529e-06 -7.1116583325803532e-06 0 2.3522965182792454e-06 -6.3600747095898457e-06 0 3.0484394253817337e-06 -5.6470267513831118e-06 0 4.2652611937104529e-06 -7.1116583325803532e-06 0 2.449819361635797e-06 -1.3655385481142429e-05 0 7.7686115445451258e-06 -1.5144134401629435e-05 0 3.9237146467453367e-06 -7.0611122679772496e-06 0 5.2271246242639429e-06 -1.0813044965349869e-05 0 7.7686115445451258e-06 -1.5144134401629435e-05 0 2.449819361635797e-06 -1.3655385481142429e-05 0 5.8489015556690729e-06 -1.8996740216724964e-05 0 1.8874917519608852e-06 -2.1663505655525199e-05 0 5.8489015556690729e-06 -1.8996740216724964e-05 0 2.449819361635797e-06 -1.3655385481142429e-05 0 5.2271246242639429e-06 -1.0813044965349869e-05 0 5.8053999364850637e-06 -1.5367187127187979e-05 0 7.7686115445451258e-06 -1.5144134401629435e-05 0 5.8489015556690729e-06 -1.8996740216724964e-05 0 1.0333224528203844e-05 -2.2072977860680563e-05 0 5.8053999364850637e-06 -1.5367187127187979e-05 0 6.4873937325573524e-06 -2.0785702084001428e-05 0 1.0333224528203844e-05 -2.2072977860680563e-05 0 5.8489015556690729e-06 -1.8996740216724964e-05 0 6.6060491756956827e-06 -2.6076933917477884e-05 0 1.8874917519608852e-06 -2.1663505655525199e-05 0 6.6060491756956827e-06 -2.6076933917477884e-05 0 5.8489015556690729e-06 -1.8996740216724964e-05 0 3.9468404370042878e-06 -8.3291511300458704e-06 0 3.201877040691543e-06 -6.4825667962041669e-06 0 2.4929732713799847e-06 -9.3004513066746189e-06 0 1.3254812422122914e-06 -8.694857379766996e-06 0 6.3573869209920065e-07 -1.1771735303807967e-05 0 2.4929732713799847e-06 -9.3004513066746189e-06 0 1.3254812422122914e-06 -8.694857379766996e-06 0 2.4929732713799847e-06 -9.3004513066746189e-06 0 3.201877040691543e-06 -6.4825667962041669e-06 0 2.3522965182792454e-06 -6.3600747095898457e-06 0 1.3254812422122914e-06 -8.694857379766996e-06 0 3.201877040691543e-06 -6.4825667962041669e-06 0 3.201877040691543e-06 -6.4825667962041669e-06 0 4.2480106789971778e-06 -4.5119690705562016e-06 0 3.0484394253817337e-06 -5.6470267513831118e-06 0 2.3522965182792454e-06 -6.3600747095898457e-06 0 3.201877040691543e-06 -6.4825667962041661e-06 0 3.0484394253817337e-06 -5.6470267513831118e-06 0 4.2652611937104529e-06 -7.1116583325803532e-06 0 3.0484394253817337e-06 -5.6470267513831118e-06 0 3.628572651729208e-06 -4.7383642642469408e-06 0 3.0484394253817337e-06 -5.6470267513831118e-06 0 4.2480106789971778e-06 -4.5119690705562016e-06 0 3.628572651729208e-06 -4.7383642642469408e-06 0 4.2480106789971778e-06 -4.5119690705562016e-06 0 3.201877040691543e-06 -6.4825667962041669e-06 0 4.9542779335028509e-06 -6.3927350835443848e-06 0 4.2480106789971778e-06 -4.5119690705562016e-06 0 4.9542779335028509e-06 -6.3927350835443848e-06 0 6.2180361705466185e-06 -4.0375500030369367e-06 0 4.2480106789971778e-06 -4.5119690705562016e-06 0 6.2180361705466185e-06 -4.0375500030369367e-06 0 5.6431158238818643e-06 -2.4274273081605235e-06 0 7.198614902062052e-06 -1.3038177722107494e-06 0 6.2180361705466185e-06 -4.0375500030369367e-06 0 7.9183089613794037e-06 -2.9215059744179982e-06 0 7.198614902062052e-06 -1.3038177722107494e-06 0 5.6431158238818643e-06 -2.4274273081605235e-06 0 6.2180361705466185e-06 -4.0375500030369367e-06 0 7.9868595347272351e-06 -5.551689955603e-06 0 7.9183089613794037e-06 -2.9215059744179982e-06 0 6.2180361705466185e-06 -4.0375500030369367e-06 0 7.9868595347272351e-06 -5.551689955603e-06 0 6.5879546040961826e-06 -6.1574999488127384e-06 0 7.7808096469894774e-06 -8.203839683188177e-06 0 7.9868595347272351e-06 -5.551689955603e-06 0 6.2180361705466185e-06 -4.0375500030369367e-06 0 6.5879546040961826e-06 -6.1574999488127384e-06 0 6.265742501048667e-06 -8.1965103573911094e-06 0 6.5879546040961826e-06 -6.1574999488127376e-06 0 4.9542779335028509e-06 -6.3927350835443848e-06 0 6.2180361705466185e-06 -4.0375500030369367e-06 0 4.9542779335028509e-06 -6.3927350835443848e-06 0 6.5879546040961826e-06 -6.1574999488127384e-06 0 6.265742501048667e-06 -8.1965103573911094e-06 0 7.7808096469894774e-06 -8.203839683188177e-06 0 6.5879546040961826e-06 -6.1574999488127384e-06 0 3.9468404370042878e-06 -8.3291511300458704e-06 0 4.9542779335028509e-06 -6.3927350835443848e-06 0 3.201877040691543e-06 -6.4825667962041669e-06 0 6.265742501048667e-06 -8.1965103573911094e-06 0 4.9542779335028509e-06 -6.3927350835443848e-06 0 5.1124189072766575e-06 -1.0001249047958176e-05 0 3.9468404370042878e-06 -8.3291511300458704e-06 0 5.1124189072766575e-06 -1.0001249047958176e-05 0 4.9542779335028509e-06 -6.3927350835443848e-06 0 3.9468404370042878e-06 -8.3291511300458704e-06 0 3.1284031719729924e-06 -1.1364399914408938e-05 0 5.1124189072766575e-06 -1.0001249047958176e-05 0 6.1550497257540586e-06 -1.317544578638504e-05 0 7.0784901484064245e-06 -1.0649122900462022e-05 0 5.1124189072766575e-06 -1.0001249047958176e-05 0 6.1550497257540586e-06 -1.317544578638504e-05 0 5.1124189072766575e-06 -1.0001249047958176e-05 0 4.3442177443034468e-06 -1.2914475773862539e-05 0 3.1284031719729924e-06 -1.1364399914408938e-05 0 4.3442177443034468e-06 -1.2914475773862539e-05 0 5.1124189072766575e-06 -1.0001249047958176e-05 0 8.8767661570394034e-06 -1.0721007995408893e-05 0 7.7808096469894774e-06 -8.203839683188177e-06 0 7.0784901484064245e-06 -1.0649122900462022e-05 0 6.265742501048667e-06 -8.1965103573911094e-06 0 7.0784901484064245e-06 -1.0649122900462022e-05 0 7.7808096469894774e-06 -8.203839683188177e-06 0 6.265742501048667e-06 -8.1965103573911094e-06 0 5.1124189072766575e-06 -1.0001249047958176e-05 0 7.0784901484064245e-06 -1.0649122900462022e-05 0 6.1550497257540586e-06 -1.317544578638504e-05 0 8.5616711511511172e-06 -1.3484033282000519e-05 0 7.0784901484064245e-06 -1.0649122900462022e-05 0 8.8767661570394034e-06 -1.0721007995408893e-05 0 7.0784901484064245e-06 -1.0649122900462022e-05 0 8.5616711511511172e-06 -1.3484033282000519e-05 0 1.0904598195433276e-05 -1.5006250130395229e-05 0 8.5616711511511172e-06 -1.3484033282000519e-05 0 9.3475006947513886e-06 -1.6645271715428068e-05 0 6.1550497257540586e-06 -1.317544578638504e-05 0 7.2376841134139472e-06 -1.6358195208758678e-05 0 8.5616711511511172e-06 -1.3484033282000519e-05 0 7.2376841134139472e-06 -1.6358195208758678e-05 0 9.3475006947513886e-06 -1.6645271715428068e-05 0 8.5616711511511172e-06 -1.3484033282000519e-05 0 3.5960158938343765e-06 -1.5376815914280817e-05 0 5.1971391138540858e-06 -1.5908290719661121e-05 0 4.3442177443034468e-06 -1.2914475773862539e-05 0 6.1550497257540586e-06 -1.317544578638504e-05 0 5.1971391138540858e-06 -1.5908290719661124e-05 0 7.2376841134139472e-06 -1.6358195208758678e-05 0 6.1550497257540586e-06 -1.317544578638504e-05 0 4.3442177443034468e-06 -1.2914475773862539e-05 0 5.1971391138540858e-06 -1.5908290719661121e-05 0 5.4875132055298326e-06 -1.91157911991707e-05 0 7.2376841134139472e-06 -1.6358195208758678e-05 0 5.1971391138540858e-06 -1.5908290719661121e-05 0 3.5960158938343765e-06 -1.5376815914280817e-05 0 3.9850127785033133e-06 -1.7550277991487902e-05 0 5.1971391138540858e-06 -1.5908290719661121e-05 0 5.4875132055298326e-06 -1.91157911991707e-05 0 5.1971391138540858e-06 -1.5908290719661121e-05 0 3.9850127785033133e-06 -1.7550277991487902e-05 0 3.5960158938343765e-06 -1.5376815914280817e-05 0 2.3579069229554343e-06 -1.6771035601570492e-05 0 3.9850127785033133e-06 -1.7550277991487902e-05 0 3.5960158938343765e-06 -1.5376815914280817e-05 0 2.2377968620723979e-06 -1.3869682403257027e-05 0 2.3579069229554343e-06 -1.6771035601570492e-05 0 3.5960158938343765e-06 -1.5376815914280817e-05 0 4.3442177443034468e-06 -1.2914475773862539e-05 0 2.2377968620723979e-06 -1.3869682403257027e-05 0 4.0629960072408454e-07 -1.5276710887492895e-05 0 2.3579069229554343e-06 -1.6771035601570492e-05 0 2.2377968620723979e-06 -1.3869682403257027e-05 0 1.4100423632322049e-05 -3.8149690050378617e-05 0 6.7135713157753568e-06 -4.3077289953302004e-05 0 1.5686587400251529e-05 -4.7315677908903495e-05 0 7.226643562335889e-06 -2.6728780208918172e-05 0 8.1125023110819787e-06 -3.3020967008041796e-05 0 4.0629960072408454e-07 -1.5276710887492895e-05 0 6.5378882742315099e-07 -1.8742119487704546e-05 0 2.3579069229554343e-06 -1.6771035601570492e-05 0 1.5686587400251529e-05 -4.7315677908903495e-05 0 6.7135713157753568e-06 -4.3077289953302004e-05 0 9.2172532339482541e-06 -5.18765372376698e-05 0 1.4100423632322049e-05 -3.8149690050378617e-05 0 7.1581190931331958e-06 -3.4777658598515916e-05 0 6.7135713157753568e-06 -4.3077289953302004e-05 0 1.2332916542007385e-05 -2.9743566469161519e-05 0 7.1581190931331958e-06 -3.4777658598515916e-05 0 1.4100423632322049e-05 -3.8149690050378617e-05 0 6.3573869209920076e-07 -1.1771735303807967e-05 0 4.0629960072408454e-07 -1.5276710887492895e-05 0 2.2377968620723979e-06 -1.3869682403257027e-05 0 6.4873937325573524e-06 -2.0785702084001428e-05 0 7.226643562335889e-06 -2.6728780208918172e-05 0 1.2332916542007385e-05 -2.9743566469161519e-05 0 6.6060491756956827e-06 -2.6076933917477884e-05 0 7.1581190931331958e-06 -3.4777658598515916e-05 0 1.9846484592187951e-06 -3.0530963419943677e-05 0 7.1581190931331958e-06 -3.4777658598515916e-05 0 6.6060491756956827e-06 -2.6076933917477884e-05 0 1.0333224528203844e-05 -2.2072977860680563e-05 0 6.6060491756956827e-06 -2.6076933917477884e-05 0 1.2332916542007385e-05 -2.9743566469161519e-05 0 6.3573869209920076e-07 -1.1771735303807967e-05 0 3.1284031719729924e-06 -1.1364399914408938e-05 0 2.4929732713799847e-06 -9.3004513066746189e-06 0 3.9468404370042878e-06 -8.3291511300458704e-06 0 2.4929732713799843e-06 -9.3004513066746189e-06 0 3.1284031719729924e-06 -1.1364399914408938e-05 0 3.1284031719729924e-06 -1.1364399914408938e-05 0 2.2377968620723979e-06 -1.3869682403257027e-05 0 4.3442177443034468e-06 -1.2914475773862539e-05 0 6.3573869209920076e-07 -1.1771735303807967e-05 0 2.2377968620723979e-06 -1.3869682403257027e-05 0 3.1284031719729924e-06 -1.1364399914408938e-05 0 
</DataArray>
</PointData>
<CellData Scalars="region_id,cross_section_updated,displacement_divergence," Vectors="" Tensors="stress,">
<DataArray type="Float64" Name="region_id" format="ascii">
1 1 1 1 1 1 1 1 1 1 1 1 1 1 1 1 1 1 1 1 1 1 1 1 1 1 1 1 1 1 1 1 1 1 1 1 1 1 1 1 1 1 1 1 1 1 1 1 1 1 1 1 1 1 1 1 1 1 1 1 1 1 1 1 1 1 1 1 1 1 1 1 1 1 1 1 1 1 1 1 1 1 1 1 1 1 1 1 1 1 1 1 1 1 1 1 1 1 1 1 1 1 1 1 1 1 1 1 1 1 1 1 1 1 1 1 1 1 1 1 1 1 1 1 1 1 1 1 1 1 1 1 1 1 1 1 1 1 1 1 1 1 1 1 1 1 1 1 1 1 1 1 1 1 1 1 1 1 1 1 1 1 1 1 1 1 1 1 1 1 1 1 1 1 1 1 1 1 1 1 1 1 1 1 1 1 1 1 1 1 1 1 1 1 1 1 1 1 1 1 1 1 1 1 1 1 1 1 1 1 1 1 1 1 1 1 1 1 1 1 1 1 1 1 1 1 1 1 1 1 1 1 1 1 1 1 1 1 1 1 1 1 1 1 1 1 1 1 1 1 1 1 1 1 1 1 1 1 1 1 1 1 1 1 1 1 1 1 1 1 1 1 1 1 1 1 1 1 1 1 1 1 1 1 1 1 1 1 1 1 1 1 1 1 1 1 1 1 1 1 1 1 1 1 1 1 1 1 1 1 1 1 1 1 1 1 1 1 1 1 1 1 1 1 1 1 1 1 1 1 1 1 1 1 1 1 1 1 1 1 1 1 1 1 1 1 1 1 1 1 1 1 1 1 1 1 1 1 1 1 1 1 1 1 1 1 1 1 1 1 1 1 1 1 1 1 1 1 1 1 1 1 1 1 1 1 1 1 1 1 1 1 1 1 1 1 1 1 1 1 1 1 1 1 1 1 1 1 1 1 1 1 1 1 1 1 1 1 1 1 1 1 1 1 1 1 1 1 1 1 1 1 1 1 1 1 1 1 1 1 1 1 1 1 1 1 1 1 1 1 1 1 1 1 1 1 1 1 1 1 1 1 1 1 1 1 1 1 1 1 1 1 1 1 1 1 1 1 1 1 1 1 1 1 1 1 1 1 1 1 1 1 1 1 1 1 1 1 1 1 1 1 1 1 1 1 1 1 1 1 1 1 1 1 1 1 1 1 1 1 1 1 1 1 1 1 1 1 1 1 1 1 1 1 1 1 1 1 3 1 1 3 1 1 3 1 1 1 1 1 1 1 1 1 1 1 1 1 3 1 1 1 1 1 3 1 1 1 1 1 1 1 1 1 1 1 1 1 1 1 1 1 1 1 1 1 1 1 1 1 1 1 1 1 1 1 1 1 1 1 1 1 1 1 1 1 1 1 1 1 1 1 1 1 1 1 1 1 1 1 1 1 1 1 1 1 1 1 1 1 1 1 1 1 1 1 1 1 1 1 1 1 1 1 1 1 1 1 1 1 1 1 1 1 1 1 1 1 1 1 1 1 1 1 1 1 1 1 1 1 1 1 1 1 1 1 1 1 1 1 1 1 1 1 1 1 1 1 1 1 1 1 1 1 1 1 1 1 1 1 1 1 1 1 1 1 1 1 1 1 1 1 1 1 1 1 1 1 1 1 1 1 1 1 1 1 1 1 1 1 1 1 1 3 1 1 1 3 1 1 3 1 1 1 1 1 1 1 1 1 1 1 3 1 1 1 1 3 1 1 1 1 1 1 1 1 1 1 1 1 1 1 1 1 1 1 1 1 1 1 1 1 1 1 1 1 1 1 1 1 1 1 1 1 1 1 1 1 1 1 1 1 1 1 1 1 1 1 1 1 1 1 1 1 1 1 2 1 1 1 1 1 1 1 1 1 1 1 1 1 1 2 1 1 2 1 2 1 1 1 1 1 1 1 1 1 1 1 1 1 2 1 1 1 1 1 1 1 1 1 1 1 1 1 1 1 1 1 1 1 1 1 1 1 1 1 1 1 1 1 1 1 1 1 1 1 1 1 1 1 1 1 1 1 1 1 1 1 1 1 1 1 1 1 1 1 1 1 1 1 1 1 1 1 1 1 1 1 1 1 1 1 1 1 1 1 1 1 1 1 1 1 1 1 1 1 1 1 1 1 1 1 1 1 1 1 1 1 1 1 1 1 1 1 1 1 1 1 1 1 1 1 1 1 1 1 1 1 1 1 1 1 1 1 1 1 1 1 1 1 1 1 1 1 1 1 1 2 1 1 2 1 2 1 1 1 1 1 1 1 1 1 1 1 1 1 1 1 1 1 1 1 1 1 1 1 1 1 1 1 1 1 1 1 1 1 1 1 1 1 1 1 1 1 1 1 1 1 1 1 2 1 1 1 1 1 2 1 1 1 1 1 1 1 
</DataArray>
<DataArray type="Float64" Name="stress" NumberOfComponents="9" format="ascii">
-0.01953527541854138 0.0014454885377095325 0 0.0014454885377095325 -0.0026642634919903868 0 0 0 -0.0055498847276329406 -0.019057022903667484 0.0021440946781913278 0 0.0021440946781913278 -0.0063408447304517893 0 0 0 -0.006349466908529818 -0.020460079100661548 0.0022352543724041139 0 0.0022352543724041139 0.0012994354756689509 0 0 0 -0.0047901609062481485 -0.020095440902706534 0.0028061766473239319 0 0.0028061766473239319 -0.0025413030448268089 0 0 0 -0.0056591859868833361 -0.016832965952883323 0.0058215739974504747 0 0.0058215739974504747 -0.0056122252097239476 0 0 0 -0.0056112977906518161 -0.016830530830491994 0.0058244119565548551 0 0.0058244119565548551 -0.005604174032288611 0 0 0 -0.0056086762156951518 -0.019459042788913104 0.0056315913074852873 0 0.0056315913074852873 -0.0013179037546869887 0 0 0 -0.0051942366359000241 -0.019586542352040992 0.005009300357285161 0 0.005009300357285161 -0.0016324463287938559 0 0 0 -0.0053047471702087129 -0.018692326764242061 0.006557563114184697 0 0.006557563114184697 -0.0013010433925028627 0 0 0 -0.0049983425391862298 -0.015168297739220998 0.006821452886925582 0 0.006821452886925582 -0.00023480307137600451 0 0 0 -0.0038507752026492497 -0.021653531478282681 0.0070199673686819255 0 0.0070199673686819255 -0.00069975709626717703 0 0 0 -0.0055883221436374628 -0.015004925192693237 0.007592084128825392 0 0.007592084128825392 0.00041431568357002541 0 0 0 -0.003647652377280805 -0.026744289088970218 0.0054682191205905773 0 0.0054682191205905773 -0.00036488140714348131 0 0 0 -0.0067772926240284252 -0.020816193537387478 0.0057585697883829725 0 0.0057585697883829725 0.00033374016227634071 0 0 0 -0.005120613343777787 -0.031193837807378735 0.0021534541497229701 0 0.0021534541497229701 -0.0010309152785132163 0 0 0 -0.008056188271472987 -0.024661752082331463 0.0027027052930134947 0 0.0027027052930134947 -0.00016544137835793581 0 0 0 -0.0062067983651723493 -0.022999992495585216 0.0035229912800132613 0 0.0035229912800132613 0.0014549842211832595 0 0 0 -0.0053862520686004901 -0.023169453469164467 0.0055708155362320291 0 0.0055708155362320291 -0.00027333649082304616 0 0 0 -0.0058606974899968779 -0.0031242126026083663 0.0080054753132730513 0 0.0080054753132730513 -0.0010398246651877154 0 0 0 -0.0010410093169490205 -0.0058587368499439067 0.0094639028476774141 0 0.0094639028476774141 -0.0010746274090180814 0 0 0 -0.001733341064740497 -0.0068885507221538292 0.0074670201198788165 0 0.0074670201198788165 -0.00070358954384382513 0 0 0 -0.0018980350664994129 -0.011928163687538814 0.0084607846366504223 0 0.0084607846366504223 -0.00092260793220741433 0 0 0 -0.0032126929049365576 -0.012520860422786526 0.0077048080067598154 0 0.0077048080067598154 -0.0022487251176768995 0 0 0 -0.0036923963851158573 -0.0080979488570482351 0.0085854244504924952 0 0.0085854244504924952 -0.0012377580436754854 0 0 0 -0.0023339267251809301 -0.0082059718715759341 0.0076689058940496609 0 0.0076689058940496609 -0.0027378307720367632 0 0 0 -0.0027359506609031751 -0.013225292100550776 0.0085463533270988008 0 0.0085463533270988008 -0.000337026337907817 0 0 0 -0.0033905796096146482 -0.014380317736464341 0.006998066461208657 0 0.006998066461208657 -0.00053953451581442019 0 0 0 -0.0037299630630696894 -0.012012591543787698 0.0075750853943363748 0 0.0075750853943363748 -0.0012741846480277194 0 0 0 -0.0033216940479538553 -0.0057032255830706483 0.007542164222464235 0 0.007542164222464235 -0.00041029376636448484 0 0 0 -0.0015283798373587811 -0.005964254998058801 0.0081264648490757731 0 0.0081264648490757731 -0.00093395237880598489 0 0 0 -0.0017245518442161982 -0.0029196339460989046 0.009254812828024768 0 0.009254812828024768 -0.00092342195704776114 0 0 0 -0.00096076397578666577 -0.00065411498150478166 0.007180142344479867 0 0.007180142344479867 -5.4926469493242307e-05 0 0 0 -0.00017726036274950583 -0.0011300684546978867 0.0085530751604224794 0 0.0085530751604224794 -0.00085363701368873328 0 0 0 -0.00049592636709665759 -0.0013465151594078371 0.0068885368529672765 0 0.0068885368529672765 -0.00022295036657881545 0 0 0 -0.00039236638149666575 -0.0066396077347808773 0.0090742985277020797 0 0.0090742985277020797 -0.00084087023821140944 0 0 0 -0.0018701194932480708 -0.01449659319618635 0.0089212986163043559 0 0.0089212986163043559 -0.0005805530607730508 0 0 0 -0.0037692865642398529 -0.011681057600216432 0.0087947750553795979 0 0.0087947750553795979 -0.00062009971874792038 0 0 0 -0.0030752893297410905 -0.0080238640236626677 0.0074045080561551072 0 0.0074045080561551072 0.00017761410613689049 0 0 0 -0.0019615624793814391 -0.014560134103541001 0.0072960426481808414 0 0.0072960426481808414 0.00051210596295064512 0 0 0 -0.0035120070351475898 -0.016286121086101529 0.0090729317754844278 0 0.0090729317754844278 -0.00049369570665869569 0 0 0 -0.0041949541981900502 -0.012187978287439198 0.0074952145933598162 0 0.0074952145933598162 -0.00027039190427700227 0 0 0 -0.0031145925479290457 -0.0088129752357553829 0.0094337264356323704 0 0.0094337264356323704 0.00017902741261569682 0 0 0 -0.0021584869557849228 -0.0087913820511718987 0.0074164905250928871 0 0.0074164905250928871 0.00079495662826610525 0 0 0 -0.0019991063557264488 -0.002623386798807849 0.0071579454974967077 0 0.0071579454974967077 0.00028516482800299155 0 0 0 -0.00058455549270121788 -0.0081201464641030268 0.0093625506575584112 0 0.0093625506575584112 -0.00061542171804177849 0 0 0 -0.0021838920455362009 -0.0065624925119976904 0.0068296697028974434 0 0.0068296697028974434 0.00086713391622070257 0 0 0 -0.0014238396489442487 0.0028406219318956524 0.0068517713993214401 0 0.0068517713993214401 -0.00011138320474911312 0 0 0 0.00068230968178663309 -0.0018045179392791842 0.0083114070430951037 0 0.0083114070430951037 -3.5530588703640287e-05 0 0 0 -0.00046001213199570873 -0.031577274001227215 0.0025342868154772796 0 0.0025342868154772796 -0.0013435004420520383 0 0 0 -0.0082301936108198116 -0.025024241451215103 0.0061013133856590704 0 0.0061013133856590704 6.9852312011155215e-05 0 0 0 -0.0062385972848009921 -0.036996615852844028 0.0031947282132719452 0 0.0031947282132719452 -0.00012220688842641547 0 0 0 -0.0092797056853176144 -0.025167127554957078 0.0043079616943309243 0 0.0043079616943309243 0.0010628935280776448 0 0 0 -0.0060260585067198605 -0.019880160662208934 0.0064290906235373955 0 0.0064290906235373955 0.00075309700086370959 0 0 0 -0.0047817659153363062 -0.020751752244433746 0.0073395727148983479 0 0.0073395727148983479 -0.00039461833783853775 0 0 0 -0.0052865926455680744 -0.021181817196203788 0.0081206386488089227 0 0.0081206386488089227 -0.00033510506497944244 0 0 0 -0.0053792305652958098 -0.02443895592237014 0.0056968030146145963 0 0.0056968030146145963 0.00053369569247496348 0 0 0 -0.005976315057473796 -0.017758330987205709 0.0069464389010460287 0 0.0069464389010460287 -8.1538656783095714e-05 0 0 0 -0.0044599674109972055 -0.025742731769013465 0.0077886216457748753 0 0.0077886216457748753 -0.00049194104419445633 0 0 0 -0.006558668203301983 -0.020803560979497746 0.0064071406784046402 0 0.0064071406784046402 -0.00040666736728819236 0 0 0 -0.0053025570866964862 -0.024994988264454739 0.005810754579625153 0 0.005810754579625153 0.00062100592869931623 0 0 0 -0.0060934955839388556 -0.035091195588177894 0.0048102776845290549 0 0.0048102776845290549 -0.00053191618219886744 0 0 0 -0.0089057779425941938 -0.032815172190120215 0.0046712604680461305 0 0.0046712604680461305 -0.00058196327508391876 0 0 0 -0.0083492838663010403 -0.031658402736175581 0.0027256277555878228 0 0.0027256277555878228 0.00031595533017792637 0 0 0 -0.0078356118514994189 -0.042681809006528092 0.0031597354371943787 0 0.0031597354371943787 -0.00038185082476645607 0 0 0 -0.010765914957823629 -0.045950577560400309 0.0028459747502212005 0 0.0028459747502212005 -0.00033408319092347125 0 0 0 -0.011571165187830945 -0.033688593485353913 0.0035524738914680023 0 0.0035524738914680023 0.00093823240368106839 0 0 0 -0.0081875902704182171 -0.039329849909894805 0.0026155588632185826 0 0.0026155588632185826 0.00053000359022677135 0 0 0 -0.0096999615799170137 -0.053487841544729131 0.0021230419835986929 0 0.0021230419835986929 0.00084626334280758081 0 0 0 -0.013160394550480381 -0.041266481698132809 0.0059344484921252244 0 0.0059344484921252244 0.0011021961013782666 0 0 0 -0.010041071399188636 -0.041675621788497812 0.0022697076618398496 0 0.0022697076618398496 -0.00072271960602424482 0 0 0 -0.010599585348630529 -0.043952190289054657 0.0023289555884677977 0 0.0023289555884677977 0.0016987509687233296 0 0 0 -0.010563359830082837 -0.060649277414154865 0.00050680844059467715 0 0.00050680844059467715 -0.00063043684169744596 0 0 0 -0.015319928563963074 -0.025972880323050725 0.0043104618299225506 0 0.0043104618299225506 0.0015378088771525328 0 0 0 -0.0061087678614745473 -0.021100115473947925 0.00835738234605388 0 0.00835738234605388 0.0011859733917219818 0 0 0 -0.004978535520556473 -0.031308225645343489 0.0055816829493737594 0 0.0055816829493737594 -0.00023162382069632365 0 0 0 -0.0078849623665099514 -0.031016445295961561 0.0064975966043086157 0 0.0064975966043086157 0.00055553199903848969 0 0 0 -0.007615228324230768 -0.020708646913492057 0.0084379113115716619 0 0.0084379113115716619 0.001019907174170622 0 0 0 -0.004922184934830362 -0.035250735198128456 0.0076505661484363779 0 0.0076505661484363779 0.0013876074135275255 0 0 0 -0.0084657819461502175 -0.029804275346233183 0.0055236913558038541 0 0.0055236913558038541 -0.00054976388133853946 0 0 0 -0.007588509806892939 -0.026235649551599145 0.0078588436485136724 0 0.0078588436485136724 0.00066709316168860901 0 0 0 -0.0063921390974776256 -0.019042328607853109 0.0086856048197364501 0 0.0086856048197364501 0.00015590430147154402 0 0 0 -0.0047216060765953921 -0.012893651122670973 0.008280257680587157 0 0.008280257680587157 0.00033104410867648357 0 0 0 -0.0031406517534986233 -0.012824043939866039 0.0073398327509803527 0 0.0073398327509803527 0.00050572757136853157 0 0 0 -0.0030795790921243809 -0.01204257564928283 0.0071480289388685088 0 0.0071480289388685088 0.0013561678552402503 0 0 0 -0.0026716019485106429 -0.0063379247602306683 0.0083466202470103348 0 0.0083466202470103348 0.00028373683656655619 0 0 0 -0.0015135469809160274 -0.020623676731731828 0.0073078655233501082 0 0.0073078655233501082 0.0005745179087946542 0 0 0 -0.0050122897057342857 -0.00075404050929517817 0.006537616479477806 0 0.006537616479477806 0.0016001514315303125 0 0 0 0.00021152773055878142 -0.0021796688985152527 0.0085992435130529433 0 0.0085992435130529433 -0.00026208599413158132 0 0 0 -0.00061043872316170721 -0.0051792980023065965 0.0063098993970533207 0 0.0063098993970533207 0.0021042344501289029 0 0 0 -0.0007687658880444273 0.003091848985101342 0.0042594866586296272 0 0.0042594866586296272 0.0030520683729911117 0 0 0 0.0015359793395231126 0.0011784698107616641 0.007609581615632569 0 0.007609581615632569 0.00089343046066412551 0 0 0 0.0005179750678564474 -0.0042229261968988289 0.0064401988553725396 0 0.0064401988553725396 0.0035281273499158262 0 0 0 -0.00017369971174574853 0.0039043654634570739 0.0048905615286444701 0 0.0048905615286444701 0.0034306832685014749 0 0 0 0.0018337621829896374 0.0036722292748761157 0.0041885497078939481 0 0.0041885497078939481 0.0060718556636925186 0 0 0 0.0024360212346421582 -0.012509727430948199 0.0085715424190899864 0 0.0085715424190899864 0.0011085935902027293 0 0 0 -0.0028502834601863607 -0.01778622512072324 0.0057738342791098761 0 0.0057738342791098761 0.0011743165668481968 0 0 0 -0.0041529771384687629 -0.0046447468956423484 0.0067281970290709184 0 0.0067281970290709184 0.0013130814623370669 0 0 0 -0.00083291635832631779 -0.0094055298384529036 0.0050362149833372049 0 0.0050362149833372049 0.0027431891012518889 0 0 0 -0.0016655851843002407 -0.011973310187454095 0.0084454176258323028 0 0.0084454176258323028 0.0029243167819387045 0 0 0 -0.0022622483513788485 -0.017068201942137571 0.0080096919056737159 0 0.0080096919056737159 0.00411363989757145 0 0 0 -0.0032386405111415294 -0.011417500723447108 0.0058386630160399307 0 0.0058386630160399307 0.0084558420453296756 0 0 0 -0.00074041466952935731 -0.016851935561572148 0.0026559404408850323 0 0.0026559404408850323 0.0041281391783778189 0 0 0 -0.0031809490957985811 0.013196422177320487 0.0014946473876801649 0 0.0014946473876801649 0.0075885665964020924 0 0 0 0.0051962471934306441 -0.0064218586804041947 0.0068853510203948087 0 0.0068853510203948087 0.005454297107267957 0 0 0 -0.0002418903932840603 0.0012580146151984981 0.0037500551225682719 0 0.0037500551225682719 0.0062156337863687877 0 0 0 0.0018684121003918197 0.0023915446561707729 0.0042221509929430898 0 0.0042221509929430898 0.010298922430580892 0 0 0 0.0031726167716879181 0.010657167441035679 -0.00029675992004958573 0 -0.00029675992004958573 0.011729167004775283 0 0 0 0.0055965836114527405 -0.00033624778454543168 0.0028086275393092788 0 0.0028086275393092788 0.016889072358785246 0 0 0 0.0041382061435599488 -0.0018478316960051644 -0.0016352032168000172 0 -0.0016352032168000172 0.017626296627124449 0 0 0 0.0039446162327798351 0.0039429587086129217 -0.0049795952526676991 0 -0.0049795952526676991 0.013383562017779821 0 0 0 0.004331630181598177 0.0099602968448804646 -0.0016362499808275296 0 -0.0016362499808275296 0.026105984573315782 0 0 0 0.0090165703545490722 -0.016110492062677527 0.00082930321149729536 0 0.00082930321149729536 0.010576578275900056 0 0 0 -0.0013834784466943764 -0.0037823770621084815 0.0014217678714386391 0 0.0014217678714386391 0.0077865063204699547 0 0 0 0.0010010323145903804 -0.0060335387900353754 -0.0040813773928647934 0 -0.0040813773928647934 0.010105995953659547 0 0 0 0.0010181142909060428 -0.017881790323724639 0.002423811368691367 0 0.002423811368691367 0.0055551945186268215 0 0 0 -0.0030816489512744474 -0.022434971264580369 -0.0029664820137512149 0 -0.0029664820137512149 0.0058383025362867824 0 0 0 -0.0041491671820733933 -0.030875715445695534 0.00017111496918625207 0 0.00017111496918625207 0.0037566593007307414 0 0 0 -0.0067797640362411843 -0.034440742549608591 0.0039952620812990919 0 0.0039952620812990919 0.0027462602739196373 0 0 0 -0.007923620568922235 -0.043030899499838071 -0.0028913986171130723 0 -0.0028913986171130723 0.0032596012459214785 0 0 0 -0.0099428245634791412 -0.047189145585768866 0.0017140035598327552 0 0.0017140035598327552 0.0010695190327017351 0 0 0 -0.011529906638266776 -0.066342983734132235 0.00053387050057709191 0 0.00053387050057709191 0.0012071034284232285 0 0 0 -0.016283970076427262 -0.048653592795042125 0.0021618903337457113 0 0.0021618903337457113 0.0013268041294365596 0 0 0 -0.011831697166401381 -0.04807419066429626 0.00054664470869938975 0 0.00054664470869938975 0.00072473954907071453 0 0 0 -0.011837362778806416 -0.04998326061802847 0.00036776860811245371 0 0.00036776860811245371 -0.00062721125476025708 0 0 0 -0.012652617968197187 -0.041165665373877197 0.0058136666579790622 0 0.0058136666579790622 0.001312864663518154 0 0 0 -0.0099632001775897816 -0.064631126669822042 0.0026443125759866527 0 0.0026443125759866527 0.00023074569355477359 0 0 0 -0.016100095244066824 -0.04673057970896892 0.0048990770649643758 0 0.0048990770649643758 0.0013091788725633664 0 0 0 -0.011355350209101377 -0.031553912283234106 0.0074207292185414168 0 0.0074207292185414168 0.0024351110164370221 0 0 0 -0.007279700316699271 -0.024737665840534624 0.0064818210722583335 0 0.0064818210722583335 0.0041115915839193759 0 0 0 -0.0051565185641538102 -0.035206364561967463 0.0023260342315468835 0 0.0023260342315468835 0.0017988231798881094 0 0 0 -0.0083518853455198418 0.01082493020489924 -0.00035932504958669301 0 -0.00035932504958669301 0.026379717486678791 0 0 0 0.0093011619228945096 0.0099948202749354786 -0.0014378500019539837 0 -0.0014378500019539837 0.021209540327521988 0 0 0 0.00780109015061437 0.0098143182621471085 -0.0025185423266025301 0 -0.0025185423266025301 0.018123430225330622 0 0 0 0.006984437121869436 0.0084354196708018182 0.0011045600398418422 0 0.0011045600398418422 0.022060036061078453 0 0 0 0.0076238639329700656 0.012051736523559812 0.004693389510980351 0 0.004693389510980351 0.024032956278218442 0 0 0 0.0090211732004445554 0.013211158839641865 0.0039335015340299945 0 0.0039335015340299945 0.029908181745408539 0 0 0 0.010779835146262602 0.0081758082400569601 -0.00035978185406052238 0 -0.00035978185406052238 0.028750375758671655 0 0 0 0.0092315459996821503 0.0069811600847993881 1.9591420426780883e-05 0 1.9591420426780883e-05 0.028502169596692196 0 0 0 0.0088708324203729001 0.0097657356115518363 -0.00033643573879321795 0 -0.00033643573879321795 0.027941410073193854 0 0 0 0.0094267864211864238 0.0085032432106214653 0.00017445569227324265 0 0.00017445569227324265 0.027562012920524348 0 0 0 0.0090163140327864516 0.0022410199328902723 -0.0011933751913949277 0 -0.0011933751913949277 0.026138043870600466 0 0 0 0.0070947659508726856 0.0066808181571262251 -0.0018891296066260166 0 -0.0018891296066260166 0.027528208745463391 0 0 0 0.0085522567256474027 0.0055925024364666311 -0.002485566427272639 0 -0.002485566427272639 0.026338523896611222 0 0 0 0.0079827565832694663 0.006051346959544646 -0.0048991056778664652 0 -0.0048991056778664652 0.027044372001487352 0 0 0 0.0082739297402580035 0.0034439724416302914 -0.0032733615187973608 0 -0.0032733615187973608 0.030757396877026999 0 0 0 0.0085503423296643261 0.022838375322530722 -0.022280105013388819 0 -0.022280105013388819 0.047613697959655872 0 0 0 0.017613018320546649 0.00027023262365922368 -0.012103515834288318 0 -0.012103515834288318 0.028804018056496933 0 0 0 0.0072685626700390374 0.022077133933296612 -0.013861287378841403 0 -0.013861287378841403 0.026514338702221696 0 0 0 0.012147868158879581 0.0018944293345181558 -0.0050489551009167567 0 -0.0050489551009167567 0.027817077628239345 0 0 0 0.0074278767406893743 0.024694041443566621 -0.0043305434696856437 0 -0.0043305434696856437 0.038872115817801423 0 0 0 0.015891539315342013 0.022596455764382978 -0.0075125159106509826 0 -0.0075125159106509826 0.020634277609355239 0 0 0 0.01080768334343455 0.036371405919261551 -0.011866001966595263 0 -0.011866001966595263 0.027300076007937463 0 0 0 0.015917870481799754 0.015806026365981884 -0.0079234227392431279 0 -0.0079234227392431279 0.020015256964290101 0 0 0 0.0089553208325679895 0.011537760439452566 9.9161784658605839e-05 0 9.9161784658605839e-05 0.018568822047131422 0 0 0 0.007526645621645997 0.023904449360950208 -0.0045635568248970325 0 -0.0045635568248970325 0.015284666480986295 0 0 0 0.0097972789604841223 0.011299052987118849 -0.00055612152894868663 0 -0.00055612152894868663 0.012047218258822146 0 0 0 0.0058365678114852444 0.015517574436908184 -0.0011907859229027228 0 -0.0011907859229027228 0.0085642466274947551 0 0 0 0.0060204552661007344 0.010869104365315374 -0.0071969849964783044 0 -0.0071969849964783044 0.023936875382962072 0 0 0 0.0087014949370693671 0.0090787676879159306 -0.0073593285042690033 0 -0.0073593285042690033 0.016500948735648682 0 0 0 0.0063949291058911471 0.016439339440537895 -0.0058916040808596852 0 -0.0058916040808596852 0.019377160122013216 0 0 0 0.0089541248906377727 0.010762025160837057 -0.0023251308370716983 0 -0.0023251308370716983 0.0094937135515455288 0 0 0 0.0050639346780956482 0.013233373729345617 -0.0023082321168230091 0 -0.0023082321168230091 0.018723886310664607 0 0 0 0.0079893150100025564 0.012739617553444165 -0.0012999796950028007 0 -0.0012999796950028007 0.011404084034981853 0 0 0 0.0060359253971064963 0.01281578278798514 0.0028265956954424474 0 0.0028265956954424474 0.0099073734149626655 0 0 0 0.0056807890507369488 0.010481076709882218 0.0018103049706575847 0 0.0018103049706575847 0.004789143474380724 0 0 0 0.003817555046065737 0.0099044729314998626 0.00074038401439338077 0 0.00074038401439338077 0.0085757743789713591 0 0 0 0.0046200618276178041 0.012441786546064922 0.00029933699309501896 0 0.00029933699309501896 0.006542036896651956 0 0 0 0.0047459558606792211 0.010555435606053657 0.00333998204149097 0 0.00333998204149097 0.0074048872505542065 0 0 0 0.0044900807141519637 0.0059164062466360197 0.0055527226709331072 0 0.0055527226709331072 0.00398926638465333 0 0 0 0.0024764181578223357 0.009259496007118527 0.002566766987036118 0 0.002566766987036118 0.0038787873924256235 0 0 0 0.0032845708498860371 0.008294812756449943 0.0059440563515193801 0 0.0059440563515193801 0.0030911257670905266 0 0 0 0.0028464846308851183 0.0062709112448853434 0.004816371173785707 0 0.004816371173785707 0.0016001256475185882 0 0 0 0.0019677592231009816 0.0036396616277052504 0.0074731375643668297 0 0.0074731375643668297 0.0008901370139261823 0 0 0 0.0011324496604078575 0.012677259389875847 0.0024421607318026307 0 0.0024421607318026307 0.0063859536434913676 0 0 0 0.0047658032583418018 0.011683214714162444 0.0018842322309690976 0 0.0018842322309690976 0.005569622340773156 0 0 0 0.004313209263733902 0.011274428355202986 0.0044312021128641282 0 0.0044312021128641282 0.0048700429361378528 0 0 0 0.0040361178228352102 0.010003808922127674 0.0038381049919099207 0 0.0038381049919099207 0.0038431832435958033 0 0 0 0.0034617480414308715 0.012599746306353351 0.0031380137483068872 0 0.0031380137483068872 0.0074100441429548278 0 0 0 0.005002447612327046 0.014035166713217306 0.0056050071619464159 0 0.0056050071619464159 0.0042701006550944498 0 0 0 0.004576316842077939 0.017298749124147361 0.0058390565479549857 0 0.0058390565479549857 0.0073217399123797437 0 0 0 0.0061551222591317775 0.017578606479359285 0.0053913140252956644 0 0.0053913140252956644 0.0060054970018865277 0 0 0 0.0058960258703114436 0.014590514724881045 0.0031297533987726858 0 0.0031297533987726858 0.0084683384424525388 0 0 0 0.0057647132918334006 0.014559254026822906 0.0032069847683833487 0 0.0032069847683833487 0.011664321411050397 0 0 0 0.0065558938594683265 0.012540034632174093 0.0019717269716392292 0 0.0019717269716392292 0.0099922527413637708 0 0 0 0.0056330718433844594 0.014902248773771845 0.0025776214823360179 0 0.0025776214823360179 0.016927584426164016 0 0 0 0.0079574582999839549 0.016710548465121461 0.0047098204305489246 0 0.0047098204305489246 0.012523778658581619 0 0 0 0.0073085817809257735 0.011181965042984434 0.0015009023064795064 0 0.0015009023064795064 0.015176735027780009 0 0 0 0.0065896750176911113 0.012973580401659308 0.00058029519020648618 0 0.00058029519020648618 0.021228494301808575 0 0 0 0.0085505186758669804 0.010793214685261648 -0.00094066029290907727 0 -0.00094066029290907727 0.013869035605449465 0 0 0 0.0061655625726777779 0.01786724946918173 0.0069467783629341808 0 0.0069467783629341808 0.026902043129317012 0 0 0 0.011192323149624685 0.013288782071438439 0.0043990068996928155 0 0.0043990068996928155 0.017589926914400856 0 0 0 0.0077196772464598277 0.014962436545588684 0.0035457303058801142 0 0.0035457303058801142 0.023672736408372121 0 0 0 0.0096587932384901952 0.016663897498729756 0.0049179377586612508 0 0.0049179377586612508 0.012780286115605236 0 0 0 0.0073610459035837426 0.018801647607394192 0.007061201788672717 0 0.007061201788672717 0.016276922547797067 0 0 0 0.0087696425387978234 0.019410989419380534 0.0069252538796107464 0 0.0069252538796107464 0.018209961124092691 0 0 0 0.0094052376358682924 0.020255585417970783 0.0067948238692900923 0 0.0067948238692900923 0.0081592810275320955 0 0 0 0.0071037166113757152 0.020548585465835347 0.0071425353268752146 0 0.0071425353268752146 0.010328557048493135 0 0 0 0.0077192856285821137 0.024150262507820569 0.0079043702654955361 0 0.0079043702654955361 0.0069349347277187015 0 0 0 0.0077712993088848176 0.022953215231496148 0.0069908803541718131 0 0.0069908803541718131 0.0034680620858104482 0 0 0 0.0066053193293266468 0.020228234703405477 0.0056692335525532021 0 0.0056692335525532021 0.00090177669409102074 0 0 0 0.0052825028493741263 0.020067364487277493 0.0068454162089070054 0 0.0068454162089070054 0.0048191227794777934 0 0 0 0.0062216218166888191 0.020527050676315592 0.0061324812467445358 0 0.0061324812467445358 0.0038336336492973827 0 0 0 0.0060901710814032436 0.01480754331124203 0.0044812152324033832 0 0.0044812152324033832 0.0043073680946432921 0 0 0 0.0047787278514713327 0.015193895358890073 0.0058879356498598096 0 0.0058879356498598096 0.0018465599953561354 0 0 0 0.0042601138385615529 0.017710263634217769 0.0061419158377182329 0 0.0061419158377182329 0.0024296467725924264 0 0 0 0.0050349776017025562 0.018132268499146172 0.0062319586903580304 0 0.0062319586903580304 0.0037510100885729744 0 0 0 0.0054708196469297858 0.0185365161718745 0.0053033057282071581 0 0.0053033057282071581 0.00037359613966835362 0 0 0 0.00472752807788571 0.018495395580319044 0.0062383522487740404 0 0.0062383522487740404 0.00031732785007213341 0 0 0 0.0047031808575977909 0.01465975924011695 0.0057976164480386515 0 0.0057976164480386515 0.00023924384333835758 0 0 0 0.0037247507708638283 0.021156543770851979 0.0055818391913219165 0 0.0055818391913219165 -0.00010983310831100268 0 0 0 0.0052616776656352476 0.020841824199127366 0.0045267352400278384 0 0.0045267352400278384 -0.00067700547997193161 0 0 0 0.0050412046797888629 0.023902360478613553 0.0051270277111380037 0 0.0051270277111380037 -0.00019070505128748749 0 0 0 0.0059279138568315154 0.022301538629209257 0.0049250905962320325 0 0.0049250905962320325 -0.00058399597756296842 0 0 0 0.0054293856629115782 0.020969592219413098 0.0060665001193105708 0 0.0060665001193105708 0.0010619575957678991 0 0 0 0.0055078874537952509 0.003517363582881274 0.0070373550689022679 0 0.0070373550689022679 0.0018589536542234775 0 0 0 0.0013440793092761882 0.0079300719535204244 0.0061329889119536591 0 0.0061329889119536591 0.00043065585231573562 0 0 0 0.00209018195145904 0.0038304673973793748 0.0072822872524399371 0 0.0072822872524399371 0.00034403455220277657 0 0 0 0.0010436254873955383 0.010868038843982037 0.0057026282756837115 0 0.0057026282756837115 -0.00018350487178418751 0 0 0 0.0026711334930494615 0.0087499383344866993 0.0065273601574345631 0 0.0065273601574345631 0.0024029512377850282 0 0 0 0.0027882223930679358 0.011196912028189782 0.006095434826722302 0 0.006095434826722302 0.0018499353852779662 0 0 0 0.0032617118533669349 0.012285164080373747 0.0046180431947894229 0 0.0046180431947894229 0.0019009027573376972 0 0 0 0.0035465167094278624 0.012684527075908416 0.0067849434621099665 0 0.0067849434621099665 0.0029932043803326466 0 0 0 0.0039194328640602752 0.014367095651547411 0.0053911893822190145 0 0.0053911893822190145 0.00024513580291437784 0 0 0 0.0036530578636154495 0.011806615681391023 0.0056663799156831743 0 0.0056663799156831743 0.00056265374589337808 0 0 0 0.0030923173568211011 0.014587376136422074 0.006528824578505071 0 0.006528824578505071 -2.1846024100782846e-05 0 0 0 0.0036413825280803211 0.010019379838571773 0.007207499446942529 0 0.007207499446942529 0.00099645061803124366 0 0 0 0.002753957614150755 0.0091540806962183766 0.0065614018638722712 0 0.0065614018638722712 -3.718655417624811e-05 0 0 0 0.0022792235355105321 0.0044787322115956932 0.00691356578426436 0 0.00691356578426436 -3.069047613341036e-05 0 0 0 0.001112010433865572 0.0038532684565138874 0.0079874443612030395 0 0.0079874443612030395 -0.00021592862813639424 0 0 0 0.00090933495709437026 0.0036283173877696001 0.0071689580066217635 0 0.0071689580066217635 -9.4803842634029467e-05 0 0 0 0.0008833783862838944 -0.00035360822623559714 0.0083731116563517498 0 0.0083731116563517498 -0.00042164886836616039 0 0 0 -0.00019381427365043873 0.00241776594954554 0.0086822642517337782 0 0.0086822642517337782 -0.00041093756390358366 0 0 0 0.00050170709641048951 -0.000830464244511709 0.0078370803675808787 0 0.0078370803675808787 0.0002060614443946257 0 0 0 -0.00015610070002927343 0.0026503122290501661 0.0069030699602982224 0 0.0069030699602982224 -0.00044959845855175457 0 0 0 0.00055017844262460203 0.0069657546308669683 0.0078866238708001548 0 0.0078866238708001548 -0.00012848397755020786 0 0 0 0.0017093176633291894 0.0062398896405029798 0.0068901217167109778 0 0.0068901217167109778 0.00028152485097794264 0 0 0 0.0016303536228702304 0.0076109920844918671 0.008024763908868594 0 0.008024763908868594 -5.766929251117825e-05 0 0 0 0.0018883306979951709 0.010130059800697087 0.0060943530416706151 0 0.0060943530416706151 1.8895264629350227e-05 0 0 0 0.00253723876633161 0.010753260797203373 0.0067464851047332568 0 0.0067464851047332568 0.00027976721911185387 0 0 0 0.0027582570040788068 0.014157400365989914 0.0067496773783037043 0 0.0067496773783037043 -8.8005729572430622e-05 0 0 0 0.0035173486591043718 0.010871063727369288 0.0061917982443614522 0 0.0061917982443614522 0.0017673808791620199 0 0 0 0.0031596111516328292 0.009232881898960146 0.0081576366861802942 0 0.0081576366861802942 0.00085380632486560873 0 0 0 0.0025216720559564395 0.007992208540380354 0.007200621982165146 0 0.007200621982165146 0.0026641135940958472 0 0 0 0.0026640805336190505 0.0045313561436664028 0.0092037119395650038 0 0.0092037119395650038 0.00011665751582008721 0 0 0 0.0011620034148716232 0.0025093081043452096 0.007762260074237819 0 0.007762260074237819 0.00083538058638181196 0 0 0 0.00083617217268175533 -0.00051180702858327591 0.0097112208325520026 0 0.0097112208325520026 -0.00080185559753132366 0 0 0 -0.00032841565652864946 0.020340015105505625 0.0042120455779258549 0 0.0042120455779258549 0.00084831544893316027 0 0 0 0.0052970826386096936 0.021021853400014424 0.0045801795607028593 0 0.0045801795607028593 -0.00064862603498506977 0 0 0 0.0050933068412573387 0.017793812189001144 0.0053075660243771311 0 0.0053075660243771311 -0.00030627644542638444 0 0 0 0.0043718839358936907 0.017981091826200311 0.0056814807226669454 0 0.0056814807226669454 -0.00017720420409252091 0 0 0 0.0044509719055269492 0.014591311497477038 0.005748191641387906 0 0.005748191641387906 0.00084161455044558589 0 0 0 0.0038582315119806542 0.016740654501497414 0.0053971293995598848 0 0.0053971293995598848 0.0014516077885141053 0 0 0 0.0045480655725028797 0.012956626342389773 0.0061986016824621933 0 0.0061986016824621933 0.0043161857824840465 0 0 0 0.0043182030312184554 0.013008290230485053 0.00693847541797707 0 0.00693847541797707 0.0022483055266963974 0 0 0 0.0038141489392953636 0.015975420238312558 0.0053825728393037623 0 0.0053825728393037623 0.0053242837680749135 0 0 0 0.0053249260015968665 0.016056894231488726 0.0052573151697483432 0 0.0052573151697483432 0.0023481196479066893 0 0 0 0.0046012534698488547 0.019882565950642417 0.0036836792197331857 0 0.0036836792197331857 0.0029174657877907651 0 0 0 0.005700007934608297 0.018167380543893163 0.0046677250093317534 0 0.0046677250093317534 0.0003990697304535227 0 0 0 0.0046416125685866706 0.01754117273716144 0.0044622631065395074 0 0.0044622631065395074 0.0027255281828636943 0 0 0 0.0050666752300062828 0.017868345507493701 0.0042243444326190097 0 0.0042243444326190097 0.0059552897174712386 0 0 0 0.0059559088062412346 0.019033025904577425 0.0026089460065211638 0 0.0026089460065211638 0.0017265021013335262 0 0 0 0.0051898820014777379 0.020755477517861057 0.0012503333163721361 0 0.0012503333163721361 0.0069136073433275673 0 0 0 0.006917271215297156 0.018696353771502552 0.0005104084173097182 0 0.0005104084173097182 0.00094244706445344942 0 0 0 0.0049097002089890009 0.022454939852404043 0.00035034519176122789 0 0.00035034519176122789 0.0018418980872272088 0 0 0 0.0060742094849078141 0.022178041247720274 0.0018282435600386014 0 0.0018282435600386014 0.00075949969331540342 0 0 0 0.0057343852352589181 0.02281622139791863 0.0027885488196953971 0 0.0027885488196953971 -0.00012526531579975728 0 0 0 0.0056727390205297181 0.021485595794691677 0.0013811138026982913 0 0.0013811138026982913 -0.0011740071728683155 0 0 0 0.0050778971554558431 0.024752979736617303 0.0014287320780921968 0 0.0014287320780921968 -0.00019972411687408634 0 0 0 0.0061383139049358045 0.022771814294547433 0.0025072883044531609 0 0.0025072883044531609 -0.0024319068292023693 0 0 0 0.0050849768663362637 0.023473882577986931 0.00031952721594129176 0 0.00031952721594129176 -0.0035955506064119565 0 0 0 0.0049695829928937448 0.021581567001144344 -0.0027779930804324011 0 -0.0027779930804324011 -0.0037564716838714724 0 0 0 0.0044562738293182202 0.022980045288150865 -0.00097728339589703977 0 -0.00097728339589703977 -0.0009627180129099782 0 0 0 0.0055043318188102222 0.02155428093588057 -0.00060570843828185357 0 -0.00060570843828185357 -0.00013441235187592899 0 0 0 0.0053549671460011604 0.020521713268766732 -0.00078214456617300401 0 -0.00078214456617300401 0.0068419217173074243 0 0 0 0.0068409087465185394 0.020226156472889913 -0.0026893807481374846 0 -0.0026893807481374846 0.0067359510105115886 0 0 0 0.0067405268708503755 0.018443678028540671 -0.0022982327347752093 0 -0.0022982327347752093 0.0011921296105756492 0 0 0 0.0049089519097790801 0.016731437369344501 -0.0054749332023543706 0 -0.0054749332023543706 0.0055756086228036308 0 0 0 0.005576761498037033 0.020548212597728221 -0.0034680015491206214 0 -0.0034680015491206214 0.00092238594192669068 0 0 0 0.0053676496349137279 0.015744445854512654 -0.0053793244282623028 0 -0.0053793244282623028 -0.00096451742718724198 0 0 0 0.003694982106831354 0.0099963595969257569 -0.0080332541660222898 0 -0.0080332541660222898 0.0033285955224479306 0 0 0 0.0033312387798434223 0.010714851766677091 -0.0089060528042388745 0 -0.0089060528042388745 -0.0025680701116469681 0 0 0 0.0020366954137575307 0.0045144069344246404 -0.011381964566701824 0 -0.011381964566701824 -0.0029966722847980347 0 0 0 0.00037943366240665057 0.010741707591861018 -0.0092152969412310423 0 -0.0092152969412310423 -0.0054799093017248723 0 0 0 0.0013154495725340373 0.013339129011016708 -0.0075285070300673638 0 -0.0075285070300673638 -0.0038846113617843972 0 0 0 0.0023636294123080773 0.016437233452463736 -0.005999399783578439 0 -0.005999399783578439 -0.0011243108061684546 0 0 0 0.0038282306615738198 0.0086350245615205625 -0.0090122681711715582 0 -0.0090122681711715582 -0.0039326724229643215 0 0 0 0.0011755880346390624 0.015926313531208811 -0.0060476042069651063 0 -0.0060476042069651063 -0.0041947309949007267 0 0 0 0.0029328956340770223 0.021463287011911789 -0.0036845680593489949 0 -0.0036845680593489949 -0.0051422435368468945 0 0 0 0.0040802608687662261 0.022512373242087234 -0.0021150844392899557 0 -0.0021150844392899557 -0.0028130720758577123 0 0 0 0.0049248252915573823 0.023780350590501129 -0.0030345000644452186 0 -0.0030345000644452186 -0.0039806401030490143 0 0 0 0.0049499276218630305 0.023046878603347885 -0.0026397045894211591 0 -0.0026397045894211591 -0.0063131001108871106 0 0 0 0.0041834446231151946 0.028813047846995708 -0.00041470069850076422 0 -0.00041470069850076422 -0.005262753260798423 0 0 0 0.0058875736465493272 0.018742160310720624 -0.0066816546398164346 0 -0.0066816546398164346 -0.0073607105238125302 0 0 0 0.0028453624467270179 0.014498453916185355 -0.0091370537566282297 0 -0.0091370537566282297 -0.0062909308654084117 0 0 0 0.0020518807626942366 0.018910932775266488 -0.0064354362919012576 0 -0.0064354362919012576 -0.0054037323793123225 0 0 0 0.0033768000989885458 0.020543218054866003 -0.0049885838360813166 0 -0.0049885838360813166 -0.0056919746356408618 0 0 0 0.0037128108548062869 0.011095858671940064 -0.0096390879664511857 0 -0.0096390879664511857 -0.0075757407698659116 0 0 0 0.00088002947551853866 0.019180776195937881 -0.009645702026693511 0 -0.009645702026693511 -0.00808519626852491 0 0 0 0.0027738949818532461 0.023616563088784959 -0.0078821507417992757 0 -0.0078821507417992757 -0.0059358501563215212 0 0 0 0.0044201782331158655 0.021592140721722091 -0.0066095745676122801 0 -0.0066095745676122801 -0.0086380908780203502 0 0 0 0.0032385124609254309 0.031881867773333454 -0.0033946980537628759 0 -0.0033946980537628759 -0.00541341798896686 0 0 0 0.0066171124460916528 0.023561443034601073 -0.0099707922361364689 0 -0.0099707922361364689 -0.0051908526690305906 0 0 0 0.0045926475913926224 0.022437462113845688 -0.0093317396502742012 0 -0.0093317396502742012 -0.0078187717944082288 0 0 0 0.0036546725798593657 0.026719002740967199 -0.00074908094845566075 0 -0.00074908094845566075 -0.0053855586819428151 0 0 0 0.0053333610147560939 0.027799132447681427 -0.0046591143620519403 0 -0.0046591143620519403 -0.0063064499162014537 0 0 0 0.0053731706328699952 0.031450015341354685 0.00035223647208634237 0 0.00035223647208634237 -0.0064004175439897146 0 0 0 0.0062623994493412388 0.036562739920127679 0.0027403009584196459 0 0.0027403009584196459 -0.0023579260468144358 0 0 0 0.0085512034683283 0.03083206961853481 0.0040347978199181313 0 0.0040347978199181313 -0.0015622864835840614 0 0 0 0.0073174457837376959 0.032715394832380347 0.0039944403296761936 0 0.0039944403296761936 -0.0012098814720051965 0 0 0 0.0078763783400937794 0.029249375564224682 0.0028036393609157397 0 0.0028036393609157397 -0.003979220176651377 0 0 0 0.006317538846893323 0.029260080417440781 0.0053757275142849621 0 0.0053757275142849621 -0.00030507511115317968 0 0 0 0.0072387513265719117 0.030691557493133684 0.0070379453650948817 0 0.0070379453650948817 0.0026227981294692712 0 0 0 0.0083285889056507363 0.027770887802801805 0.0053870571178456558 0 0.0053870571178456558 -0.00048643593534411847 0 0 0 0.0068211129668644243 0.027185986522351876 0.007543990442984985 0 0.007543990442984985 0.0039374984699660602 0 0 0 0.0077808712480794866 0.023958894921623092 0.0056476972856740644 0 0.0056476972856740644 0.00060822723333311263 0 0 0 0.0061417805387390511 0.023667592573836216 0.0057974982069091087 0 0.0057974982069091087 0.00048020818353832666 0 0 0 0.0060369501893436329 0.025616271166064596 0.0037279417938625298 0 0.0037279417938625298 -0.0027552357552924262 0 0 0 0.0057152588526930464 0.026925130522808104 0.0046180014672228698 0 0.0046180014672228698 -0.00074574637609832115 0 0 0 0.0065448460366774527 0.023105608278185655 0.0035658565185575117 0 0.0035658565185575117 -0.0026253207909923467 0 0 0 0.0051200718717983283 0.026214838756476771 0.0027395798257253638 0 0.0027395798257253638 -0.0012527841559095943 0 0 0 0.0062405136501417916 0.024232739012334831 0.0015429979381610657 0 0.0015429979381610657 -0.0039194792022864975 0 0 0 0.0050783149525120818 0.025917676220338075 0.00078070851727466578 0 0.00078070851727466578 -0.0026042369290385507 0 0 0 0.0058283598228248794 0.025325451410031969 -0.0014904218102500737 0 -0.0014904218102500737 -0.0040283396846091364 0 0 0 0.0053242779313557092 0.026510324109167729 0.0019670425209630917 0 0.0019670425209630917 -0.0038123945825399188 0 0 0 0.0056744823816569558 0.0285773497637292 0.0026485825882181049 0 0.0026485825882181049 -0.0029615346798795195 0 0 0 0.0064039537709624167 -0.045439086692722744 -0.0037337394257246454 0 -0.0037337394257246454 -0.0019347204204246751 0 0 0 -0.011843451778286858 -0.031324070774126307 -0.0095927680005346936 0 -0.0095927680005346936 -0.00084659516310262202 0 0 0 -0.0080426664843072267 -0.034182751616151578 -0.0045080107413010117 0 -0.0045080107413010117 -0.00035026113551819837 0 0 0 -0.0086332531879174477 -0.030920787537546728 -0.0060289930922184628 0 -0.0060289930922184628 0.0024909548761841635 0 0 0 -0.0071074581653406393 -0.026448389479963474 -0.0042280509504308127 0 -0.0042280509504308127 0.002247548355614977 0 0 0 -0.0060502102810871252 -0.024942537490667351 -0.003201225452392013 0 -0.003201225452392013 -0.0031948345085481104 0 0 0 -0.0070343429998038637 -0.024529412491708136 -0.0042088566340364418 0 -0.0042088566340364418 -0.0081609177381440131 0 0 0 -0.0081725825574630387 -0.026170084350951559 -0.0050668165437690784 0 -0.0050668165437690784 -0.0029281307347168266 0 0 0 -0.0072745537714170964 -0.025614403404866506 -0.0084788435638278002 0 -0.0084788435638278002 -0.0022202631347054465 0 0 0 -0.0069586666348929868 -0.024057378064723731 -0.009107229121748283 0 -0.009107229121748283 -0.0014611324697274379 0 0 0 -0.0063796276336127913 -0.020610604151172329 -0.0091103376937993977 0 -0.0091103376937993977 -0.0068724602045600013 0 0 0 -0.0068707660889330818 -0.020606849443750387 -0.00911358752833062 0 -0.00911358752833062 -0.0068603341534365534 0 0 0 -0.0068667958992967362 -0.023096893858693041 -0.010714525493641037 0 -0.010714525493641037 -0.0029068146309826834 0 0 0 -0.0065009271224189327 -0.01620966951580529 -0.011114649226366759 0 -0.011114649226366759 -0.0009274686602379692 0 0 0 -0.0042842845440108166 -0.026200188939594828 -0.0099063357257670095 0 -0.0099063357257670095 0.00035999978149345996 0 0 0 -0.0064600472895253421 -0.037989019976604976 -0.010039415281827632 0 -0.010039415281827632 -0.001752348822242282 0 0 0 -0.0099353421997118128 -0.015494983991383063 -0.013197229210804597 0 -0.013197229210804597 -0.00098562862088911324 0 0 0 -0.0041201531530680405 -0.028108648416019087 -0.012222765058402193 0 -0.012222765058402193 -0.002911913208579725 0 0 0 -0.0077551404061497065 -0.013985349210298089 -0.011646568715690839 0 -0.011646568715690839 -0.0027575214018864674 0 0 0 -0.0041857176530461365 -0.011155671971107834 -0.011710893006479426 0 -0.011710893006479426 -0.0041221811068846564 0 0 0 -0.0038194632694981221 -0.013623687855080538 -0.013684225417271344 0 -0.013684225417271344 -0.002911362546606483 0 0 0 -0.0041337626004217531 -0.012441452012057175 -0.012422528217186216 0 -0.012422528217186216 -0.0017332857387745704 0 0 0 -0.0035436844377079351 -0.013085492051661084 -0.011726628642818416 0 -0.011726628642818416 -0.0032542509308599726 0 0 0 -0.0040849357456302637 -0.0057866060441823129 -0.010412274918649865 0 -0.010412274918649865 -0.0019335590703573281 0 0 0 -0.0019300412786349105 -0.0052768679536426104 -0.012247451848090606 0 -0.012247451848090606 -0.0031972965786735037 0 0 0 -0.0021185411330790281 -0.002771627560571914 -0.01002948900531425 0 -0.01002948900531425 -0.0016501310854868598 0 0 0 -0.0011054396615146934 -0.0032019183608324071 -0.012806253626578687 0 -0.012806253626578687 -0.0027585107349041502 0 0 0 -0.0014901072739341385 0.0023198815761375779 -0.0097667304182774417 0 -0.0097667304182774417 0.00077410819547474503 0 0 0 0.00077349744290308069 0.0072619235850515038 -0.0083885467516151349 0 -0.0083885467516151349 -0.0011769464518040541 0 0 0 0.0015212442833118633 0.0027322806739329877 -0.012319659857569675 0 -0.012319659857569675 -0.0043401738342406099 0 0 0 -0.00040197329007690512 -7.6112558829721788e-06 -0.012467730348776421 0 -0.012467730348776421 -0.0042137121034539066 0 0 0 -0.0010553308398342197 0.00034474774046839348 -0.010450931148522127 0 -0.010450931148522127 -0.0041567127831489969 0 0 0 -0.00095299126067014978 0.0073239854285581437 -0.012240076444367688 0 -0.012240076444367688 -0.0074773512999310038 0 0 0 -3.834146784321632e-05 0.011991469084630401 -0.010399718163570781 0 -0.010399718163570781 -0.0053723972148290583 0 0 0 0.0016547679674503331 0.00080818689015766743 -0.014639060510247204 0 -0.014639060510247204 -0.0080156592544770068 0 0 0 -0.0018018680910798341 0.011302646673843035 -0.012980334637614444 0 -0.012980334637614444 -0.0091744331939644722 0 0 0 0.0005320533699696376 0.0012256734607769544 -0.014113435158587101 0 -0.014113435158587101 -0.0044653954746501582 0 0 0 -0.00080993050346829911 -0.0030552573801068961 -0.016957838899768766 0 -0.016957838899768766 -0.0070723027173795749 0 0 0 -0.0025318900243716178 0.010504523757672229 -0.01182434400893693 0 -0.01182434400893693 -0.0042184878054977587 0 0 0 0.0015715089880436184 -0.0020802617394085898 -0.015206670005163951 0 -0.015206670005163951 -0.0036272640097867806 0 0 0 -0.0014268814372988409 -7.3526105810191311e-05 -0.018482484611353156 0 -0.018482484611353156 -0.003525622888981908 0 0 0 -0.00089978724869802656 -0.017731553069796097 -0.016252664327099566 0 -0.016252664327099566 -0.0072415370275198815 0 0 0 -0.006243272524328998 -0.015415551594221597 -0.016357162251471297 0 -0.016357162251471297 -0.0047875305326543841 0 0 0 -0.0050507705317189983 -0.016500442076717914 -0.013343036708790831 0 -0.013343036708790831 -0.001868374009187615 0 0 0 -0.0045922040214763857 -0.0015827579604926435 -0.013083638949929447 0 -0.013083638949929447 -0.002943741524871037 0 0 0 -0.0011316248713409234 -0.010095709317704302 -0.014273865722707004 0 -0.014273865722707004 -0.0053380199803270273 0 0 0 -0.0038584323245078322 -0.025975629245507552 -0.013578999378651025 0 -0.013578999378651025 -0.0032000986184004508 0 0 0 -0.0072939319659770015 -0.023966882010730696 -0.012107667780913701 0 -0.012107667780913701 0.00085365537945562842 0 0 0 -0.0057783066578187599 -0.034449132866611706 -0.011553617219927027 0 -0.011553617219927027 -0.00058429272984437952 0 0 0 -0.008758356399114018 -0.026116068858231513 -0.01655368796451535 0 -0.01655368796451535 -0.00096715893045382084 0 0 0 -0.0067708069471713317 -0.033720374105529631 -0.013525852868189086 0 -0.013525852868189086 -0.0037535985464639231 0 0 0 -0.0093684931629983859 -0.01839179518045183 -0.019201881873550351 0 -0.019201881873550351 -0.0020040473998298378 0 0 0 -0.0050989606450704203 -0.033055581178962276 -0.014693470337442817 0 -0.014693470337442817 0.0010685845451092746 0 0 0 -0.0079967491584632434 -0.051783533630456062 -0.010569151250712209 0 -0.010569151250712209 -0.0034613706115621257 0 0 0 -0.013811226060504554 -0.057017562595254659 -0.012925000258479123 0 -0.012925000258479123 -0.0025931458653719805 0 0 0 -0.014902677115156675 -0.067655863900236923 -0.0066046800245020722 0 -0.0066046800245020722 -0.00074449936390017651 0 0 0 -0.01710009081603428 -0.048616955534112265 -0.005276223773115889 0 -0.005276223773115889 2.9228824766462658e-05 0 0 0 -0.012146931677336451 -0.055532832485269135 -0.0059155430948680263 0 -0.0059155430948680263 -0.00047943985994029076 0 0 0 -0.014003068086302358 -0.034657820725768507 -0.011774427155498444 0 -0.011774427155498444 -0.00041696923011943707 0 0 0 -0.0087686974889719799 -0.047642993767211213 -0.004955279316753089 0 -0.004955279316753089 -0.002871751175284308 0 0 0 -0.01262868623562388 -0.034597528471652497 -0.0076183021785645767 0 -0.0076183021785645767 0.0018718135663133989 0 0 0 -0.0081814287263347728 -0.077026710454957681 -0.0067493211702122774 0 -0.0067493211702122774 0.0033494447811639877 0 0 0 -0.018419316418448465 -0.11261448990027706 -0.0023544120689109604 0 -0.0023544120689109604 -0.0008175056370592626 0 0 0 -0.02835799888433407 -0.071069054067543339 -0.015253623102628289 0 -0.015253623102628289 0.0027691864334977306 0 0 0 -0.017074966908511419 -0.073686239685780197 -0.0063426138251028996 0 -0.0063426138251028996 -0.00032542081564172765 0 0 0 -0.018502915125355464 -0.094441967255765286 -0.0056703618492179777 0 -0.0056703618492179777 0.00088747230407987265 0 0 0 -0.023388623737921332 -0.079253885702397733 -0.0065076809866109206 0 -0.0065076809866109206 -0.00048375650859350597 0 0 0 -0.019934410552747816 -0.053807899616438726 -0.0067428657719558393 0 -0.0067428657719558393 0.00088546612680248486 0 0 0 -0.01323060837240906 -0.063778406985945488 -0.006092157812162477 0 -0.006092157812162477 0.00071294966890615014 0 0 0 -0.015766364329259815 -0.06120893465604868 -0.015887028432678391 0 -0.015887028432678391 0.00054738336035859217 0 0 0 -0.015165387823922514 -0.03670934846802984 -0.016841828343200881 0 -0.016841828343200881 0.00020782169648353443 0 0 0 -0.0091253816928865694 -0.036649674464163853 -0.015555759989832515 0 -0.015555759989832515 -0.00096757197524911798 0 0 0 -0.009404311609853248 -0.025002347191302884 -0.015883017388361689 0 -0.015883017388361689 -0.0050634889791797352 0 0 0 -0.0075164590426206532 -0.036864334854325352 -0.022686378099312825 0 -0.022686378099312825 0.0028364048752968218 0 0 0 -0.0085069824947571326 -0.049403081977820722 -0.011939545093817311 0 -0.011939545093817311 0.00023112754167088721 0 0 0 -0.012292988609037454 -0.042512867290500356 -0.01134311619483884 0 -0.01134311619483884 0.0018321120195738116 0 0 0 -0.010170188817731646 -0.0084803747903901081 -0.019390589786737789 0 -0.019390589786737789 0.0027804369465845025 0 0 0 -0.0014249844609513958 -0.0059760586615783401 -0.017522796092541131 0 -0.017522796092541131 0.0095335926247062941 0 0 0 0.0008893834907819885 0.0082966852072623113 -0.021395527516747906 0 -0.021395527516747906 -3.2321083283395891e-05 0 0 0 0.0020660910309947319 -0.031178829834174495 -0.017374411367264326 0 -0.017374411367264326 0.0022601494568608061 0 0 0 -0.0072296700943284102 -0.011818459403400844 -0.020576032006782409 0 -0.020576032006782409 0.00053142180439743995 0 0 0 -0.0028217593997508523 -0.027839486346274277 -0.021682943492946454 0 -0.021682943492946454 -0.002335946071943902 0 0 0 -0.00754385810455454 -0.012751934515322381 -0.022043945977189273 0 -0.022043945977189273 -0.0043519994010241536 0 0 0 -0.0042759834790866338 -0.0099355239401727295 -0.017243983571651099 0 -0.017243983571651099 -0.0027288674639518659 0 0 0 -0.0031660978510311497 0.004341707164222287 -0.020423513096057791 0 -0.020423513096057791 -0.0024877240469174319 0 0 0 0.00046349577932621594 -0.012073842327904 -0.018145175679272669 0 -0.018145175679272669 -0.0017218165172740475 0 0 0 -0.0034489147112945094 0.0047324576871298363 -0.015652032747817037 0 -0.015652032747817037 -0.0037412724400425583 0 0 0 0.00024779631177181865 0.020505034987942782 -0.018391275606625082 0 -0.018391275606625082 -0.0037022505803808933 0 0 0 0.0042006961018904729 0.013827477001582215 -0.017127739362163621 0 -0.017127739362163621 -0.0048924618562798707 0 0 0 0.002233753786325586 0.027538217414265143 -0.013746184411501569 0 -0.013746184411501569 -0.0050484893833637537 0 0 0 0.0056224320077253448 0.013812638590321837 -0.012209558708702304 0 -0.012209558708702304 -0.0061976304744462279 0 0 0 0.0019037520289689053 0.021301045833779807 -0.011640951866559675 0 -0.011640951866559675 -0.0016899948262123331 0 0 0 0.0049027627518918688 0.036270808636901145 -0.015083547254897276 0 -0.015083547254897276 -0.00063533987495514171 0 0 0 0.0089088671904864972 0.0092373817451444039 -0.016244267536431229 0 -0.016244267536431229 0.0018658543611921475 0 0 0 0.0027758090265841387 0.029208184719779762 -0.019072236688678357 0 -0.019072236688678357 0.0032228954668495624 0 0 0 0.0081077700466573276 0.027953759922878789 -0.011176216989043752 0 -0.011176216989043752 0.0064050526084493895 0 0 0 0.0085897031328320429 0.042301000886089402 -0.0080217254703643173 0 -0.0080217254703643173 0.018385439110274897 0 0 0 0.015171609999091066 0.048840137006506912 -0.015602827299362427 0 -0.015602827299362427 0.012256180338691667 0 0 0 0.015274079336299644 0.016844560275912329 -0.014904528388038199 0 -0.014904528388038199 0.012029773954118972 0 0 0 0.0072185835575078305 0.0075437253880952064 -0.023044130146254047 0 -0.023044130146254047 0.012703314479343655 0 0 0 0.0050617599668597128 0.030583458114521872 -0.022959660651167731 0 -0.022959660651167731 0.032153740378474044 0 0 0 0.015684299623248965 0.042400705176939266 -0.015133691739201253 0 -0.015133691739201253 0.063851995993434635 0 0 0 0.026563175292593486 0.047564550668785038 0.0060184839685197555 0 0.0060184839685197555 0.053062000523425051 0 0 0 0.025156637798052526 0.034326504813468384 0.0014638831127791463 0 0.0014638831127791463 0.072575015932387799 0 0 0 0.026725380186464087 0.026150355078977894 -0.0014139331748968323 0 -0.0014139331748968323 0.044473294394772434 0 0 0 0.01765591236843761 0.01433804339149076 -0.015679480471989193 0 -0.015679480471989193 0.032925792599554679 0 0 0 0.011815958997761356 0.026719784763116122 -0.0064608683192807978 0 -0.0064608683192807978 0.031689627492979433 0 0 0 0.014602353064023882 0.00065277813721519029 0.00641728249563632 0 0.00641728249563632 0.037847328857632534 0 0 0 0.0096250267487119137 -0.011871958564445395 -0.0036584547872236389 0 -0.0036584547872236389 0.023219692099283318 0 0 0 0.0028369333837095223 -0.029904606399816597 0.0021631979115539881 0 0.0021631979115539881 0.028512698631423805 0 0 0 -0.00034797694209820484 -0.013079932898143562 -0.014516742511732243 0 -0.014516742511732243 0.010386028721259488 0 0 0 -0.00067347604422102192 -0.032477749920335662 -0.0086814205283575197 0 -0.0086814205283575197 0.010670885735503011 0 0 0 -0.0054517160462081576 -0.0064617139197216886 -0.012056417316565385 0 -0.012056417316565385 0.030880585784256759 0 0 0 0.0061047179661337589 -0.029164951632971083 -0.021058316401956451 0 -0.021058316401956451 0.013153837168579305 0 0 0 -0.0040027786160979403 -0.052484516384056303 -0.017288492542457311 0 -0.017288492542457311 0.0058955969898916716 0 0 0 -0.011647229848541156 -0.059813660460102031 -0.0066503231951155761 0 -0.0066503231951155761 0.0042076217342898736 0 0 0 -0.013901509681453032 -0.040221683908949278 -0.017003344000167689 0 -0.017003344000167689 0.012506537426556164 0 0 0 -0.0069287866205982734 -0.05701956807952821 7.5815458204286923e-05 0 7.5815458204286923e-05 0.01081214744143745 0 0 0 -0.0115518551595227 -0.037901269266694335 -0.0033338963641929703 0 -0.0033338963641929703 0.0058831502909876821 0 0 0 -0.0080045297439266666 -0.076175323279600693 0.0079549829990995177 0 0.0079549829990995177 0.004496837645554641 0 0 0 -0.017919621408511527 -0.060313806810808931 -0.0015820546184361906 0 -0.0015820546184361906 0.017631145172467916 0 0 0 -0.010670665409585264 -0.061028388241244819 -0.0070707638241655942 0 -0.0070707638241655942 0.0068360646960664573 0 0 0 -0.013548080886294583 -0.086402516210404651 -0.00017760224124122037 0 -0.00017760224124122037 0.0042544103209067319 0 0 0 -0.020537026472374514 -0.085294956599772875 -0.0029575547346058217 0 -0.0029575547346058217 0.0032934301167554247 0 0 0 -0.020500381620754377 -0.125809429582044 -0.00083314163114675229 0 -0.00083314163114675229 0.0029294415682243335 0 0 0 -0.030719997003454902 -0.089532264017916335 -0.004500658418956055 0 -0.004500658418956055 0.0018627496068401028 0 0 0 -0.021917378602769079 -0.12354819792356804 -0.0058490238700762203 0 -0.0058490238700762203 0.0019958341602582808 0 0 0 -0.03038809094082745 -0.092354929649330897 -0.0014980215891133297 0 -0.0014980215891133297 -0.0014214081252327919 0 0 0 -0.023444084443640927 -0.07124296436471339 -0.01338369657444588 0 -0.01338369657444588 0.0042895116902153287 0 0 0 -0.016738363168624523 -0.083411259034485111 -0.011577084932180084 0 -0.011577084932180084 0.0032390632182807688 0 0 0 -0.020043048954051082 0.036688410418624813 0.013204206647816429 0 0.013204206647816429 0.013452237443088946 0 0 0 0.01253516196542844 0.037629518968234688 0.013650859914924721 0 0.013650859914924721 0.01573663069501223 0 0 0 0.013341537415811726 0.040403949738386173 0.015229223387406329 0 0.015229223387406329 0.016552950242469628 0 0 0 0.014239224995213939 0.030627692408819244 0.013320948987701952 0 0.013320948987701952 0.021569274653385345 0 0 0 0.013049241765551143 0.023129594188927651 0.010877464384482789 0 0.010877464384482789 0.025887539026959457 0 0 0 0.01225428330397178 0.027286565988021965 0.011420801194772108 0 0.011420801194772108 0.014708163808735372 0 0 0 0.010498682449189329 0.019428797993850975 0.0083948763868035327 0 0.0083948763868035327 0.018088194864921081 0 0 0 0.0093792482146930096 0.030901036606900589 0.011994285365428604 0 0.011994285365428604 0.015933656486371163 0 0 0 0.011708673273317937 0.024603166218451267 0.0085297951433346841 0 0.0085297951433346841 0.0082480997712356327 0 0 0 0.0082128164974217231 0.024555314822880682 0.0096026580948465785 0 0.0096026580948465785 0.014340090628908238 0 0 0 0.0097238513629472334 0.024143561671341695 0.0068720017319029471 0 0.0068720017319029471 0.003449124690055639 0 0 0 0.00689817159034933 0.028574898719162935 0.0095799033294595368 0 0.0095799033294595368 0.0091134866144018598 0 0 0 0.009422096333391191 0.03008600318636569 0.0077924152232483231 0 0.0077924152232483231 0.0018758406724437848 0 0 0 0.0079904609647023592 0.030357715533787653 0.0095567472403265095 0 0.0095567472403265095 0.0079900173467825145 0 0 0 0.0095869332201425558 0.034568683467198151 0.010396441085094063 0 0.010396441085094063 0.0071336069635245386 0 0 0 0.010425572607680679 0.036358112415944763 0.0062449516320231763 0 0.0062449516320231763 5.7298100520646392e-05 0 0 0 0.0091038526291163553 0.031996267684690431 0.0045676794961189973 0 0.0045676794961189973 -0.00021368856562984252 0 0 0 0.00794564477976515 0.03050374348618028 -0.0027312562634386386 0 -0.0027312562634386386 -0.0063684641692503888 0 0 0 0.0060338198292324745 0.039277747687721486 0.00076470625041978428 0 0.00076470625041978428 -0.0013370029763618563 0 0 0 0.0094851861778399091 0.037741067320090124 0.0010531378000939993 0 0.0010531378000939993 -0.0015800561522108583 0 0 0 0.0090402527919698147 0.039195037894896298 0.0083808108292714352 0 0.0083808108292714352 0.0051310784921314752 0 0 0 0.011081529096756958 0.028787096825503192 -0.0065993683882858934 0 -0.0065993683882858934 -0.0044727889312695919 0 0 0 0.0060785769735584036 0.035236761406859385 -0.0080831003966348944 0 -0.0080831003966348944 -0.0043307169359288779 0 0 0 0.0077265111177326215 0.039248752014888359 -0.0033093982188418403 0 -0.0033093982188418403 0.001439471090673489 0 0 0 0.010172055776390472 0.044598280924441333 -0.0054809893604813968 0 -0.0054809893604813968 0.0040455187026910075 0 0 0 0.012160949906783085 0.052282299970603796 0.0020622494809209814 0 0.0020622494809209814 0.011488156779088501 0 0 0 0.015942614187423081 0.045148267729170716 0.0094401783595670623 0 0.0094401783595670623 0.006507446303733018 0 0 0 0.01291392850822593 0.050804241499625272 0.0054505673453533535 0 0.0054505673453533535 0.0047356002391064703 0 0 0 0.01388496043468293 0.043222283548502494 0.0083555112176439128 0 0.0083555112176439128 0.009620379006758658 0 0 0 0.013210665638815289 0.055127159247373353 0.011493251596981498 0 0.011493251596981498 0.01213123720502874 0 0 0 0.016814599113100515 0.046502042649980369 0.01846879921914648 0 0.01846879921914648 0.029903484783720513 0 0 0 0.019101381858425227 0.068809040759711282 0.018595246761689766 0 0.018595246761689766 0.026807331890854325 0 0 0 0.023904093162641415 0.055767279586145233 0.018718217686022991 0 0.018718217686022991 0.044363264462765575 0 0 0 0.025032636012227692 0.043041725988878031 0.021969422798236746 0 0.021969422798236746 0.049914724075961869 0 0 0 0.023239112516209977 0.051460514299457819 0.017581215247305514 0 0.017581215247305514 0.031579066749576057 0 0 0 0.020759895262258479 0.066834997835528445 -0.0032632285840809155 0 -0.0032632285840809155 0.019762123744008181 0 0 0 0.021649280394884174 0.0674647185052515 0.003978382854185572 0 0.003978382854185572 0.036169869670516483 0 0 0 0.025908647043941996 0.071266779219915977 -0.015877583880616913 0 -0.015877583880616913 0.030716232523299941 0 0 0 0.025495752935803979 0.12084900535828458 -0.0066382996212881393 0 -0.0066382996212881393 0.056938896583670254 0 0 0 0.044446975485488698 0.078010467744111911 -0.0045681650730968748 0 -0.0045681650730968748 0.13923664925376858 0 0 0 0.054311779249470102 0.11355237108637947 0.052545684658577521 0 0.052545684658577521 0.098576022725817641 0 0 0 0.053032098453049292 0.057152170640960551 0.032961180526470971 0 0.032961180526470971 0.086394563153853493 0 0 0 0.035886683448703494 0.028786251571156864 0.016358180431473603 0 0.016358180431473603 0.046444142585346709 0 0 0 0.018807598539125898 0.055402323272391127 0.021636155848667904 0 0.021636155848667904 0.045199431417914313 0 0 0 0.02515043867257637 0.029442169944786753 -0.0057466057881060545 0 -0.0057466057881060545 0.098920967398148082 0 0 0 0.032090784335733716 0.02129658495150686 -0.0059217707874626557 0 -0.0059217707874626557 0.055668282334436138 0 0 0 0.01924121682148576 0.021330518337222836 -0.0063062693909158515 0 -0.0063062693909158515 0.059505439543748206 0 0 0 0.020208989470242768 0.03154346473528126 0.01663688810335328 0 0.01663688810335328 0.056627773669183 0 0 0 0.022042809601116084 0.032563229835225284 0.015572790758003788 0 0.015572790758003788 0.030347152716259762 0 0 0 0.01572759563787126 0.026979333196799044 0.013578550548939888 0 0.013578550548939888 0.049540922987041019 0 0 0 0.019130064045960009 0.019293633154888808 0.0084855971897790927 0 0.0084855971897790927 0.032664430036587047 0 0 0 0.012989515797868962 0.026222038754645273 0.013327439875130425 0 0.013327439875130425 0.039625494120643645 0 0 0 0.016461883218822228 0.029260649944178273 0.013493999601232473 0 0.013493999601232473 0.021506126111178248 0 0 0 0.012691694013839124 0.035305678231913419 0.017752192224748737 0 0.017752192224748737 0.032897862527813834 0 0 0 0.017050885189931819 0.018800268121743603 0.0091759517822707481 0 0.0091759517822707481 0.023637319321243216 0 0 0 0.010609396860746701 0.018426437667222118 0.0085870231564603057 0 0.0085870231564603057 0.035425390885323024 0 0 0 0.01346295713813629 0.017491481303497342 -0.0061808710397191985 0 -0.0061808710397191985 0.038507001901060593 0 0 0 0.013999620801139485 0.013198535131035994 0.0014810518004103072 0 0.0014810518004103072 0.036994507910907214 0 0 0 0.0125482607604858 0.01191087655639887 0.002746198185355363 0 0.002746198185355363 0.030665603924775565 0 0 0 0.010644120120293614 0.019428296139439815 0.0067031506016482527 0 0.0067031506016482527 0.047467840072502931 0 0 0 0.016724034052985687 0.013806811680803339 -0.0057534130352788178 0 -0.0057534130352788178 0.030247530777878642 0 0 0 0.011013585614670501 0.014006636907240024 -0.0049819599085631138 0 -0.0049819599085631138 0.027078276777546838 0 0 0 0.010271228421196706 0.021697770558822799 -0.012821144914052451 0 -0.012821144914052451 0.029221688589914276 0 0 0 0.012729864787184256 0.018769522075391128 -0.011205123311758797 0 -0.011205123311758797 0.016629992278392597 0 0 0 0.0088498785884459294 0.013459341014788202 -0.0076659116938057326 0 -0.0076659116938057326 0.01509560038153036 0 0 0 0.0071387353490796508 0.0215098691559212 -0.012189316159079353 0 -0.012189316159079353 0.017248266790547584 0 0 0 0.0096895339866172187 0.02160494681373239 -0.011423433000321739 0 -0.011423433000321739 0.017571716178078602 0 0 0 0.0097941657479527506 0.01657976225013074 -0.0090546840962929358 0 -0.0090546840962929358 0.0092374993773426117 0 0 0 0.0064543154068683259 0.034378112848416881 -0.0051244352399826675 0 -0.0051244352399826675 0.0079120180267307494 0 0 0 0.010572532718786901 0.027556696978206979 -0.0079841780270386853 0 -0.0079841780270386853 0.0031607433737999013 0 0 0 0.0076793600880017132 0.030420265823440533 -0.010183761366131194 0 -0.010183761366131194 0.0081639806626360445 0 0 0 0.0096460616215191322 0.042155642013352659 -0.018553710838989556 0 -0.018553710838989556 0.020631036482443726 0 0 0 0.015696669623949097 0.017950967539823399 -0.0059870200816076729 0 -0.0059870200816076729 0.039798405300049237 0 0 0 0.014437343209968151 0.025727496429103557 -0.014011729596785358 0 -0.014011729596785358 0.026590830054418722 0 0 0 0.013079581620880572 0.025853573430385579 -0.015962144304705581 0 -0.015962144304705581 0.032458891119856524 0 0 0 0.014578116137560515 0.02998713246403743 -0.019723044075584988 0 -0.019723044075584988 0.047597005313014008 0 0 0 0.019396034444262859 0.019882308777831655 -0.0169341959541955 0 -0.0169341959541955 0.062017901184279363 0 0 0 0.020475052490527758 0.035413935203515122 -0.016576116648189622 0 -0.016576116648189622 0.061869565408470981 0 0 0 0.024320875152996531 0.050852151957010969 -0.0018782152543897479 0 -0.0018782152543897479 0.17797871025468778 0 0 0 0.057207715552924678 0.043159171179917237 -0.0058665301457643884 0 -0.0058665301457643884 -0.0067992746069894111 0 0 0 0.0090899741432319651 0.056477534470044985 -0.028555296867415893 0 -0.028555296867415893 0.036544318199457047 0 0 0 0.023255463167375506 0.10788714658883714 0.06845365422871344 0 0.06845365422871344 0.11442786263638816 0 0 0 0.055578752306306337 0.053372927787308434 -0.04161772340991348 0 -0.04161772340991348 0.074490610333459412 0 0 0 0.031965884530191953 0.0036145367353442375 0.00073865371176147412 0 0.00073865371176147412 0.01004025524832138 0 0 0 0.0034136979959164043 0.18443326801691504 0.053286287434280752 0 0.053286287434280752 0.031150453360733188 0 0 0 0.053895930344412091 0.095449136745467025 0.013369735694437224 0 0.013369735694437224 0.015983578595575192 0 0 0 0.0278581788352605 0.0087047777646270391 0.0018301827564743949 0 0.0018301827564743949 0.026104508084726918 0 0 0 0.0087023214623384894 0.015362322076160367 0.0033133081413687857 0 0.0033133081413687857 0.021225802042160846 0 0 0 0.0091470310295803103 0.10653662811575762 0.016067379213224587 0 0.016067379213224587 0.01399247265721737 0 0 0 0.03013227519324374 0.012765014614785993 0.002649002047580124 0 0.002649002047580124 0.038111786771448344 0 0 0 0.012719200346558584 0.022858640619576487 0.005519222851597963 0 0.005519222851597963 0.02632363317205233 0 0 0 0.012295568447907246 0.07778446964763619 0.015536401408110245 0 0.015536401408110245 0.01050802404333806 0 0 0 0.022073123422743535 0.034414658229358706 -0.0089322045408173414 0 -0.0089322045408173414 -0.0022201335942033523 0 0 0 0.0080486311587888368 0.035060840074316625 0.0033112295437549844 0 0.0033112295437549844 0.016296056618940347 0 0 0 0.012839224173314269 0.034284245717495186 -0.0023999602609335591 0 -0.0023999602609335591 0.011375645822931518 0 0 0 0.011414972885106706 0.033119317451543687 -0.0004005147026494571 0 -0.0004005147026494571 0.0074647515840299133 0 0 0 0.010146017258893397 0.028569877755615647 0.0030471898480143381 0 0.0030471898480143381 0.011226642252776253 0 0 0 0.0099491300020979889 0.033891700864064261 0.0031493307755705441 0 0.0031493307755705441 0.028365317009640401 0 0 0 0.015564254468426186 0.033921227350713845 0.0052264387173613647 0 0.0052264387173613647 0.032393472881260432 0 0 0 0.016578675057993569 0.031775747612715233 0.0017286753125200713 0 0.0017286753125200713 0.011899837561020199 0 0 0 0.010918896293433858 0.071354112003496228 0.013262171592671734 0 0.013262171592671734 0.011268036209647891 0 0 0 0.020655537053285988 0.076842743226445687 0.0090663909600761095 0 0.0090663909600761095 0.030153719800685042 0 0 0 0.026749115756782627 0.097606329196249786 0.0063764218972606054 0 0.0063764218972606054 0.027606349759597304 0 0 0 0.031303169738961745 0.016656928772415692 0.0032452894732770488 0 0.0032452894732770488 0.049836923461486188 0 0 0 0.016623463058475469 0.088313545980127417 0.0090620939131365423 0 0.0090620939131365423 0.031854827406795572 0 0 0 0.030042093346730692 0.078014325351541958 0.005710919872140896 0 0.005710919872140896 0.03061863480954774 0 0 0 0.027158240040272563 0.061989042609441825 0.014960730536267897 0 0.014960730536267897 0.02947574269069686 0 0 0 0.022866196325034727 0.084248243981201565 0.008708547999997476 0 0.008708547999997476 0.040065377137106228 0 0 0 0.031078405279576948 0.042841271136463979 0.0050232150001394693 0 0.0050232150001394693 0.043865929994203134 0 0 0 0.021676800282666761 0.020758454105032458 0.0037101166798937327 0 0.0037101166798937327 0.062136883233080781 0 0 0 0.020723834334528311 0.066531610684196441 0.0079391388933822693 0 0.0079391388933822693 0.0395170783993255 0 0 0 0.02651217227088043 0.031419930688352207 0.0040882957656042801 0 0.0040882957656042801 0.019619975008623669 0 0 0 0.012759976424243969 0.0275872185025057 0.0016119212030695079 0 0.0016119212030695079 0.010503401336280749 0 0 0 0.0095226549596966192 0.037889911849161226 0.0021749587002621584 0 0.0021749587002621584 0.037934894765666749 0 0 0 0.018956201653706997 0.030113351054223692 0.0022969687829681798 0 0.0022969687829681798 0.020729388163966189 0 0 0 0.012710684804547456 0.03567759902943024 0.0030727904280829325 0 0.0030727904280829325 0.022029541987332979 0 0 0 0.014426785254190805 0.025393881346523033 0.00078831438708740209 0 0.00078831438708740209 0.0075892956723045898 0 0 0 0.008245794254706916 0.021298378959766592 0.00074639966191460128 0 0.00074639966191460128 0.0084042875983705856 0 0 0 0.0074256666395342841 0.027135082427700338 0.0017076606853521428 0 0.0017076606853521428 0.008353894895224534 0 0 0 0.0088722443307311799 0.022522032054354067 -0.0038369206585032734 0 -0.0038369206585032734 0.0041740105374705912 0 0 0 0.0066740106479561325 0.021314638839200331 -0.0011227640268341339 0 -0.0011227640268341339 0.0035834585657373297 0 0 0 0.0062245243512344256 0.013704148531781785 -0.0030641125272876449 0 -0.0030641125272876449 0.0026329366689912259 0 0 0 0.0040842713001932596 0.0160090033286137 -0.005113100975150997 0 -0.005113100975150997 0.0036560176480842088 0 0 0 0.0049162552441744667 0.015783280739166503 -0.0072867218670663869 0 -0.0072867218670663869 0.0043688435722067931 0 0 0 0.0050380310778433274 0.018971370981066021 -0.0031883493064551738 0 -0.0031883493064551738 0.0043936983657883143 0 0 0 0.0058412673367135978 0.022123876209178148 -0.0051424174474909851 0 -0.0051424174474909851 0.0038310415990772118 0 0 0 0.0064887294520638295 0.015184162334812248 -0.0074947734833944596 0 -0.0074947734833944596 0.0040337023568593477 0 0 0 0.0048044661729178956 0.021532010229950459 -0.0092388630094576915 0 -0.0092388630094576915 0.006978074624213737 0 0 0 0.0071275212135410784 0.015775416388025411 -0.009239626899961037 0 -0.009239626899961037 0.009017231859031194 0 0 0 0.0061981620617641425 0.02326505080923072 -0.005744416615229158 0 -0.005744416615229158 0.0037291591354796927 0 0 0 0.0067485524861775892 0.026625850121894896 -0.001265990158378999 0 -0.001265990158378999 0.0029770814838369214 0 0 0 0.0074007329014329284 0.028410423511183155 -0.0023188907672734849 0 -0.0023188907672734849 0.0060948900143676602 0 0 0 0.0086263283813877 -0.079479652695888553 0.0038309688537607189 0 0.0038309688537607189 5.0497192061182972e-05 0 0 0 -0.019857288875956891 -0.098780235222379387 0.0075235979123499065 0 0.0075235979123499065 0.0015832649993894332 0 0 0 -0.024299242555747558 -0.068773246665533361 0.018172945140211672 0 0.018172945140211672 0.0064106151209926132 0 0 0 -0.015590657886135173 -0.11938941341559572 0.0065547576979648747 0 0.0065547576979648747 0.0018213136482623238 0 0 0 -0.02939202494183335 -0.11657283672838668 0.0040139366062771353 0 0.0040139366062771353 0.0035884479077563647 0 0 0 -0.028246097205157639 -0.073849520233617294 0.0024622385691005777 0 0.0024622385691005777 0.001275514881528203 0 0 0 -0.018143501338022287 -0.080609454633239694 0.0081848398840715375 0 0.0081848398840715375 0.0014649932912290664 0 0 0 -0.019786115335502591 -0.05905481398005169 0.015690039072885367 0 0.015690039072885367 0.010749887274474568 0 0 0 -0.012076231676394267 -0.037407123703971118 0.01454121285577642 0 0.01454121285577642 0.0094910955629586846 0 0 0 -0.006979007035253143 -0.026637877228655821 0.021335661149553764 0 0.021335661149553764 0.021772803866231927 0 0 0 -0.0012162683406058694 -0.037845786939839476 0.012039136390311067 0 0.012039136390311067 0.0026555856497296748 0 0 0 -0.0087975503225275475 -0.035325694093893412 0.024729987451610369 0 0.024729987451610369 0.0090375075003411576 0 0 0 -0.006572046648388119 -0.053160326102297928 0.011756122450914508 0 0.011756122450914508 0.00094268300043043318 0 0 0 -0.013054410775466874 -0.025930949052914605 0.01806741659448452 0 0.01806741659448452 0.0039611305875057179 0 0 0 -0.0054924546163521229 0.02062936380896685 0.031533504576314986 0 0.031533504576314986 0.0092471919614594 0 0 0 0.0074691389426065902 -0.0017878497864382559 0.022379008272829182 0 0.022379008272829182 0.0081145275012515228 0 0 0 0.0015816694287032473 0.032377501715263851 0.035017433494516789 0 0.035017433494516789 0.022132533970784629 0 0 0 0.013627508921512071 -0.0028968743663775331 0.025575125456892833 0 0.025575125456892833 0.0080081278809933654 0 0 0 0.0012778133786539581 -0.03196904890465202 0.008574303816604234 0 0.008574303816604234 0.011256087640659107 0 0 0 -0.0051782403159982837 -0.0086327761032390614 0.023286640003415793 0 0.023286640003415793 0.030109175178461713 0 0 0 0.0053690997688056775 -0.00059521915415167853 0.016132605219645907 0 0.016132605219645907 0.022148575977142412 0 0 0 0.0053883392057476817 0.027797899265687848 0.03013660040367222 0 0.03013660040367222 0.047389852552347067 0 0 0 0.018796937954508708 0.037558510527036015 0.033372567807475051 0 0.033372567807475051 0.07888038793703267 0 0 0 0.029109724616017185 0.063582708382900477 0.039023680516786813 0 0.039023680516786813 0.027494246199765149 0 0 0 0.022769238645666379 0.071915753459694004 0.038794763292377243 0 0.038794763292377243 0.030094329698877154 0 0 0 0.025502520789642734 0.039304191048416315 0.022090672153456142 0 0.022090672153456142 0.0087868557213666154 0 0 0 0.01202276169244576 0.056733357135233142 0.030210348471021664 0 0.030210348471021664 0.011404631433809431 0 0 0 0.017034497142260629 0.070301888226123932 0.012287245780008782 0 0.012287245780008782 0.01214904393203442 0 0 0 0.020612733039539588 0.032051799284732431 0.020023985281769241 0 0.020023985281769241 0.004925507698448961 0 0 0 0.0092443267457953185 0.033632208305545974 0.026194737640276522 0 0.026194737640276522 0.0046667664787714003 0 0 0 0.009574743696079302 0.055263702293194439 0.017122194618033104 0 0.017122194618033104 0.010104464962934046 0 0 0 0.016342041814032093 0.055213335129359498 0.016798640258659625 0 0.016798640258659625 0.012502278425435831 0 0 0 0.016928903388698846 0.057846471095469032 0.013644284945316942 0 0.013644284945316942 0.015115435021151757 0 0 0 0.018240476529155281 0.047553529806468653 0.020178492518625912 0 0.020178492518625912 0.011688448113315042 0 0 0 0.014810494479945979 0.032015929027996326 0.020693758518408926 0 0.020693758518408926 0.0062026742600584939 0 0 0 0.0095546508220136772 0.032341669865615152 0.02486963913899054 0 0.02486963913899054 0.004594610999745008 0 0 0 0.0092340702163399291 0.0072850787565512803 0.021060353040944668 0 0.021060353040944668 0.0030279471600206664 0 0 0 0.0025782564791429069 0.0096362535905646363 0.025449576414009689 0 0.025449576414009689 0.0030767266315376851 0 0 0 0.0031782450555255526 0.0063930555482515361 0.02244592789644928 0 0.02244592789644928 0.0028745042208679905 0 0 0 0.0023168899422798539 -0.016595820600339928 0.025047291016672552 0 0.025047291016672552 0.0037336273991268598 0 0 0 -0.0032155483003032392 0.0086322817117433503 0.025909274052768105 0 0.025909274052768105 0.0031738919870250015 0 0 0 0.0029515434246920602 0.016245849978844817 0.020401901955158563 0 0.020401901955158563 0.0013036140341720071 0 0 0 0.0043873660032540673 -0.0070595568843962453 0.02082994823651857 0 0.02082994823651857 0.0025555759881075168 0 0 0 -0.0011259952240721405 -0.015330097660504638 0.027294160143708002 0 0.027294160143708002 0.0044500175695159072 0 0 0 -0.0027200200227471827 -0.032377696321564731 0.015864446305481117 0 0.015864446305481117 0.00017467295241080372 0 0 0 -0.0080507558422884262 -0.042168702431567617 0.022145462933703342 0 0.022145462933703342 0.0035847987893411482 0 0 0 -0.0096459759105566034 -0.039191989231014857 0.014296300106161598 0 0.014296300106161598 -0.00021144710711462622 0 0 0 -0.0098508590845323152 -0.037592807315300542 0.022198653633832777 0 0.022198653633832777 0.0023379609932244749 0 0 0 -0.0088137115805191069 -0.01657747550548655 0.022943319175013355 0 0.022943319175013355 -0.00062494075741148514 0 0 0 -0.0043006040657245226 -0.014013542875532248 0.026443453014120211 0 0.026443453014120211 -0.0028002951029952872 0 0 0 -0.004203459494631856 -0.027074715902667301 0.020352078906875404 0 0.020352078906875404 0.001832066138854227 0 0 0 -0.0063106624409532408 -0.035466583477087199 0.015618954903086735 0 0.015618954903086735 -0.00096522305261892427 0 0 0 -0.0091079516324266141 -0.046963729700307155 0.01937640888237202 0 0.01937640888237202 0.0011787979194775033 0 0 0 -0.011446232945207413 -0.065983109507330884 0.0073662356817072614 0 0.0073662356817072614 -3.1481364510366205e-05 0 0 0 -0.016503647717960424 -0.040683459314967141 0.0081132258846290384 0 0.0081132258846290384 0.0012355494719908933 0 0 0 -0.0098619774607440203 -0.053564701601885534 0.0076161151364980695 0 0.0076161151364980695 0.0014833540017953339 0 0 0 -0.013020336900022578 -0.086312774449396112 0.0061131935907692871 0 0.0061131935907692871 0.00018391198371947581 0 0 0 -0.021532215616419048 -0.064287124759990599 0.014814762128975978 0 0.014814762128975978 0.0024512993489275159 0 0 0 -0.015458956352765785 -0.063320243024179323 0.0080399330169446115 0 0.0080399330169446115 -0.0011832749264406583 0 0 0 -0.016125879487654926 -0.012253713473712166 0.010001016942641883 0 0.010001016942641883 0.0024691865798771861 0 0 0 -0.0024461317234586305 -0.02917952730348039 0.0079908854203656343 0 0.0079908854203656343 -0.0033046695636747003 0 0 0 -0.0081210492167886894 -0.016143366923911273 0.013735906252238111 0 0.013735906252238111 0.00038668077979853166 0 0 0 -0.0039391715360281854 -0.034593405139418776 0.0079995977315686188 0 0.0079995977315686188 0.0011687575754741886 0 0 0 -0.0083561618909862023 -0.033592621927727051 0.006431299558415704 0 0.006431299558415704 -0.00043802522688585199 0 0 0 -0.0085076617886533645 -0.052432349354423202 0.0079816725510954215 0 0.0079816725510954215 8.2130448746831064e-05 0 0 0 -0.013087554726419093 -0.044349023061823645 0.013792222304535584 0 0.013792222304535584 -0.00051743948096749648 0 0 0 -0.011216615635697536 -0.035277639736891131 0.013113444689631049 0 0.013113444689631049 -0.00061068382655826703 0 0 0 -0.0089720808908625438 -0.024878733563510336 0.020339367029111516 0 0.020339367029111516 -0.0001196133265910504 0 0 0 -0.006249586722525402 -0.023325279693809708 0.015676024389736365 0 0.015676024389736365 0.0017017358201334432 0 0 0 -0.0054058859684191773 -0.016175052694350933 0.017673555875128699 0 0.017673555875128699 -0.00052906960440557427 0 0 0 -0.0041760305746889603 -0.0086787214688898162 0.018324537766161386 0 0.018324537766161386 0.00071768496996948983 0 0 0 -0.0019902591247301649 -0.0081277613906631796 0.017983609931299105 0 0.017983609931299105 -0.0012551037216739225 0 0 0 -0.00234571627808422 -0.0188329239239034 0.019384130504403907 0 0.019384130504403907 -0.00013822513243311185 0 0 0 -0.004742787264084336 -0.0057101817343567784 0.018784598261065155 0 0.018784598261065155 -0.00028367362895664883 0 0 0 -0.0014984638408281903 0.007538260645904904 0.020409507371367347 0 0.020409507371367347 5.4298183894019303e-05 0 0 0 0.0018981397074495643 0.0078729448126849677 0.020888634151863927 0 0.020888634151863927 0.00087636545293223733 0 0 0 0.0021873275664044955 0.019853554569034149 0.020781050618008612 0 0.020781050618008612 0.0020018712693858909 0 0 0 0.0054638564596050099 -0.0070270822395172017 0.022908456092134433 0 0.022908456092134433 -0.00072323933477358437 0 0 0 -0.0019375803935729463 -0.0091496824419348144 0.025253709503366917 0 0.025253709503366917 -0.0012083479695488286 0 0 0 -0.0025895076028707997 0.0055742477007269531 0.021614444157841306 0 0.021614444157841306 0.00010181186434388145 0 0 0 0.001419014891267556 0.0049873441177130332 0.019050780943467682 0 0.019050780943467682 0.0034653098677000088 0 0 0 0.0021131634963532328 0.017189658639167299 0.024855760666677273 0 0.024855760666677273 0.001847198502278935 0 0 0 0.0047592142853616071 0.0066947593835549046 0.021877627012810374 0 0.021877627012810374 0.0038198924323289418 0 0 0 0.0026286629539709061 0.031138470057994992 0.017478069381416939 0 0.017478069381416939 0.0096593166758298377 0 0 0 0.010199446683456424 0.031318945598951653 0.018063101776651491 0 0.018063101776651491 0.01266090300789946 0 0 0 0.010994962151712806 0.028642846803744182 0.020823956105161027 0 0.020823956105161027 0.005201894677971719 0 0 0 0.0084611853704289475 0.038212338163925885 0.020811988955149463 0 0.020811988955149463 0.012164442159728672 0 0 0 0.012594195080913639 0.052505186710267271 0.011565215870839918 0 0.011565215870839918 0.027225008594085942 0 0 0 0.019932548826088414 0.037433669525598567 0.016590946309863908 0 0.016590946309863908 0.010467097420661098 0 0 0 0.011975191736564916 0.042402158542960033 0.018226987959074625 0 0.018226987959074625 0.02458418730778078 0 0 0 0.01674658646268512 0.022552154970455929 0.023166246512492661 0 0.023166246512492661 0.0073407843094250858 0 0 0 0.0074732348199701981 0.026657363223908881 0.020094898717315512 0 0.020094898717315512 0.0086348754883411871 0 0 0 0.008823059678062517 0.047541896429331265 0.01081760791998676 0 0.01081760791998676 0.014402664836855816 0 0 0 0.015486140316546493 0.028098811663539891 0.0061765363767649628 0 0.0061765363767649628 0.00010179094500539776 0 0 0 0.0070501506521361001 0.05141011151413559 0.01584854070687336 0 0.01584854070687336 0.01487758315464438 0 0 0 0.016571923667195218 0.035380714183059325 0.009129446456462853 0 0.009129446456462853 0.0006157773769217556 0 0 0 0.0089991228899952702 0.056804276376629215 -0.0024312019734020751 0 -0.0024312019734020751 0.011962702102704448 0 0 0 0.017191744619833305 0.058378397552403927 0.0085331475199823537 0 0.0085331475199823537 0.010588912888926494 0 0 0 0.017241827610332772 0.042016624168954179 -0.0031940522815339101 0 -0.0031940522815339101 -0.020702026306363377 0 0 0 0.0053286494656477569 0.018813439802561227 0.0012720556477985867 0 0.0012720556477985867 -0.013828233691942415 0 0 0 0.0012463015276544809 0.0079930221549699976 0.011789719749848437 0 0.011789719749848437 -0.008682276917459042 0 0 0 -0.00017231369062198354 0.0051627145860033696 0.007418356806636401 0 0.007418356806636401 -0.017173199624259894 0 0 0 -0.0030026212595644086 0.015944378313852647 0.0070964588494790704 0 0.0070964588494790704 -0.026920018714585048 0 0 0 -0.0027439101001831556 0.0075354493620317653 0.018279838276348492 0 0.018279838276348492 -0.0036771711698520004 0 0 0 0.00096456954804480244 0.022169004033783857 0.016035389271035372 0 0.016035389271035372 -0.0047257389316319731 0 0 0 0.0043608162755379709 0.0078272074764575983 0.016031705747737046 0 0.016031705747737046 -0.0038517907986999056 0 0 0 0.00099385416943920113 0.02326291974671596 0.018071223468203446 0 0.018071223468203446 0.0010642230598223446 0 0 0 0.00608178570163459 -0.004902192438265951 0.017339843626604123 0 0.017339843626604123 -0.0048255009829500928 0 0 0 -0.0024319233553040664 -0.016524231582710616 0.012785195992286891 0 0.012785195992286891 -0.0040102631103468567 0 0 0 -0.0051336236732644897 -0.0014767871474283822 0.011903613105538779 0 0.011903613105538779 -0.0054555799386672987 0 0 0 -0.0017330917715239202 -0.0050233473861487354 0.0115821771234208 0 0.0115821771234208 -0.00062327577146215063 0 0 0 -0.0014116557894028325 -0.0030217496579033609 0.013273268529429894 0 0.013273268529429894 -0.012469650803609067 0 0 0 -0.0038728501153781902 6.415107759094596e-05 0.0069566844356192536 0 0.0069566844356192536 -0.020122107237392051 0 0 0 -0.0050144890399506092 -0.0007673382143870783 0.0042277149343701304 0 0.0042277149343701304 -0.0096921113243109945 0 0 0 -0.0026148623846748513 0.0046426463273840923 0.0064107039544336608 0 0.0064107039544336608 -0.0064849654921328437 0 0 0 -0.00046057979118740988 -0.0010164577412925535 0.0074726875357979949 0 0.0074726875357979949 -0.0077891991906793301 0 0 0 -0.0022014142329929154 -0.0048345717636884 0.0055999166593794225 0 0.0055999166593794225 -0.0044245346996616419 0 0 0 -0.002314776615837788 0.0008756788454258313 0.0022366368771447043 0 0.0022366368771447043 -0.0031229184928909248 0 0 0 -0.00056180991186627338 -0.00057980642427879481 0.0014285911340519153 0 0.0014285911340519153 -0.00097503746816229864 0 0 0 -0.00038871097310999581 -0.0014703815491516892 0.0017852802150283514 0 0.0017852802150283514 -0.0015837480086862143 0 0 0 -0.00076353238945925384 -0.00062598110715939015 0.0032291952911038813 0 0.0032291952911038813 0.0012380453513129996 0 0 0 0.00015301606103812482 -0.0082404351069220727 0.0050053744723216349 0 0.0050053744723216349 0.0017604465761271726 0 0 0 -0.0016199971326986695 -0.008829934657345051 0.0059772186930782123 0 0.0059772186930782123 -0.0022011921378197741 0 0 0 -0.0027577816987911508 -0.02074535750390516 0.0065236329243514015 0 0.0065236329243514015 -0.0024916807175818789 0 0 0 -0.0058092595553718152 0.01463811507155835 -0.0018461068215620685 0 -0.0018461068215620685 0.00030779390956614527 0 0 0 0.0037364772452811168 0.025956093444106709 0.00047787166216564647 0 0.00047787166216564647 0.010570226179389297 0 0 0 0.0091315799058740432 0.029041845934282023 0.00200769822983363 0 0.00200769822983363 0.0083173489446243254 0 0 0 0.0093397987197265941 0.020748319513299189 0.0032143449353587428 0 0.0032143449353587428 -0.0010229852055587893 0 0 0 0.0049313335769350305 0.011330315208969793 -3.4785084258096011e-05 0 -3.4785084258096011e-05 -0.0073243231405357712 0 0 0 0.0010014980171085264 0.0059130973770622625 -0.0017532753929739853 0 -0.0017532753929739853 -0.0030427590315406927 0 0 0 0.00071758458638034039 0.0061884782623987389 -0.0050463592693271997 0 -0.0050463592693271997 -0.0065548863791968226 0 0 0 -9.1602029199527868e-05 0.012833793376875263 -0.0026320821187082698 0 -0.0026320821187082698 -0.00070182419019826359 0 0 0 0.0030329922966692568 0.0083679582172153377 -0.0041156430781046915 0 -0.0041156430781046915 0.0016209073119214379 0 0 0 0.0024972163822841731 0.0093436747150210525 -0.0040714364194686103 0 -0.0040714364194686103 0.0019440569957323156 0 0 0 0.0028219329276883559 0.020429762589303513 4.0896209164135999e-05 0 4.0896209164135999e-05 0.003813924575071459 0 0 0 0.006060921791093743 0.018881421587032293 -0.0010770540469138225 0 -0.0010770540469138225 0.0033837324889975373 0 0 0 0.0055662885190074507 0.01262745356046209 0.00074759648342659357 0 0.00074759648342659357 0.0015994377689435429 0 0 0 0.003556722832351436 0.020860924994923119 0.002810011140675263 0 0.002810011140675263 0.0091218430229809133 0 0 0 0.0074956920044760567 0.026615668991497671 0.0018302502386561004 0 0.0018302502386561004 0.0098677049443341436 0 0 0 0.0091208434839579744 0.031113929363627071 0.002610458787725034 0 0.002610458787725034 0.023504550343867447 0 0 0 0.013654619926873626 0.044566600007522703 0.0028510782682352742 0 0.0028510782682352742 0.049385586766286793 0 0 0 0.023488046693452377 0.052794292111828359 0.0018742051987543362 0 0.0018742051987543362 0.058390934683225149 0 0 0 0.027796306698763387 0.041377823358021482 0.0036264628959388201 0 0.0036264628959388201 0.024607526994338214 0 0 0 0.016496337588089993 0.06414532302492193 0.017058689534447447 0 0.017058689534447447 0.034969191755069406 0 0 0 0.024778628694998028 0.084946400839185365 0.006767054707966489 0 0.006767054707966489 0.0550774306876054 0 0 0 0.035005957881697469 0.054043521960631558 0.0046893482847202017 0 0.0046893482847202017 0.05138444148443766 0 0 0 0.026356990861267304 0.025116728699285509 0.0040583600113649615 0 0.0040583600113649615 0.075196181294446912 0 0 0 0.025078227498433105 0.054998617116745474 0.01562385893647722 0 0.01562385893647722 0.023305766700892239 0 0 0 0.019576095954409234 0.067231207208451327 0.010799431194591813 0 0.010799431194591813 0.057251794287094704 0 0 0 0.031120750373886397 0.065764315590839159 0.0055377767957287549 0 0.0055377767957287549 0.048449435489261117 0 0 0 0.028553437770025045 0.029779747832559142 0.0042517798741469361 0 0.0042517798741469361 0.089233167345173808 0 0 0 0.029753228794433241 0.066585190125162785 0.0041946424577005703 0 0.0041946424577005703 0.059767624735980962 0 0 0 0.031588203715285951 0.081575772373980504 0.011332075584648616 0 0.011332075584648616 0.057438917955377811 0 0 0 0.034753672582339412 0.034852468942424442 0.0043751979321459853 0 0.0043751979321459853 0.10422836443952639 0 0 0 0.034770208345487705 0.059212758263188059 0.016038751882057722 0 0.016038751882057722 0.044009492974805386 0 0 0 0.025805562809498528 0.034528040415168257 0.0032611166802813674 0 0.0032611166802813674 0.026057134714879276 0 0 0 0.015146293782511852 0.06027728964526427 0.0043464297590948553 0 0.0043464297590948553 0.061851901301575696 0 0 0 0.030532297736710012 0.03673124482046583 0.0067958665168270094 0 0.0067958665168270094 0.012650197136314101 0 0 0 0.01234536048919499 0.047702934538630892 0.00061395164876157371 0 0.00061395164876157371 0.026199879438024154 0 0 0 0.018475703494163748 0.054396956791264786 0.0082559155367888937 0 0.0082559155367888937 0.018868972190090039 0 0 0 0.018316482245338623 0.037907805379906706 0.00012602709600784134 0 0.00012602709600784134 0.015259095507247578 0 0 0 0.013291725221788564 0.083204441939347562 0.0059054859067040055 0 0.0059054859067040055 0.063133261459143331 0 0 0 0.036584425849622765 0.074108018421236183 0.00053257518713006879 0 0.00053257518713006879 0.071079180763289729 0 0 0 0.036296799796131457 0.06211065230356122 -0.0033511132571148183 0 -0.0033511132571148183 0.02393015911150087 0 0 0 0.021510202853765426 0.086835816908346297 0.0025970030357527207 0 0.0025970030357527207 0.069465374078254705 0 0 0 0.039075297746649973 0.039957072410268919 0.0042677242251631282 0 0.0042677242251631282 0.12026333086429511 0 0 0 0.040055100818641012 0.10830267024202822 0.004194990968582557 0 0.004194990968582557 0.075406381295892944 0 0 0 0.045927262884480263 0.097001062758520273 0.012629518930595385 0 0.012629518930595385 0.072858712947859061 0 0 0 0.042464943926594723 0.071416501600577109 0.00018983262940497347 0 0.00018983262940497347 0.049335195250600372 0 0 0 0.03018792421279437 0.08403100334925484 0.014268949601080605 0 0.014268949601080605 0.057451650615849115 0 0 0 0.035370663491275822 0.046985681436109372 0.0043165931506857873 0 0.0043165931506857873 0.13839254246933316 0 0 0 0.046344555976360641 0.1365371321140616 0.0012667046283401096 0 0.0012667046283401096 0.078256203294454707 0 0 0 0.053698333852128632 0.097070578061976193 -0.013658864952073912 0 -0.013658864952073912 0.053907664379208652 0 0 0 0.037744560610296324 0.042362009338336115 0.0081766856365944052 0 0.0081766856365944052 -0.0083534651128691628 0 0 0 0.0085021360563667381 0.08446560080127552 0.011722422926527254 0 0.011722422926527254 0.066493447591708166 0 0 0 0.037739762098245921 0.12864588558353701 -0.00076407500783703952 0 -0.00076407500783703952 0.073620446510655579 0 0 0 0.050566583023548217 0.083346773143236796 0.018874827236062708 0 0.018874827236062708 0.040404581665920536 0 0 0 0.030937838702289333 0.057447652136693117 -0.0059957366812415647 0 -0.0059957366812415647 -0.0039002631317334169 0 0 0 0.013386847251239897 0.0098450647651706635 0.0026351470870127902 0 0.0026351470870127902 -0.034786779588083849 0 0 0 -0.0062354287057282687 0.029340480589422457 0.009625689887867106 0 0.009625689887867106 -0.035781361343671714 0 0 0 -0.0016102201885623835 0.022078588532404127 -0.0033490603378811268 0 -0.0033490603378811268 -0.05728886161760334 0 0 0 -0.0088025682712998318 0.022037762575813961 -0.00019336948248727115 0 -0.00019336948248727115 -0.006298783962917498 0 0 0 0.0039347446532241245 0.017918514941941965 -0.0020257360279989922 0 -0.0020257360279989922 -0.027119071379195947 0 0 0 -0.002300139109313537 0.014019756015686058 0.00034279819147076118 0 0.00034279819147076118 -0.015162899514063466 0 0 0 -0.00028578587459435201 0.017503833197716478 -0.00039034502508417113 0 -0.00039034502508417113 -0.0016282691148528095 0 0 0 0.0039688910207158479 0.028561803948080278 0.0049065133588179766 0 0.0049065133588179766 -0.0061711965519947176 0 0 0 0.00559765184902139 0.0047966068684777222 -0.0014111265588497568 0 -0.0014111265588497568 -0.021493096829472369 0 0 0 -0.0041741224902487259 0.0063955175782102365 -0.00079843502330423366 0 -0.00079843502330423366 -0.0089491413033834805 0 0 0 -0.00063840593129328325 0.005886864384276852 0.0015181836468671495 0 0.0015181836468671495 -0.031233860407995806 0 0 0 -0.0063367490059297593 0.0076930534754129087 -0.001276692690220016 0 -0.001276692690220016 -0.017053228967561118 0 0 0 -0.0023400438730370454 0.003467010367604717 -0.002454758018833797 0 -0.002454758018833797 -0.022471763342020168 0 0 0 -0.0047511882436038766 0.0058826919207124462 -0.0042084810486732391 0 -0.0042084810486732391 -0.038889062990451251 0 0 0 -0.0082515927674347012 0.0037439011296681915 -0.00084285166035530379 0 -0.00084285166035530379 -0.063384336297593727 0 0 0 -0.014910108791981425 0.0056129876500886078 -0.0025693288604507203 0 -0.0025693288604507203 -0.040096898542540726 0 0 0 -0.0086209777231130436 0.0026351915731385629 -0.0023186036877528848 0 -0.0023186036877528848 -0.062820087099129757 0 0 0 -0.015046223881497799 0.0026179743193106286 0.0013558710321940337 0 0.0013558710321940337 -0.041398097524861233 0 0 0 -0.0096950308013876718 0.00083716543746908956 -0.0052088484948120684 0 -0.0052088484948120684 -0.028301930400595865 0 0 0 -0.0068661912407816938 0.0012445017792577784 -0.0018327891982437838 0 -0.0018327891982437838 -0.041120051161312343 0 0 0 -0.0099688873455136551 0.019764865484707135 -0.0078220374572210427 0 -0.0078220374572210427 -0.037004796191357943 0 0 0 -0.004309982676662708 0.014207937167757312 0.0013830293145000172 0 0.0013830293145000172 -0.053791797400943975 0 0 0 -0.0098959650582966519 0.0068295026537985026 -0.0047011579643846772 0 -0.0047011579643846772 -0.033076428239107281 0 0 0 -0.0065617313963272639 0.013367444650008359 -0.0034191998177212357 0 -0.0034191998177212357 -0.0083800297660769907 0 0 0 0.001246853720982849 0.0084548298459181659 -0.0023085614675667776 0 -0.0023085614675667776 -0.029670736699432876 0 0 0 -0.005303976713378733 0.0066958388996714024 -0.0041038367199973114 0 -0.0041038367199973114 -0.012546728451381273 0 0 0 -0.0014627223879274676 0.0090357221571477908 -0.0054270062311531642 0 -0.0054270062311531642 -0.0013563888902858867 0 0 0 0.0019198333167154968 0.01506597369718575 -0.0066750265190615721 0 -0.0066750265190615721 -0.010238036152452418 0 0 0 0.0012069843861833157 0.0051140382736965806 -0.0020147383626108462 0 -0.0020147383626108462 -0.023948450081675954 0 0 0 -0.0047086029519948502 0.0049240798676140063 -0.00478953523313079 0 -0.00478953523313079 -0.013658534361537855 0 0 0 -0.0021836136234809622 0.0011897393444169069 -0.0048955711564279136 0 -0.0048955711564279136 -0.013081335262804972 0 0 0 -0.0029728989795970162 0.0058228762311891002 -0.0030859892879478434 0 -0.0030859892879478434 -0.010456697658018821 0 0 0 -0.001158455356707444 0.005461747903139802 -0.0047103493023286647 0 -0.0047103493023286647 -0.0016197822667909367 0 0 0 0.00096049140908721631 0.0058502838878087271 -0.0057447253851854174 0 -0.0057447253851854174 -0.0053760939590827839 0 0 0 0.00011854748218148581 0.0052354373792338205 -0.0061501416435211509 0 -0.0061501416435211509 -0.00016994059522734695 0 0 0 0.0012663741960016184 0.0028533222202115002 -0.0044058565254002091 0 -0.0044058565254002091 -0.006144883994541904 0 0 0 -0.00082289044358258706 0.0062029765596320341 -0.0064789460837972879 0 -0.0064789460837972879 -0.004920373977909287 0 0 0 0.00032065064543063126 0.0045885404251758688 -0.007533484685169678 0 -0.007533484685169678 -0.0066010129060174449 0 0 0 -0.00050311812021036628 0.0097217006630607172 -0.0082835649870428851 0 -0.0082835649870428851 -0.0019951186334403737 0 0 0 0.0019316455074050443 0.013578898174317039 -0.0071227372487074891 0 -0.0071227372487074891 0.0089379774197105855 0 0 0 0.0056292188985068992 0.0078393342252684739 -0.0068467270465732977 0 -0.0068467270465732977 0.0019264529694307253 0 0 0 0.002441446798674779 0.0065917893532922434 -0.0081106556357749271 0 -0.0081106556357749271 0.0037144653092908153 0 0 0 0.0025765636656457369 0.0080567606956916116 -0.0087415153128747938 0 -0.0087415153128747938 0.0028980399939079193 0 0 0 0.0027387001723999105 0.010250334970341057 -0.008903904776759175 0 -0.008903904776759175 0.010172298120165429 0 0 0 0.0051056582726266286 0.0085394095834139989 -0.0095096282249978736 0 -0.0095096282249978736 0.0047884420907117475 0 0 0 0.0033319629185314288 0.0074576548928077802 -0.0081031819483310917 0 -0.0081031819483310917 0.0033054825271935928 0 0 0 0.0026907843550003641 0.011159160708668597 -0.0070717232683241427 0 -0.0070717232683241427 0.0025351739462754486 0 0 0 0.0034235836637360184 0.0060787700356979713 -0.0061980546347917276 0 -0.0061980546347917276 0.00091353018391170451 0 0 0 0.0017480750549024194 0.0088903233581836272 -0.0050593171334215314 0 -0.0050593171334215314 -0.00046720271682243464 0 0 0 0.0021057801603403259 0.0076230343015587718 -0.0072070613680643159 0 -0.0072070613680643159 0.00015655137091367954 0 0 0 0.0019448964181181458 0.031850193921855396 -0.01003442953771605 0 -0.01003442953771605 0.029733043640326029 0 0 0 0.015395809390545412 0.01278494064006981 -0.0062398537836542336 0 -0.0062398537836542336 0.03828234876491661 0 0 0 0.012766822351246607 0.042093049928671189 -0.0093348399087744838 0 -0.0093348399087744838 0.025894117898990876 0 0 0 0.016996791956915558 0.023528723185265971 -0.0084163736048055993 0 -0.0084163736048055993 0.025678889464120058 0 0 0 0.0123019031623465 0.014529538050713567 -0.0073763088754464079 0 -0.0073763088754464079 0.024460200233682228 0 0 0 0.0097474345710989591 0.010287122824094844 -0.01031317036043361 0 -0.01031317036043361 0.0096393994013834194 0 0 0 0.0049816305563695623 0.01251936240105711 -0.00897244133663537 0 -0.00897244133663537 0.013806134967563777 0 0 0 0.0065813743421552218 0.014059703311837757 -0.007733617359494821 0 -0.007733617359494821 0.0074275045776375226 0 0 0 0.0053718019723688337 0.025096480394589754 -0.0050485615960299268 0 -0.0050485615960299268 0.029574411608831341 0 0 0 0.013667723000855281 0.017829674785758254 -0.0093800311025307864 0 -0.0093800311025307864 0.017090659377069994 0 0 0 0.0087300835407070898 0.026667760656377479 -0.0053375745702166633 0 -0.0053375745702166633 0.015976940717943755 0 0 0 0.01066117534358034 0.018604582106488909 -0.0098836882679134708 0 -0.0098836882679134708 0.0051738928072041501 0 0 0 0.005944618728423251 0.033467521735087047 -0.0073305760378787888 0 -0.0073305760378787888 0.035296154114673739 0 0 0 0.017190918962440238 0.050853617186060796 -0.0072155013650906296 0 -0.0072155013650906296 0.034581648097326223 0 0 0 0.021358816320846741 0.033670552799820619 -0.0078655593949354397 0 -0.0078655593949354397 0.025354962626668698 0 0 0 0.014756378856622399 0.030636887304455882 -0.014375770318626135 0 -0.014375770318626135 0.0238839490483823 0 0 0 0.013630209088209642 0.019106089930794237 -0.0065128640789169669 0 -0.0065128640789169669 0.057180483142537278 0 0 0 0.019071643268332876 0.036324334656895996 -0.0078579197121142752 0 -0.0078579197121142752 0.032457390650850515 0 0 0 0.017195431326936572 0.042341788248856205 -0.011189123552972635 0 -0.011189123552972635 0.030304891383845733 0 0 0 0.018161669908175526 0.015698356197611573 -0.0064733672416995387 0 -0.0064733672416995387 0.047019882994021767 0 0 0 0.015679559797908332 0.04831315156713778 -0.0063563344490947804 0 -0.0063563344490947804 0.037761847858296615 0 0 0 0.02151874985635871 0.023054559562059103 -0.0063250136317131653 0 -0.0063250136317131653 0.069134593752407603 0 0 0 0.023047288328616678 0.070118626756190683 -0.0053203127404555135 0 -0.0053203127404555135 0.041112545523350974 0 0 0 0.027807793069885456 0.055774596561399992 -0.012376274855357638 0 -0.012376274855357638 0.040599521903300469 0 0 0 0.024093529616175117 0.041328736612934569 -0.0049808334516290298 0 -0.0049808334516290298 0.025479311254637427 0 0 0 0.016702011966892916 0.022064684581336036 -0.0038124616219453594 0 -0.0038124616219453594 0.008404530947499822 0 0 0 0.0076173038822089367 0.032862422334523328 -0.0087616702454250961 0 -0.0087616702454250961 0.0067452469462926379 0 0 0 0.0099019173202040123 0.045570257817347082 -0.0041168131972764976 0 -0.0041168131972764976 0.041041524014456376 0 0 0 0.021652945457950878 0.039449565659876493 0.00034856824728152214 0 0.00034856824728152214 0.010564091475178866 0 0 0 0.012503414283763881 0.025858562442396621 -0.0078887733548697325 0 -0.0078887733548697325 -0.015706441857913145 0 0 0 0.0025380301461208898 0.054411895141194454 -0.010463716699361525 0 -0.010463716699361525 0.035378874526452025 0 0 0 0.022447692416911601 0.084885843287445112 -0.00058386139176883067 0 -0.00058386139176883067 0.039660364973984508 0 0 0 0.031136552065357426 0.054924772650984478 -0.014078941340661733 0 -0.014078941340661733 0.015650805907942596 0 0 0 0.01764389463973174 0.037575089598521905 0.0036783726922567372 0 0.0036783726922567372 -0.012288292540479806 0 0 0 0.0063216992645105385 0.0528631565051845 -0.01234578829153743 0 -0.01234578829153743 0.031319702931318694 0 0 0 0.021045714859125902 0.027991118192993554 -0.0062148430881572405 0 -0.0062148430881572405 0.083349825831886964 0 0 0 0.027835236006220128 0.087367535625768378 -0.0033592096638241494 0 -0.0033592096638241494 0.045882021701508791 0 0 0 0.033312389331819459 0.062395996950571186 0.0068422770646628939 0 0.0068422770646628939 0.02821781452305272 0 0 0 0.022653452868405921 0.038972976864832365 -0.0065890528993794995 0 -0.0065890528993794995 0.0024191998381697388 0 0 0 0.010348044175750415 0.027136421335323319 0.0010464415917681436 0 0.0010464415917681436 -0.016643779317055487 0 0 0 0.0026231605045669861 0.022823011704749818 -0.0079149989060187664 0 -0.0079149989060187664 -0.0022160871899317147 0 0 0 0.0051517311287044287 0.034949475135737096 -0.0014488009752917641 0 -0.0014488009752917641 0.0019802964750921248 0 0 0 0.0092324429027073052 0.011369190029106635 -0.002194220061745189 0 -0.002194220061745189 -0.012839911045205987 0 0 0 -0.00036768025402478255 0.0025632010371011704 -0.0059117253294519445 0 -0.0059117253294519445 -0.01330039012912243 0 0 0 -0.0026842972730053427 0.0049936899645057764 -0.0079935862464750266 0 -0.0079935862464750266 -0.0060089233468101355 0 0 0 -0.0002538083455762008 0.01017696883172972 -0.0053578136359577755 0 -0.0053578136359577755 -0.018836468662336046 0 0 0 -0.0021648749576515815 0.013338417590162188 -0.012668220565499433 0 -0.012668220565499433 -0.0040470493049191703 0 0 0 0.0023228420713107822 0.0027569000956578771 -0.012577582051442326 0 -0.012577582051442326 -0.0035315742110896275 0 0 0 -0.00019366852885793762 0.0031839122951555221 -0.01289055967131314 0 -0.01289055967131314 -0.0023861142775234434 0 0 0 0.00019944950440803355 0.009872695741930948 -0.014283922558076478 0 -0.014283922558076478 -0.00030784812889161906 0 0 0 0.002391211903259749 0.023653103564537502 -0.011116718489597277 0 -0.011116718489597277 0.0060872518564547562 0 0 0 0.007435088855247983 0.030804813502827377 -0.013938871653537355 0 -0.013938871653537355 0.0076152711700614439 0 0 0 0.0096050211682221498 0.015789739924225055 -0.0072948630463896269 0 -0.0072948630463896269 -0.0039456896799321406 0 0 0 0.002961012561073284 -0.00042163234234815494 -0.0020287775420581022 0 -0.0020287775420581022 0.00087936215318906719 0 0 0 0.00011443245271025582 -0.00085627167173796259 -0.0010818295004886291 0 -0.0010818295004886291 -0.00098344444558917665 0 0 0 -0.00045992902933189583 -0.0004164182352447861 -0.00086733645343572974 0 -0.00086733645343572974 -0.00056857748253882228 0 0 0 -0.00024624892944595761 0.00060372292322274923 -0.0014346050616830253 0 -0.0014346050616830253 -0.0019449508190092502 0 0 0 -0.0003353069739464587 -0.0034312588930943688 -0.003680585586471663 0 -0.003680585586471663 -0.0028872408241285008 0 0 0 -0.0015796249293056341 -0.00077079079031228126 -0.0049823132364482658 0 -0.0049823132364482658 -0.0053242827177633067 0 0 0 -0.0015237683770190635 0.0029298149568710574 -0.0041902557744039615 0 -0.0041902557744039615 -0.0042592301239450236 0 0 0 -0.00033235379176832502 -0.00069989744842755388 -0.0027814513118646911 0 -0.0027814513118646911 -0.0061758098841369459 0 0 0 -0.0017189268331413193 -0.00021276189798040892 -0.0048483769281869593 0 -0.0048483769281869593 -0.013410089181602719 0 0 0 -0.0034057127698956988 -0.002451460830101837 -0.0092947463249719309 0 -0.0092947463249719309 -0.0088826633959433465 0 0 0 -0.0028335310565114069 -0.0060266713186445386 -0.012395349254023968 0 -0.012395349254023968 -0.0032129243466115787 0 0 0 -0.0023098989163140571 -0.011859478881172558 -0.0088261006734211001 0 -0.0088261006734211001 -0.0029709517782241512 0 0 0 -0.0037076076648493439 -0.0014483214960405721 -0.0080576308060315016 0 -0.0080576308060315016 -0.0038192066748989895 0 0 0 -0.0013168820427348349 -0.0033832501725881009 -0.0077635952587956636 0 -0.0077635952587956636 -0.00034187139889127471 0 0 0 -0.0009312803928699237 -0.0062508742026339548 -0.0039465908442494202 0 -0.0039465908442494202 -0.0015543761874555473 0 0 0 -0.0019513125975223755 -0.013092644956386845 -0.0041219346164197987 0 -0.0041219346164197987 -0.0015811200979265472 0 0 0 -0.0036684412635783481 -0.0051227681922965118 -0.0030769201131825019 0 -0.0030769201131825019 0.0010760181363163035 0 0 0 -0.0010116875139950521 -0.0221279305312303 -0.0043686311024927925 0 -0.0043686311024927925 0.0015339276448482764 0 0 0 -0.0051485007215954504 -0.0083889556576032809 -0.0061824736230298716 0 -0.0061824736230298716 0.0016217378762479751 0 0 0 -0.0016918044453387848 -0.011412435697685408 -0.0091176972403793632 0 -0.0091176972403793632 0.00087223314787732154 0 0 0 -0.0026350506374520077 -0.01943238100775093 -0.005077919825395294 0 -0.005077919825395294 -0.0022350226970895282 0 0 0 -0.005416850926210047 -0.013559840853288985 -0.011272985269227626 0 -0.011272985269227626 -0.0011599768298886648 0 0 0 -0.0036799544207943846 -0.0046694980963375432 -0.012254642355620238 0 -0.012254642355620238 0.0011750497056930431 0 0 0 -0.00087361209766112502 -0.0070810489515932273 -0.014248895608479251 0 -0.014248895608479251 0.0012864793734443936 0 0 0 -0.0014486423945372362 -0.0069967947706719991 -0.013815485925396054 0 -0.013815485925396054 0.00093705219573436693 0 0 0 -0.0015149356437343386 -0.014251744034610554 -0.011099891483451585 0 -0.011099891483451585 -0.00087477209545135104 0 0 0 -0.0037816290325153948 -0.014108281166139269 -0.012270933049041893 0 -0.012270933049041893 0.0012764604499193588 0 0 0 -0.0032079551790549221 -0.0069739982988946125 -0.015327752445417397 0 -0.015327752445417397 0.0041049930062556639 0 0 0 -0.00071725132315969553 -0.01742022241175839 -0.012429244977474607 0 -0.012429244977474607 0.00097461966060707894 0 0 0 -0.004111400687787814 -0.021689523700957392 -0.0080441953000085498 0 -0.0080441953000085498 0.00061609465963308185 0 0 0 -0.0052683572603309803 -0.025083722493980054 -0.0066022886459396468 0 -0.0066022886459396468 -0.0016688760355896282 0 0 0 -0.0066881496323922818 -0.025609517250254343 -0.0065851409709258846 0 -0.0065851409709258846 0.0022417552519817807 0 0 0 -0.005841940499568099 -0.034082323270154924 -0.0036003912483328743 0 -0.0036003912483328743 -0.00055112131236079165 0 0 0 -0.0086583611456289011 -0.023076342976595277 -0.0036460139356632171 0 -0.0036460139356632171 0.00036759084697557398 0 0 0 -0.0056771880324049673 0.017424955017841748 -0.016003619212138831 0 -0.016003619212138831 0.0066251114163553559 0 0 0 0.0060125166085492898 0.009856908390379171 -0.014065253678299139 0 -0.014065253678299139 0.0044450693913391515 0 0 0 0.00357549444542965 0.019658879377978722 -0.01467000623334383 0 -0.01467000623334383 0.015799937754729765 0 0 0 0.0088647042831770939 0.013555911293801182 -0.016675604314470793 0 -0.016675604314470793 0.0050648037343326013 0 0 0 0.0046551787570334735 0.00042006871999344941 -0.014566937854750037 0 -0.014566937854750037 0.00014603694098314079 0 0 0 0.00014152641524423082 0.00048862356874840307 -0.014749096084664237 0 -0.014749096084664237 0.00042464760329830042 0 0 0 0.00022831779301180077 0.0088038019763842512 -0.01684930333671697 0 -0.01684930333671697 0.0029511151587320317 0 0 0 0.0029387292837790846 0.0064596462582995895 -0.016860976754321688 0 -0.016860976754321688 0.0041398242353809511 0 0 0 0.0026498676234201213 -0.00072060386582753488 -0.014992706109032972 0 -0.014992706109032972 0.0028882959150400844 0 0 0 0.00054192301230313045 -0.0015095367183880493 -0.014510851828853644 0 -0.014510851828853644 0.00088884679712375458 0 0 0 -0.00015517248031604591 -0.00087773145738958419 -0.01271886239983433 0 -0.01271886239983433 0.0031434781581915483 0 0 0 0.0005664366752005448 0.016255189328312825 -0.015439850048376343 0 -0.015439850048376343 0.0071583603435907417 0 0 0 0.0058533874179759193 0.0075842431373126518 -0.014110416098294554 0 -0.014110416098294554 0.0071875077106411389 0 0 0 0.0036929377119885309 0.027074946959753349 -0.012411909074729499 0 -0.012411909074729499 0.013303780460416914 0 0 0 0.010094681855042614 0.018049705844804254 -0.013688897234356179 0 -0.013688897234356179 0.013336632330314346 0 0 0 0.0078465845437795667 0.026281586711828675 -0.011175829490178202 0 -0.011175829490178202 0.011943768609058658 0 0 0 0.0095563388302218333 0.017130067706314422 -0.014947686724851528 0 -0.014947686724851528 0.0091405169944440701 0 0 0 0.0065676461751896231 0.019861994884273294 -0.011151979767502429 0 -0.011151979767502429 0.010051159387098604 0 0 0 0.00747828856784303 0.02546062715350178 -0.013100340486701487 0 -0.013100340486701487 0.0096917807249281562 0 0 0 0.0087881019696074425 0.0095396258114713861 -0.015192028302831395 0 -0.015192028302831395 0.006331183111468297 0 0 0 0.0039677022307349485 0.0105178300175921 -0.012454673067912481 0 -0.012454673067912481 0.0076919837139783898 0 0 0 0.004552453432892678 0.007263720851814582 -0.016492388787445689 0 -0.016492388787445689 0.0047421705856840746 0 0 0 0.0030014728593747327 -0.0043282961842101564 -0.015842883831053589 0 -0.015842883831053589 0.0034178123797977689 0 0 0 -0.00022762095110318015 -0.0061987415181904192 -0.011582889889753534 0 -0.011582889889753534 0.0025809175962424775 0 0 0 -0.00090445598048697218 0.0074905570931965704 -0.012358371448355346 0 -0.012358371448355346 0.005222733271260438 0 0 0 0.0031783225911142798 -0.00091703418979927065 -0.016262601683551869 0 -0.016262601683551869 0.0031919679270753232 0 0 0 0.00056873343431901313 0.0061784834812612013 -0.011246972784600323 0 -0.011246972784600323 0.0047303398734776236 0 0 0 0.0027272058386847344 -0.0059889472700752067 -0.011891907414137481 0 -0.011891907414137481 0.0022836524105447342 0 0 0 -0.00092632371488265974 -0.0049779368403699009 -0.013669932960633974 0 -0.013669932960633974 0.006373791577368948 0 0 0 0.0003489636842498034 0.022334343663639955 -0.01199279010384402 0 -0.01199279010384402 0.0073412263738741323 0 0 0 0.0074188925093784941 0.02428061101523718 -0.010016238177759845 0 -0.010016238177759845 0.011276284247493273 0 0 0 0.0088892238156825787 0.020859288759837225 -0.010621105609595349 0 -0.010621105609595349 0.011898945351989321 0 0 0 0.0081895585279566085 0.0069664291089249208 -0.014407914915033126 0 -0.014407914915033126 0.0064331727023723695 0 0 0 0.0033499004528243503 0.01915552069919807 -0.011904623214305188 0 -0.011904623214305188 0.0073055150154517356 0 0 0 0.0066152589286624375 -0.035284192366927869 -0.0061492183718095395 0 -0.0061492183718095395 0.0013198211644037672 0 0 0 -0.0084910928006309838 -0.040155470200106902 -0.0028020061676106156 0 -0.0028020061676106156 -0.00046436063160671184 0 0 0 -0.010154957707928403 -0.034549649913627571 -0.0034371874399732327 0 -0.0034371874399732327 -0.0011591211658611711 0 0 0 -0.0089271927698721318 -0.04393880790958693 -0.0041229244598951975 0 -0.0041229244598951975 0.0012693146136637523 0 0 0 -0.010667373323980822 -0.026661886652325495 -0.005401713273107546 0 -0.005401713273107546 -0.001653622264892185 0 0 0 -0.0070788772293043367 -0.017237808225079754 -0.0096623986277491712 0 -0.0096623986277491712 0.0014612562300513332 0 0 0 -0.0039441379987570913 -0.026463604276842217 -0.010297970072922102 0 -0.010297970072922102 0.0018145070700472665 0 0 0 -0.0061622743016987724 -0.013972748535413526 -0.011325066218532243 0 -0.011325066218532243 0.00058608270562332532 0 0 0 -0.0033466664574475224 -0.015889960709151718 -0.013853323338078261 0 -0.013853323338078261 0.0032661698091757119 0 0 0 -0.0031559477249940016 -0.018250200599934818 -0.011598445505975774 0 -0.011598445505975774 0.0025213348749758557 0 0 0 -0.0039322164312397545 -0.015507472887169971 -0.0095870387937939672 0 -0.0095870387937939672 0.0032354192489270073 0 0 0 -0.0030680134095608658 -0.016161757481224615 -0.01258504060363641 0 -0.01258504060363641 0.0054788342310995303 0 0 0 -0.0026707308125312468 -0.021663873848226385 -0.0070549388299611104 0 -0.0070549388299611104 0.0017384345318906327 0 0 0 -0.0049813598290839936 -0.029383683162688301 -0.0093917636767004431 0 -0.0093917636767004431 0.0022817220720879883 0 0 0 -0.0067754902726500366 -0.029266534134340549 -0.0080159995183534394 0 -0.0080159995183534394 0.0012102690968949226 0 0 0 -0.0070140662593614622 -0.030154507721880525 -0.0089209613566559876 0 -0.0089209613566559876 0.0013794132462401354 0 0 0 -0.007193773618910132 -0.041465454015535641 -0.00454706210806749 0 -0.00454706210806749 0.0013294537743868684 0 0 0 -0.010034000060287207 -0.040589196874797687 -0.0028726428265698767 0 -0.0028726428265698767 0.00043875935895515417 0 0 0 -0.010037609378960657 -0.051025435757831639 -0.0051990811852543617 0 -0.0051990811852543617 0.00080027730534615316 0 0 0 -0.012556289613121274 -0.065546286339333099 -0.002456244938670069 0 -0.002456244938670069 0.0011168558942225015 0 0 0 -0.016107357611277628 -0.056715621479834777 -0.0034201834673684242 0 -0.0034201834673684242 0.00095152458266078987 0 0 0 -0.013941024224293552 -0.046055978362348593 -0.0011811529058792514 0 -0.0011811529058792514 0.00021441897262128307 0 0 0 -0.011460389847431834 -0.041266594093682274 -0.0077578033122332191 0 -0.0077578033122332191 0.002888063398507619 0 0 0 -0.0095946326737937036 -0.032883412438564547 -0.0044104958373120118 0 -0.0044104958373120118 0.001078444720984062 0 0 0 -0.0079512419293951142 -0.01835459926684857 -0.006929379864023727 0 -0.006929379864023727 0.0033607828049477817 0 0 0 -0.0037484541154751971 -0.021571580229725107 -0.010680925713967476 0 -0.010680925713967476 0.0056199036458394191 0 0 0 -0.0039879191459714081 -0.019181714386478005 -0.0086869229686199478 0 -0.0086869229686199478 0.0099298158403119952 0 0 0 -0.0023129746365414816 -0.025049440603088988 -0.0043240602647240944 0 -0.0043240602647240944 0.00077279158409210291 0 0 0 -0.0060691622547491969 -0.025160669891338652 -0.0055025772485264302 0 -0.0055025772485264302 0.0038696135664016834 0 0 0 -0.005322764081234263 -0.033711596181323508 0.0010329879915133844 0 0.0010329879915133844 0.0051405407806857928 0 0 0 -0.0071427638501594254 -0.035817454910808746 -0.0059460400524511403 0 -0.0059460400524511403 0.004331193715359255 0 0 0 -0.0078715652988623763 -0.046492622430159794 -0.0033071434805156397 0 -0.0033071434805156397 0.00091947285095342335 0 0 0 -0.011393287394801596 -0.042387433053301032 -0.0001003271406728734 0 -0.0001003271406728734 0.0011822342914238337 0 0 0 -0.010301299690469334 -0.062690371293359165 -0.0010609633662748339 0 -0.0010609633662748339 0.0013691100778667198 0 0 0 -0.015330315303873118 0.0097756763406636749 -0.0096782725846735612 0 -0.0096782725846735612 0.008726092426960097 0 0 0 0.0046254421919059152 0.027850761365502699 -0.018298550451546172 0 -0.018298550451546172 0.016228663441657021 0 0 0 0.011019856201789954 0.0086574093609584901 -0.014213184935077339 0 -0.014213184935077339 0.0092676528108590547 0 0 0 0.0044812655429543879 0.006272507653688697 -0.010341932021683542 0 -0.010341932021683542 0.0043098805997316691 0 0 0 0.002645597063355043 -0.008351065147723713 -0.010538296986149751 0 -0.010538296986149751 0.0042964014065747236 0 0 0 -0.001013665935287289 -0.0069527292105217575 -0.010820475344214514 0 -0.010820475344214514 0.0085716107174351741 0 0 0 0.00040472037672834027 0.0049275029402496145 -0.013935905878143084 0 -0.013935905878143084 0.010137791138843333 0 0 0 0.0037663235197732403 -0.0060964846910847442 -0.0055827824722723823 0 -0.0055827824722723823 0.010686747137868158 0 0 0 0.001147565611695836 -0.021882574108064268 -0.0024083147872308724 0 -0.0024083147872308724 0.0044929918252170076 0 0 0 -0.0043473955707118428 -0.015239076433156182 -0.00027717702975360581 0 -0.00027717702975360581 0.0071768519812299494 0 0 0 -0.0020155561129815563 -0.0098931773713166887 -0.0092137797905275515 0 -0.0092137797905275515 0.012128755005085534 0 0 0 0.00055889440844221483 0.0081990200056247658 -0.010417039515758673 0 -0.010417039515758673 0.014410762421596113 0 0 0 0.0056524456068052092 0.0089320040312871329 -0.009414149763261874 0 -0.009414149763261874 0.015763751032289941 0 0 0 0.0061739387658942546 0.024380923197310413 -0.013802209201052948 0 -0.013802209201052948 0.021942894520806153 0 0 0 0.011580954429529135 0.033462556185752459 -0.025915839536049534 0 -0.025915839536049534 0.045283523831309846 0 0 0 0.01968652000426558 -0.0326524866703252 0.003944648922071331 0 0.003944648922071331 0.024472279216621817 0 0 0 -0.0020450518634258369 0.081728790769894519 -0.024295647584758592 0 -0.024295647584758592 0.02097194985626416 0 0 0 0.025675185156539701 0.0017880937778683645 -0.0011132784668321572 0 -0.0011132784668321572 0.0052808630950439018 0 0 0 0.0017672392182280666 0.041199013868835788 -0.013920845103729762 0 -0.013920845103729762 0.0039846063337783122 0 0 0 0.01129590505065356 0.034604721203399406 -0.0092932318992988844 0 -0.0092932318992988844 0.010662135986471422 0 0 0 0.011316714297467716 0.0044463146420839379 -0.0029212447997461919 0 -0.0029212447997461919 0.01330193430626966 0 0 0 0.0044370622370883996 0.058408731828414551 -0.007722259629578232 0 -0.007722259629578232 0.011090964531085046 0 0 0 0.017374924089874927 0.0062863581803591596 -0.0041843323468344551 0 -0.0041843323468344551 0.018815426938128849 0 0 0 0.0062754462796220031 0.039678865283048093 -0.0070890738842951662 0 -0.0070890738842951662 0.013664496461627873 0 0 0 0.013335840436168978 0.036310246827162135 -0.011406441502109343 0 -0.011406441502109343 0.0077242214614249294 0 0 0 0.011008617072146759 -0.0018347638640322655 -0.0074961929282143167 0 -0.0074961929282143167 0.0093160093006699751 0 0 0 0.00187031135915941 -0.010290828573791794 -0.0096080993763712555 0 -0.0096080993763712555 0.013271037485862391 0 0 0 0.00074505222801765636 -0.0014907308705400142 -0.0076467699761831945 0 -0.0076467699761831945 0.011035824467180738 0 0 0 0.0023862733991602096 -0.019021293129437723 -0.0092967004733592509 0 -0.0092967004733592509 0.0086522982799721038 0 0 0 -0.0025922487123664004 -0.00050827735487291026 -0.0038456663271115576 0 -0.0038456663271115576 0.017210578108910468 0 0 0 0.0041755751885093825 -0.0041139899101022559 -0.0021147771096011042 0 -0.0021147771096011042 0.0049037941182755174 0 0 0 0.00019745105204332231 -0.011904728576895215 -0.0063271068082626364 0 -0.0063271068082626364 0.044582421502335323 0 0 0 0.0081694232313600235 0.00083831118953440337 0.0016373258000129884 0 0.0016373258000129884 0.018754100948174778 0 0 0 0.0048981030344272952 0.0048470893038581389 -0.0038764392135571604 0 -0.0038764392135571604 0.0088508040478149363 0 0 0 0.0034244733379182671 0.0077667135671709436 -0.0045870172769020643 0 -0.0045870172769020643 0.020643309723640396 0 0 0 0.0071025058227028315 0.0065400949431512227 -0.0034526556938487551 0 -0.0034526556938487551 0.019573640505378988 0 0 0 0.0065284338621325417 0.010875916175897098 -0.0043551937552248916 0 -0.0043551937552248916 0.022819017630097235 0 0 0 0.0084237334514985808 0.0094763416717419356 -0.0045640165582835762 0 -0.0045640165582835762 0.02848162062964079 0 0 0 0.0094894905753456806 0.015086122675194956 -0.0095364587983665268 0 -0.0095364587983665268 0.022804263272598838 0 0 0 0.0094725964869484605 0.015269605655450985 -0.011040481552476958 0 -0.011040481552476958 0.015093213388951449 0 0 0 0.0075907047611005977 0.011801461036897984 -0.006482584092516494 0 -0.006482584092516494 0.015074219714771769 0 0 0 0.0067189201879174348 0.010732447594293752 -0.0097583708929972549 0 -0.0097583708929972549 0.012147669113971443 0 0 0 0.0057200291770663006 0.010743502522340832 -0.0066795525583004875 0 -0.0066795525583004875 0.011741080955548988 0 0 0 0.0056211458694724603 0.011533440645542504 -0.0088885782708961469 0 -0.0088885782708961469 0.0092957600969422148 0 0 0 0.0052073001856211719 0.0028468770719278849 -0.0097335720851674315 0 -0.0097335720851674315 0.010484550491788883 0 0 0 0.0033328568909292006 0.0090088824355640321 -0.0088107336722365662 0 -0.0088107336722365662 0.010018450003336232 0 0 0 0.0047568331097250713 0.0075683679154512698 -0.010144950868700243 0 -0.010144950868700243 0.0064592828042436684 0 0 0 0.0035069126799237363 0.0040760932834926211 -0.0099428770581767856 0 -0.0099428770581767856 0.0091164398008263259 0 0 0 0.0032981332710797368 0.0083139000858865747 -0.011047263381474472 0 -0.011047263381474472 0.007049372203000559 0 0 0 0.0038408180722218077 0.007749550567273833 -0.01054431286540769 0 -0.01054431286540769 0.0070989697621549053 0 0 0 0.0037121300823571846 0.0067315193637058138 -0.011131895793219312 0 -0.011131895793219312 0.0088515703138378754 0 0 0 0.0038957724193859136 0.015114717637672803 -0.0089608389359655885 0 -0.0089608389359655885 0.007189170456574745 0 0 0 0.005575972023561887 0.012077510039632477 -0.010028101514539218 0 -0.010028101514539218 0.0097395289680562991 0 0 0 0.0054542597519221664 0.011211503562927813 -0.0098045907561740558 0 -0.0098045907561740558 0.0069543516785049442 0 0 0 0.0045414638103581789 0.012255832169926281 -0.0097488223301018112 0 -0.0097488223301018112 0.0059293399125927432 0 0 0 0.004546293020629746 0.012721535428009915 -0.010017203500958805 0 -0.010017203500958805 0.0065603383726199442 0 0 0 0.00482046845015745 0.010582658362113889 -0.006204182548728232 0 -0.006204182548728232 0.002389881877036315 0 0 0 0.0032431350597875441 0.0085359794899408509 -0.0096983492699912119 0 -0.0096983492699912119 0.0047145705695734175 0 0 0 0.0033126375148785497 0.012297119978854706 -0.0084518534960296987 0 -0.0084518534960296987 0.0049690765418334074 0 0 0 0.004316549130172034 0.0066124214767210865 -0.010420874476384456 0 -0.010420874476384456 0.0091367960360499989 0 0 0 0.0039373043781927852 0.0093619436434641545 -0.010131216470620541 0 -0.010131216470620541 0.0065534174558398162 0 0 0 0.0039788402748260066 0.006899078822989315 -0.011129558615197377 0 -0.011129558615197377 0.0070726845114587461 0 0 0 0.0034929408336120231 0.0072891985603581594 -0.0094857083851376256 0 -0.0094857083851376256 0.005598410114777852 0 0 0 0.0032219021687839855 0.0077919750206052185 -0.010098511742777039 0 -0.010098511742777039 0.0091575850840239781 0 0 0 0.0042373900261572783 0.0085669948026335652 -0.0099482148508634165 0 -0.0099482148508634165 0.0093492650629934948 0 0 0 0.0044790649664067927 0.0091420957484276977 -0.0096202892676820473 0 -0.0096202892676820473 0.01432094616468238 0 0 0 0.0058657604782775263 0.0066971716722090957 -0.01026809842566867 0 -0.01026809842566867 0.013175197652686044 0 0 0 0.0049680923312237779 0.0073448048542010813 -0.0099796050127670399 0 -0.0099796050127670399 0.011889763081020188 0 0 0 0.0048086419838053174 0.0094502182603688062 -0.0073016593278331654 0 -0.0073016593278331654 0.0218198927310983 0 0 0 0.0078175277478667454 0.040814679876044008 -0.0081281342956088243 0 -0.0081281342956088243 0.020929558480645816 0 0 0 0.015436059589172435 0.010310568126786844 -0.0057957220152782601 0 -0.0057957220152782601 0.030875009420440774 0 0 0 0.010296394386806906 0.012941859450473853 -0.008274825592442232 0 -0.008274825592442232 0.022986267842681207 0 0 0 0.0089820318232887997 0.029200288098345378 -0.0104408287058812 0 -0.0104408287058812 0.023200628935604484 0 0 0 0.0131002292584875 0.030833754224774634 -0.0085706276157847538 0 -0.0085706276157847538 0.019362069213649247 0 0 0 0.01254895585960597 0.043418828421320443 -0.0063472515760110149 0 -0.0063472515760110149 0.017136031483823144 0 0 0 0.015138714976285883 0.0013973098956775176 -0.0084318835052719504 0 -0.0084318835052719504 0.018876031535040083 0 0 0 0.0050683353576793932 0.008186704061562541 -0.0051258050013005645 0 -0.0051258050013005645 0.024512800195581795 0 0 0 0.0081748760642860827 0.034770408359744959 -0.0071557754713635346 0 -0.0071557754713635346 0.017182541674593044 0 0 0 0.012988237508584438 0.030904128199596814 -0.010645674121052467 0 -0.010645674121052467 0.0084892260554062515 0 0 0 0.0098483385637507248 0.047153601607628493 -0.0062407027660746905 0 -0.0062407027660746905 0.01348051593945887 0 0 0 0.015158529386771813 -0.00086168431824220487 -0.0082697846086147858 0 -0.0082697846086147858 0.013319290212200439 0 0 0 0.0031144014734895628 0.0026569449271402652 -0.01084731415288262 0 -0.01084731415288262 0.0080671444665674358 0 0 0 0.0026810223484269209 0.0019892826161544974 -0.010566025359215456 0 -0.010566025359215456 0.0099759047507947951 0 0 0 0.0029912968417373231 0.0051432807967138755 -0.0087425323489915691 0 -0.0087425323489915691 0.015389749179191281 0 0 0 0.0051332574939763065 
</DataArray>
<DataArray type="Float64" Name="cross_section_updated" format="ascii">
1 1 1 1 1 1 1 1 1 1 1 1 1 1 1 1 1 1 1 1 1 1 1 1 1 1 1 1 1 1 1 1 1 1 1 1 1 1 1 1 1 1 1 1 1 1 1 1 1 1 1 1 1 1 1 1 1 1 1 1 1 1 1 1 1 1 1 1 1 1 1 1 1 1 1 1 1 1 1 1 1 1 1 1 1 1 1 1 1 1 1 1 1 1 1 1 1 1 1 1 1 1 1 1 1 1 1 1 1 1 1 1 1 1 1 1 1 1 1 1 1 1 1 1 1 1 1 1 1 1 1 1 1 1 1 1 1 1 1 1 1 1 1 1 1 1 1 1 1 1 1 1 1 1 1 1 1 1 1 1 1 1 1 1 1 1 1 1 1 1 1 1 1 1 1 1 1 1 1 1 1 1 1 1 1 1 1 1 1 1 1 1 1 1 1 1 1 1 1 1 1 1 1 1 1 1 1 1 1 1 1 1 1 1 1 1 1 1 1 1 1 1 1 1 1 1 1 1 1 1 1 1 1 1 1 1 1 1 1 1 1 1 1 1 1 1 1 1 1 1 1 1 1 1 1 1 1 1 1 1 1 1 1 1 1 1 1 1 1 1 1 1 1 1 1 1 1 1 1 1 1 1 1 1 1 1 1 1 1 1 1 1 1 1 1 1 1 1 1 1 1 1 1 1 1 1 1 1 1 1 1 1 1 1 1 1 1 1 1 1 1 1 1 1 1 1 1 1 1 1 1 1 1 1 1 1 1 1 1 1 1 1 1 1 1 1 1 1 1 1 1 1 1 1 1 1 1 1 1 1 1 1 1 1 1 1 1 1 1 1 1 1 1 1 1 1 1 1 1 1 1 1 1 1 1 1 1 1 1 1 1 1 1 1 1 1 1 1 1 1 1 1 1 1 1 1 1 1 1 1 1 1 1 1 1 1 1 1 1 1 1 1 1 1 1 1 1 1 1 1 1 1 1 1 1 1 1 1 1 1 1 1 1 1 1 1 1 1 1 1 1 1 1 1 1 1 1 1 1 1 1 1 1 1 1 1 1 1 1 1 1 1 1 1 1 1 1 1 1 1 1 1 1 1 1 1 1 1 1 1 1 1 1 1 1 1 1 1 1 1 1 1 1 1 1 1 1 1 1 1 1 1 1 1 1 1 1 1 1 1 1 1 1 1 1 1 1 1 1 1 1 1 1 1 1 1 1 1 0.0020165663931310126 1 1 0.0020435054665559711 1 1 0.0020634814660622247 1 1 1 1 1 1 1 1 1 1 1 1 1 0.0020830336510075267 1 1 1 1 1 0.0021035326222463811 1 1 1 1 1 1 1 1 1 1 1 1 1 1 1 1 1 1 1 1 1 1 1 1 1 1 1 1 1 1 1 1 1 1 1 1 1 1 1 1 1 1 1 1 1 1 1 1 1 1 1 1 1 1 1 1 1 1 1 1 1 1 1 1 1 1 1 1 1 1 1 1 1 1 1 1 1 1 1 1 1 1 1 1 1 1 1 1 1 1 1 1 1 1 1 1 1 1 1 1 1 1 1 1 1 1 1 1 1 1 1 1 1 1 1 1 1 1 1 1 1 1 1 1 1 1 1 1 1 1 1 1 1 1 1 1 1 1 1 1 1 1 1 1 1 1 1 1 1 1 1 1 1 1 1 1 1 1 1 1 1 1 1 1 1 1 1 1 0.0021252948844900344 1 1 1 0.0021486998463768514 1 1 0.0021736453902350969 1 1 1 1 1 1 1 1 1 1 1 0.0022005205751141352 1 1 1 1 0.0022301199662324313 1 1 1 1 1 1 1 1 1 1 1 1 1 1 1 1 1 1 1 1 1 1 1 1 1 1 1 1 1 1 1 1 1 1 1 1 1 1 1 1 1 1 1 1 1 1 1 1 1 1 1 1 1 1 1 1 1 1 0.0010318944080170876 1 1 1 1 1 1 1 1 1 1 1 1 1 1 0.0010476360498427556 1 1 0.0010391754039951418 1 0.0010576091317797388 1 1 1 1 1 1 1 1 1 1 1 1 1 0.0010693932372820836 1 1 1 1 1 1 1 1 1 1 1 1 1 1 1 1 1 1 1 1 1 1 1 1 1 1 1 1 1 1 1 1 1 1 1 1 1 1 1 1 1 1 1 1 1 1 1 1 1 1 1 1 1 1 1 1 1 1 1 1 1 1 1 1 1 1 1 1 1 1 1 1 1 1 1 1 1 1 1 1 1 1 1 1 1 1 1 1 1 1 1 1 1 1 1 1 1 1 1 1 1 1 1 1 1 1 1 1 1 1 1 1 1 1 1 1 1 1 1 1 1 1 1 1 1 1 1 1 1 1 1 1 1 1 1 1 0.00100439202984602 1 1 0.0010110810900864767 1 0.0010156749758231337 1 1 1 1 1 1 1 1 1 1 1 1 1 1 1 1 1 1 1 1 1 1 1 1 1 1 1 1 1 1 1 1 1 1 1 1 1 1 1 1 1 1 1 1 1 1 1 0.0010257232687920425 1 1 1 1 1 0.0010204224051641197 1 1 1 1 1 1 1 
</DataArray>
<DataArray type="Float64" Name="displacement_divergence" format="ascii">
-1.3874711819082352e-05 -1.5873667271324548e-05 -1.1975402265620372e-05 -1.4147964967208341e-05 -1.402824447662954e-05 -1.4021690539237882e-05 -1.2985591589750063e-05 -1.3261867925521784e-05 -1.2495856347965578e-05 -9.6269380066231284e-06 -1.397080535909366e-05 -9.1191309432020095e-06 -1.6943231560071072e-05 -1.2801533359444458e-05 -2.0140470678682465e-05 -1.5516995912930874e-05 -1.3465630171501235e-05 -1.4651743724992184e-05 -2.6025232923725512e-06 -4.3333526618512435e-06 -4.7450876662485309e-06 -8.0317322623413984e-06 -9.2309909627896416e-06 -5.8348168129523268e-06 -6.8398766522579367e-06 -8.4764490240366196e-06 -9.3249076576742243e-06 -8.3042351198846421e-06 -3.8209495933969577e-06 -4.3113796105404878e-06 -2.4019099394666664e-06 -4.431509068737643e-07 -1.2398159177416396e-06 -9.8091595374166709e-07 -4.6752987331201689e-06 -9.4232164105996467e-06 -7.6882233243527255e-06 -4.903906198453601e-06 -8.7800175878689772e-06 -1.0487385495475134e-05 -7.7864813698226269e-06 -5.3962173894623076e-06 -4.9977658893161195e-06 -1.4613887317530428e-06 -5.4597301138404963e-06 -3.5595991223606071e-06 1.7057742044665863e-06 -1.1500303299892669e-06 -2.0575484027049539e-05 -1.559649321200246e-05 -2.3199264213294038e-05 -1.5065146266799642e-05 -1.1954414788340774e-05 -1.3216481613920186e-05 -1.3448076413239516e-05 -1.4940787643684493e-05 -1.1149918527493026e-05 -1.6396670508254967e-05 -1.325639271674122e-05 -1.5233738959847148e-05 -2.2264444856485473e-05 -2.0873209665752606e-05 -1.9589029628748533e-05 -2.6914787394559104e-05 -2.8927912969577362e-05 -2.0468975676045532e-05 -2.4249903949792533e-05 -3.290098637620096e-05 -2.5102678497971631e-05 -2.6498963371576326e-05 -2.6408399575207078e-05 -3.8299821409907696e-05 -1.5271919653686375e-05 -1.2446338801391265e-05 -1.971240591627489e-05 -1.9038070810576921e-05 -1.2305462337075916e-05 -2.1164454865375566e-05 -1.8971274517232346e-05 -1.5980347743694076e-05 -1.1804015191488469e-05 -7.8516293837465595e-06 -7.6989477303109621e-06 -6.6790048712765896e-06 -3.7838674522900694e-06 -1.2530724264335738e-05 5.288193263969526e-07 -1.5260968079042734e-06 -1.9219147201110547e-06 3.839948348807783e-06 1.2949376696411186e-06 -4.3424927936437721e-07 4.5844054574740923e-06 6.090053086605398e-06 -7.125708650465897e-06 -1.0382442846171907e-05 -2.0822908958157944e-06 -4.1639629607506226e-06 -5.6556208784471244e-06 -8.09660127785386e-06 -1.8510366738233678e-06 -7.9523727394964686e-06 1.2990617983576604e-05 -6.0472598321014742e-07 4.6710302509795539e-06 7.9315419292198179e-06 1.3991459028631842e-05 1.0345515358899866e-05 9.8615405819495986e-06 1.0829075453995415e-05 2.254142588637269e-05 -3.4586961167359432e-06 2.5025807864759435e-06 2.5452857272651277e-06 -7.7041223781861229e-06 -1.037291795518352e-05 -1.6949410090602959e-05 -1.9809051422305622e-05 -2.4857061408697906e-05 -2.8824766595666863e-05 -4.0709925191068118e-05 -2.957924291600347e-05 -2.9593406947016018e-05 -3.1631544920492948e-05 -2.4908000443974446e-05 -4.0250238110167057e-05 -2.8388375522753504e-05 -1.8199250791748154e-05 -1.2891296410384487e-05 -2.0879713363799619e-05 2.325290480723628e-05 1.9502725376535934e-05 1.7461092804673581e-05 1.9059659832425171e-05 2.2552933001111422e-05 2.6949587865656476e-05 2.3078864999205386e-05 2.2177081050932257e-05 2.3566966052966075e-05 2.254078508196613e-05 1.7736914877181724e-05 2.1380641814118503e-05 1.9956891458173647e-05 2.0684824350644973e-05 2.1375855824160811e-05 4.4032545801366608e-05 1.8171406675097582e-05 3.0369670397198936e-05 1.8569691851723417e-05 3.9728848288355029e-05 2.7019208358586386e-05 3.979467620449941e-05 2.2388302081419981e-05 1.8816614054114987e-05 2.4493197401210318e-05 1.4591419528713122e-05 1.5051138165251838e-05 2.1753737342673406e-05 1.5987322764727862e-05 2.2385312226594449e-05 1.2659836695239112e-05 1.9973287525006381e-05 1.5089813492766263e-05 1.4201972626842366e-05 9.5438876151643404e-06 1.1550154569044507e-05 1.1864889651698065e-05 1.1225201785379913e-05 6.1910453945558398e-06 8.2114271247150876e-06 7.1162115772127922e-06 4.9193980577524548e-06 2.8311241510196418e-06 1.1914508145854501e-05 1.0783023159334749e-05 1.0090294557088027e-05 8.654370103577182e-06 1.2506119030817614e-05 1.1440792105194836e-05 1.5387805647829428e-05 1.4740064675778613e-05 1.441178322958349e-05 1.6389734648670811e-05 1.4082679608461157e-05 1.989364574995988e-05 1.8271454452314415e-05 1.6474187544227817e-05 2.1376296689667409e-05 1.5413906431694456e-05 2.7980807874061698e-05 1.9299193116149549e-05 2.4146983096225489e-05 1.840261475895936e-05 2.192410634699455e-05 2.3513094089670737e-05 1.7759291528439292e-05 1.9298214071455302e-05 1.9428248272212038e-05 1.6513298323316607e-05 1.3206257123435331e-05 1.5554054541722058e-05 1.5225427703508099e-05 1.1946819628678324e-05 1.0650284596403892e-05 1.2587444004256369e-05 1.3677049117324443e-05 1.1818820194714281e-05 1.1757952143994483e-05 9.3118769271595662e-06 1.3154194164088111e-05 1.2603011699472155e-05 1.4819784642078797e-05 1.3573464157278958e-05 1.3769718634488136e-05 3.3601982731904719e-06 5.2254548786475967e-06 2.6090637184888507e-06 6.6778337326236608e-06 6.9705559826698315e-06 8.1542796334173333e-06 8.8662917735696668e-06 9.7985821601506763e-06 9.1326446590386348e-06 7.7307933920527383e-06 9.1034563202008003e-06 6.8848940353768725e-06 5.6980588387763316e-06 2.7800260846639297e-06 2.2733373927359319e-06 2.2084459657097311e-06 -4.8453568412610164e-07 1.2542677410262239e-06 -3.9025175007318871e-07 1.375446106561508e-06 4.2732941583229775e-06 4.0758840571755767e-06 4.720826744987932e-06 6.3430969158290193e-06 6.8956425101970113e-06 8.793371647760925e-06 7.8990278790820674e-06 6.3041801398910962e-06 6.6602013340476254e-06 2.9050085371790578e-06 2.0904304317043882e-06 -8.2103914132162419e-07 1.3242706596524236e-05 1.2733267103143343e-05 1.092970983973422e-05 1.1127429763817361e-05 9.6455787799516388e-06 1.1370163931257194e-05 1.079550757804614e-05 9.5353723482384045e-06 1.3312315003992167e-05 1.1503133674622139e-05 1.4250019836520741e-05 1.1604031421466673e-05 1.2666688075015707e-05 1.4889772015603085e-05 1.2974705003694344e-05 1.7293178038242886e-05 1.2274250522472499e-05 1.5185523712269531e-05 1.4335963088147295e-05 1.41818475513243e-05 1.2694742888639603e-05 1.5345784762339516e-05 1.2712442165840657e-05 1.2423957482234348e-05 1.1140684573295547e-05 1.3760829547025561e-05 1.3387417865002898e-05 1.7102271866296348e-05 1.6851317177125935e-05 1.2272379774447704e-05 1.394190374509258e-05 1.3419124087284317e-05 9.2374552670783833e-06 8.328096949608554e-06 5.0917385343938298e-06 9.4858415601663089e-07 3.2886239313350979e-06 5.909073530770181e-06 9.5705766539345486e-06 2.938970086597665e-06 7.3322390851925502e-06 1.0200652171915556e-05 1.2312063228893446e-05 1.2374819054657577e-05 1.0458611557787976e-05 1.4718934116373306e-05 7.113406116817558e-06 5.1297019067355991e-06 8.4420002474713564e-06 9.2820271370157183e-06 2.2000736887963496e-06 6.9347374546331279e-06 1.1050445582789642e-05 8.096281152313587e-06 1.6542781115229127e-05 1.1481618978481559e-05 9.1366814496484173e-06 1.3333402536890233e-05 1.3432926582174978e-05 1.5655998623353079e-05 2.1378008670820773e-05 1.8293614459344221e-05 1.9690945850234445e-05 1.579384711723329e-05 1.8096878316429763e-05 2.0821472264126849e-05 1.7052782417161051e-05 1.9452178120198712e-05 1.5354451346847621e-05 1.5092375473359104e-05 1.4288147131732603e-05 1.6362115091693632e-05 1.280017967949583e-05 1.5601284125354498e-05 1.2695787381280212e-05 1.4570899557062204e-05 1.3310694828389274e-05 1.4186205954142379e-05 1.6009884427406046e-05 -2.9608629445717152e-05 -2.0106666210768068e-05 -2.158313296979362e-05 -1.7768645413351598e-05 -1.5125525702717809e-05 -1.7585857499509664e-05 -2.0431456393657592e-05 -1.8186384428542742e-05 -1.7396666587232468e-05 -1.5949069084031982e-05 -1.71769152223327e-05 -1.7166989748241838e-05 -1.625231780604732e-05 -1.0710711360027044e-05 -1.6150118223813365e-05 -2.4838355499279511e-05 -1.0300382882670095e-05 -1.9387851015374268e-05 -1.0464294132615345e-05 -9.5486581737453131e-06 -1.0334406501054375e-05 -8.8592110942698389e-06 -1.0212339364075658e-05 -4.8251031965872758e-06 -5.2963528326975729e-06 -2.7635991537867351e-06 -3.7252681848353476e-06 1.9337436072577018e-06 3.8031107082796551e-06 -1.0049332251922655e-06 -2.6383270995855538e-06 -2.3824781516753738e-06 -9.5853669608044053e-08 4.1369199186258351e-06 -4.5046702276995856e-06 1.3301334249240997e-06 -2.0248262586707551e-06 -6.3297250609290414e-06 3.9287724701090443e-06 -3.5672035932470974e-06 -2.2494681217450672e-06 -1.5608181310822489e-05 -1.2626926329297493e-05 -1.1480510053690939e-05 -2.8290621783523034e-06 -9.6460808112695841e-06 -1.8234829914942512e-05 -1.4445766644546906e-05 -2.1895890997785053e-05 -1.6927017367928319e-05 -2.3421232907495975e-05 -1.274740161267605e-05 -1.9991872896158105e-05 -3.4528065151261372e-05 -3.725669278789168e-05 -4.2750227040085709e-05 -3.0367329193341121e-05 -3.5007670215755871e-05 -2.192174372242995e-05 -3.1571715589059708e-05 -2.0453571815836931e-05 -4.6048291046121106e-05 -7.0894997210835177e-05 -4.2687417271278558e-05 -4.6257287813388751e-05 -5.8471559344803361e-05 -4.9836026381869523e-05 -3.3076520931022663e-05 -3.9415910823149529e-05 -3.7913469559806349e-05 -2.2813454232216443e-05 -2.3510779024633122e-05 -1.8791147606551646e-05 -2.1267456236892814e-05 -3.0732471522593706e-05 -2.5425472044329106e-05 -3.5624611523785084e-06 2.2234587269549767e-06 5.1652275774868259e-06 -1.8074175235821032e-05 -7.0543984993771384e-06 -1.8859645261386373e-05 -1.0689958697716586e-05 -7.9152446275778732e-06 1.158739448315538e-06 -8.622286778236266e-06 6.1949077942955271e-07 1.0501740254726185e-05 5.5843844658139548e-06 1.4056080019313342e-05 4.759380072422258e-06 1.225690687972967e-05 2.2272167976216256e-05 6.9395225664603464e-06 2.0269425116643316e-05 2.1474257832080106e-05 3.7929024997727665e-05 3.8185198340749099e-05 1.8046458893769565e-05 1.2654399917149287e-05 3.9210749058122467e-05 6.6407938231483759e-05 6.2891594495131337e-05 6.6813450466160235e-05 4.4139780921093963e-05 2.9539897494403424e-05 3.650588266005967e-05 2.406256687177981e-05 7.0923334592737494e-06 -8.6994235524550777e-07 -1.68369011055257e-06 -1.3629290115520421e-05 1.5261794915334405e-05 -1.0006946540244842e-05 -2.9118074621352921e-05 -3.475377420363257e-05 -1.7321966551495652e-05 -2.8879637898806801e-05 -2.0011324359816711e-05 -4.4799053521278869e-05 -2.6676663523963177e-05 -3.3870202215736478e-05 -5.134256618093632e-05 -5.1250954051885967e-05 -7.6799992508637242e-05 -5.4793446506922692e-05 -7.5970227352068669e-05 -5.8610211109102255e-05 -4.1845907921561368e-05 -5.0107622385127688e-05 3.13379049135711e-05 3.3353843539529328e-05 3.5598062488034848e-05 3.2623104413877883e-05 3.0635708259929431e-05 2.6246706122973331e-05 2.3448120536732535e-05 2.9271683183294826e-05 2.05320412435543e-05 2.4309628407368073e-05 1.7245428975873298e-05 2.3555240833477991e-05 1.9976152411755905e-05 2.3967333050356414e-05 2.6063931519201657e-05 2.2759631572790885e-05 1.9864111949412883e-05 1.5084549573081182e-05 2.3712965444599739e-05 2.2600631979924559e-05 2.7703822741892388e-05 1.5196442433896016e-05 1.9316277794331557e-05 2.543013944097619e-05 3.0402374766957713e-05 3.9856535468557704e-05 3.2284821270564824e-05 3.471240108670732e-05 3.3026664097038217e-05 4.20364977827513e-05 4.7753454646063095e-05 5.9760232906603546e-05 6.2581590030569246e-05 5.8097781290524921e-05 5.1899738155646198e-05 5.412320098721046e-05 6.4771617609854975e-05 6.3739382339509927e-05 0.00011111743871372171 0.00013577944812367525 0.00013258024613262327 8.9716708621758785e-05 4.7018996347814734e-05 6.2876096681440888e-05 8.022696083933438e-05 4.8103042053714396e-05 5.0522473675606946e-05 5.5107024002790118e-05 3.9318989094678169e-05 4.78251601149e-05 3.2473789494672395e-05 4.1154708047055597e-05 3.1729235034597803e-05 4.2627212974829535e-05 2.6523492151866789e-05 3.3657392845340737e-05 3.4999052002848698e-05 3.1370651901214515e-05 2.6610300300734039e-05 4.181008513246419e-05 2.7533964036676251e-05 2.5678071052991758e-05 3.182466196796065e-05 2.2124696471114864e-05 1.7846838372699102e-05 2.4223834966543038e-05 2.4485414369881889e-05 1.6135788517170822e-05 2.6431331796967171e-05 1.9198400220004274e-05 2.4115154053797831e-05 3.924167405987275e-05 3.6093358024920401e-05 3.2698954052201496e-05 3.6445290343901327e-05 4.849008611065715e-05 5.1187631226319407e-05 6.0802187882491369e-05 0.00014301928888231166 2.2724935358079986e-05 5.8138657918438789e-05 0.00013894688076576586 7.9914711325479877e-05 0.0085342449897910094 0.0001347398258610301 6.9645447088151252e-05 0.021755803655846225 2.2867577573950712e-05 7.5330687983109473e-05 0.031798000866396454 3.0738921119768123e-05 5.5182808556858919e-05 2.0121577896972171e-05 3.2098060433285698e-05 2.8537432212766744e-05 2.5365043147233438e-05 2.4872825005245003e-05 3.8910636171065417e-05 4.1446687644983946e-05 2.7297240733584617e-05 5.1638842633214949e-05 6.6872789391956796e-05 7.825792434740437e-05 0.041558657646188671 7.5105233366826955e-05 6.7895600100680898e-05 5.7165490812586834e-05 7.7696013198942301e-05 5.4192000706666874e-05 0.051809585836320775 6.6280430677200875e-05 3.1899941060609945e-05 2.3806637399241483e-05 4.7390504134267554e-05 3.1776712011368662e-05 3.6066963135476934e-05 2.0614485636767301e-05 1.8564166598835713e-05 2.2180610826827928e-05 1.6685026619890456e-05 1.5561310878085951e-05 1.0210678250483147e-05 1.2290638110436242e-05 1.2595077694608353e-05 1.4603168341783944e-05 1.6221823630159645e-05 1.2011165432294793e-05 1.7818803033852696e-05 1.5495405154410414e-05 1.6871381215443932e-05 1.8501832253582393e-05 2.1565820953469174e-05 -4.9643222189892392e-05 -6.0748106389368678e-05 -3.8976644715337893e-05 -7.3480062354583202e-05 -7.0615243012894042e-05 -4.5358753345055881e-05 -4.9465288338756627e-05 -3.019057919098568e-05 -1.744751758813286e-05 -3.0406708515146909e-06 -2.1993875806318843e-05 -1.643011662097029e-05 -3.2636026938666959e-05 -1.3731136540880552e-05 1.8672847356516727e-05 3.9541735717581183e-06 3.4068772303780118e-05 3.1945334466351553e-06 -1.2945600789995761e-05 1.3422749422014146e-05 1.3470848014369248e-05 4.6992344886271817e-05 7.2774311540042954e-05 5.6923096614166059e-05 6.375630197410683e-05 3.0056904231114448e-05 4.2586242855651444e-05 5.1531832598849083e-05 2.3110816864488371e-05 2.3936859240198099e-05 4.0855104535080259e-05 4.232225847174728e-05 4.5601191322888236e-05 3.7026236199865122e-05 2.3886627055034288e-05 2.3085175540849814e-05 6.4456411978574201e-06 7.9456126388138988e-06 5.7922248556997215e-06 -8.0388707507583149e-06 7.3788585617303327e-06 1.0968415008135368e-05 -2.8149880601804032e-06 -6.8000500568681042e-06 -2.0126889605720987e-05 -2.4114939776391465e-05 -2.4627147711330953e-05 -2.2034278951297702e-05 -1.0751510164311003e-05 -1.0508648736579459e-05 -1.5776656102383258e-05 -2.2769879081066362e-05 -2.861558236301855e-05 -4.1259119294900868e-05 -2.4654943651860467e-05 -3.2550842250056596e-05 -5.3830539041047629e-05 -3.8647390881913911e-05 -4.0314698719137406e-05 -6.1153293086468576e-06 -2.0302623041972435e-05 -9.8479288400707236e-06 -2.0890404727465488e-05 -2.1269154471632509e-05 -3.2718886816047836e-05 -2.8041539089243648e-05 -2.2430202227156611e-05 -1.5623966806313592e-05 -1.3514714921048204e-05 -1.0440076436723286e-05 -4.9756478118253948e-06 -5.8642906952109143e-06 -1.1856968160210723e-05 -3.7461596020709267e-06 4.7453492686240148e-06 5.4683189160107965e-06 1.3659641149012854e-05 -4.8439509839326954e-06 -6.4737690071777106e-06 3.5475372281686471e-06 5.2829087408828394e-06 1.1898035713403738e-05 6.5716573849272306e-06 2.5498616708640446e-05 2.7487405379282093e-05 2.1152963426072403e-05 3.1485487702284307e-05 4.9831372065220394e-05 2.9937979341413366e-05 4.1866466156712185e-05 1.8683087049925669e-05 2.2057649195156206e-05 3.8715350791366371e-05 1.762537663034091e-05 4.1429809167987605e-05 2.2497807224988037e-05 4.2979361549583088e-05 4.3104569025832935e-05 1.3321623664119461e-05 3.1157538191370349e-06 -4.3078422655570478e-07 -7.5065531489112297e-06 -6.8597752504581319e-06 2.4114238701120928e-06 1.0902040688844788e-05 2.4846354235977166e-06 1.5204464254086562e-05 -6.079808388259958e-06 -1.2834059183161443e-05 -4.3327294288095751e-06 -3.5291394735069079e-06 -9.6821252884458572e-06 -1.2536222599876523e-05 -6.5371559616865038e-06 -1.1514494779678829e-06 -5.5035355824815946e-06 -5.786941539594366e-06 -1.4045247796658916e-06 -9.717774327750589e-07 -1.9088309736476489e-06 3.8254015259522964e-07 -4.0499928317468299e-06 -6.8944542469780504e-06 -1.452314888842959e-05 9.3411931132026792e-06 2.282894976468505e-05 2.3349496799316511e-05 1.2328333942337478e-05 2.5037450427711294e-06 1.7939614659510592e-06 -2.290050729988522e-07 7.5824807416731508e-06 6.2430409557106257e-06 7.0548323192208459e-06 1.5152304477734305e-05 1.3915721297518599e-05 8.8918070808787115e-06 1.8739230011189929e-05 2.2802108709894808e-05 3.4136549817184009e-05 5.8720116733630988e-05 6.9490766746908438e-05 4.1240843970224875e-05 6.1946571737495244e-05 8.751489470424376e-05 6.589247715316828e-05 0.062695568746082758 4.8940239886023293e-05 7.7801875934715992e-05 7.1383594425062399e-05 0.074383071986083099 7.8970509288214721e-05 8.6884181455849224e-05 0.086925520863719255 6.4513907023746025e-05 3.7865734456279503e-05 7.6330744341774953e-05 3.0863401222987349e-05 4.6189258735409482e-05 4.5791205613346671e-05 3.3229313054471414e-05 9.1461064624056849e-05 9.074199949032864e-05 5.377550713441372e-05 9.7688244366625314e-05 0.10013775204660252 0.00011481815721120086 0.00010616235981648729 7.5469810531985542e-05 8.8426658728189573e-05 0.11586138994090159 0.0001342458346303226 9.4361401525741218e-05 2.1255340140916706e-05 9.4349405245614925e-05 0.00012641645755887075 7.7344596755723203e-05 3.3467118128099665e-05 -1.5588571764320813e-05 -4.0255504714059283e-06 -2.2006420678249572e-05 9.8368616330604111e-06 -5.7503477732839163e-06 -7.1446468648576292e-07 9.9222275517897932e-06 1.3994129622553497e-05 -1.0435306225621755e-05 -1.5960148282331294e-06 -1.5841872514824442e-05 -5.8501096825926049e-06 -1.1877970609009813e-05 -2.062898191858677e-05 -3.7275271979953511e-05 -2.1552444307782717e-05 -3.7615559703744457e-05 -2.423757700346918e-05 -1.7165478101954161e-05 -2.4922218363784116e-05 -1.077495669165668e-05 -2.4739912645741608e-05 -1.6404328490818125e-05 3.1171343024572482e-06 -1.3259941783446859e-05 -3.6568059698187101e-06 4.7995832917885735e-06 3.0174609654582839e-06 -1.1771507379986976e-05 -5.4590340587024489e-06 -7.4322474489924278e-06 -2.8961383917684843e-06 2.401228522717967e-06 2.9636870545375355e-07 3.1659354900041067e-06 -2.0572261089565744e-06 8.0162661357665406e-07 -1.2577953005260697e-06 4.8291137685127624e-06 1.4073047246267309e-05 6.1036169966870646e-06 6.441409164114416e-06 6.846750430999915e-06 1.2764145681566625e-05 8.3299072963285699e-06 6.7269608875007822e-06 8.5589591593400959e-06 4.3701876372560378e-06 5.2644504008508885e-06 4.8622410452953319e-06 3.8489523476363443e-05 0.031917055878116517 4.2491979892289025e-05 3.0754757905866238e-05 2.4368586427747272e-05 1.2454076390923873e-05 1.6453435855388063e-05 1.342950493092213e-05 3.4169307502138354e-05 2.1825208851767642e-05 2.6652938358950927e-05 1.486154682105818e-05 4.2977297406100593e-05 5.3397040802116843e-05 3.6890947141555866e-05 3.4075522720524209e-05 0.047679108170832193 4.2988578317341487e-05 4.5404174770438547e-05 0.039198899494770838 5.3796874640896436e-05 0.05761822082154168 6.9519482674713657e-05 6.0233824040438069e-05 4.1755029917232411e-05 1.9043259705522333e-05 2.4754793300509796e-05 5.4132363644877207e-05 3.1258535709409624e-05 6.3450753653022094e-06 5.6119231042279176e-05 7.7841380163393484e-05 4.4109736599329411e-05 1.5804248161276372e-05 5.2614287147814839e-05 0.06958809001555033 8.3280973329548282e-05 5.6633632171014699e-05 2.587011043937628e-05 6.5579012614174997e-06 1.2879327821761527e-05 2.3081107256768454e-05 -9.1920063506199974e-07 -6.710743182513192e-06 -6.3452086394031118e-07 -5.4121873941286942e-06 5.8071051782767127e-06 -4.8417132214443638e-07 4.9862376101986704e-07 5.9780297581490862e-06 1.8587722138120057e-05 2.4012552920555383e-05 7.4025314026832448e-06 2.860811317752926e-07 -1.1498225733299651e-06 -6.1562232361503281e-07 -8.3826743486632022e-07 -3.9490623232646578e-06 -3.8094209425468956e-06 -8.3088447942140237e-07 -4.2973170828534546e-06 -8.5142819247392997e-06 -7.083827641278604e-06 -5.774747290785082e-06 -9.2690191621227439e-06 -3.2922051068371219e-06 -2.3282009821748407e-06 -4.8782814938060917e-06 -9.1711031589458876e-06 -2.529218784987769e-06 -1.2871251803988921e-05 -4.2295111133470835e-06 -6.5876265936300193e-06 -1.3542127315525134e-05 -9.1998860519860049e-06 -2.184030244153012e-06 -3.6216059863432293e-06 -3.7873391093359854e-06 -9.4540725812887656e-06 -8.0198879476372446e-06 -1.7931283078992052e-06 -1.0278501719469422e-05 -1.3170893150827884e-05 -1.6720374080981268e-05 -1.4604851248920295e-05 -2.1645902864072392e-05 -1.4192970081012158e-05 1.5031291521373433e-05 8.9387361135741771e-06 2.2161760707942743e-05 1.1637946892583545e-05 3.5381603811037755e-07 5.7079448252932846e-07 7.3468232094475294e-06 6.624669058550095e-06 1.3548075307582056e-06 -3.8793120079065255e-07 1.4160916880012818e-06 1.463346854494005e-05 9.2323442799709284e-06 2.5236704637606497e-05 1.9616461359449311e-05 2.3890847075554601e-05 1.6419115437974114e-05 1.8695721419607574e-05 2.1970254924018589e-05 9.9192555768373063e-06 1.1381133582231409e-05 7.5036821484366809e-06 -5.6905237775758174e-07 -2.2611399512173266e-06 7.9458064777856822e-06 1.4218335857975415e-06 6.8180145967118276e-06 -2.3158092872064976e-06 8.724092106244391e-07 1.85472312734463e-05 2.2223059539206553e-05 2.0473896319891591e-05 8.3747511320608043e-06 1.6538147321656254e-05 -2.1227732001577481e-05 -2.538739426982093e-05 -2.231798192468022e-05 -2.6668433309952246e-05 -1.769719307326105e-05 -9.8603449968928062e-06 -1.5405685754246918e-05 -8.3666661436185589e-06 -7.8898693124850256e-06 -9.8305410780993776e-06 -7.6700335239020647e-06 -6.6768270313281207e-06 -1.2453399572709993e-05 -1.6938725681625068e-05 -1.7535165648403577e-05 -1.7984434047275223e-05 -2.5085000150718191e-05 -2.5094023447401438e-05 -3.1390724032803394e-05 -4.0268394028194067e-05 -3.485256056073372e-05 -2.8650974618579707e-05 -2.3986581684484336e-05 -1.9878104823487701e-05 -9.371135288688227e-06 -9.9697978649286112e-06 -5.7824365913537474e-06 -1.5172905636872959e-05 -1.3306910203085711e-05 -1.7856909625398563e-05 -1.9678913247155928e-05 -2.8483218487003925e-05 -2.5753249226173115e-05 -3.8325788259682702e-05 1.1563605479764875e-05 2.7549640504474874e-05 1.1203163857385987e-05 6.6139926583877115e-06 -2.5341648382182702e-06 1.0118009418208496e-06 9.4158087994330845e-06 2.868914029239666e-06 -1.0868488926779574e-05 -5.0388902824538863e-06 1.3972360211055327e-06 1.4131114017013025e-05 1.5434846914735595e-05 2.8952386073822898e-05 4.921630001066396e-05 -5.112629658564615e-06 6.4187962891349229e-05 0.0044180980455701671 2.8239762626633866e-05 2.8291785743669379e-05 0.011092655592721001 4.3437310224687367e-05 0.015688615699055004 3.3339601090422513e-05 2.7521542680366867e-05 4.6757783978985652e-06 1.8626305700440596e-06 5.9656834979005113e-06 -6.4806217809160128e-06 1.043893797127347e-05 4.9362763010830278e-07 2.0423558078400039e-05 1.2245257586068241e-05 8.5611833447956731e-06 1.77562645567571e-05 1.6321084655331378e-05 2.1059333628746486e-05 2.3723726438364194e-05 2.368149121737112e-05 1.8976761902751514e-05 1.6797300469793586e-05 1.4300072942665737e-05 1.4052864673681146e-05 1.3018250464052964e-05 8.3321422273229917e-06 1.1892082774312687e-05 8.7672816998092643e-06 8.2453331776993646e-06 9.6020451805544412e-06 9.2803252058929419e-06 9.7394310484648621e-06 1.393993005890465e-05 1.3635649379805504e-05 1.1353659525895429e-05 1.1365732551574397e-05 1.2051171125393621e-05 8.107837649468921e-06 8.2815937871964524e-06 1.07913728254301e-05 9.8432609454819858e-06 9.9471006870649188e-06 8.732352084030039e-06 8.0547554219599724e-06 1.0593475065393096e-05 1.1197662416016904e-05 1.4664401195693753e-05 1.2420230828059432e-05 1.2021604959513337e-05 1.9543819369666855e-05 3.8590148972930856e-05 0.025740985967017259 2.2455079558221991e-05 3.2750573146218646e-05 3.1372389649014982e-05 3.7846787440714755e-05 1.267083839419852e-05 0.020437190160715216 3.2470593771461082e-05 2.4620846409376714e-05 3.7896323466929502e-05 7.7860036837239154e-06 6.7025558710673337e-06 7.4782421043432992e-06 1.2833143734940742e-05 
</DataArray>
</CellData>
</Piece>
</UnstructuredGrid>
</VTKFile>
