<?xml version="1.0"?>
<VTKFile type="UnstructuredGrid" version="0.1" byte_order="LittleEndian">
<UnstructuredGrid>
<Piece NumberOfPoints="3142" NumberOfCells="1054">
<Points>
<DataArray type="Float64" NumberOfComponents="3" format="ascii">
0 0 0 0.049999999999899652 0 0 0.02576622439977887 0.024532886826226379 0 0 0 0 0.02576622439977887 0.024532886826226379 0 0 0.050000000000207989 0 0.049999999999899652 0 0 0.053064897599215843 0.048131547304697528 0 0.02576622439977887 0.024532886826226379 0 0 0.050000000000207989 0 0.02576622439977887 0.024532886826226379 0 0.053064897599215843 0.048131547304697528 0 0 0.10000000000041601 0 0 0.050000000000207989 0 0.044310582753132287 0.101412518374475 0 0 0.15000000000062411 0 0 0.10000000000041601 0 0.044310582753132287 0.101412518374475 0 0.083411279318303222 0.089699755330707398 0 0.044310582753132287 0.101412518374475 0 0.053064897599215843 0.048131547304697528 0 0 0.050000000000207989 0 0.053064897599215843 0.048131547304697528 0 0.044310582753132287 0.101412518374475 0 0.083411279318303222 0.089699755330707398 0 0.065374659239632718 0.1448908038746782 0 0.044310582753132287 0.101412518374475 0 0.083411279318303222 0.089699755330707398 0 0.1053400320299198 0.12877248826361379 0 0.065374659239632718 0.1448908038746782 0 0.083411279318303222 0.089699755330707398 0 0.12372429750337779 0.095814237875728972 0 0.1053400320299198 0.12877248826361379 0 0.14332333627550789 0.14578431753966009 0 0.1053400320299198 0.12877248826361379 0 0.12372429750337779 0.095814237875728972 0 0.14618258501891079 0.062070108745602003 0 0.12372429750337779 0.095814237875728972 0 0.10266856499169109 0.044518360900210059 0 0.083411279318303222 0.089699755330707398 0 0.10266856499169109 0.044518360900210059 0 0.12372429750337779 0.095814237875728972 0 0.099999999999814668 0 0 0.14999999999970359 0 0 0.10266856499169109 0.044518360900210059 0 0.049999999999899652 0 0 0.099999999999814668 0 0 0.053064897599215843 0.048131547304697528 0 0.099999999999814668 0 0 0.10266856499169109 0.044518360900210059 0 0.053064897599215843 0.048131547304697528 0 0.083411279318303222 0.089699755330707398 0 0.053064897599215843 0.048131547304697528 0 0.10266856499169109 0.044518360900210059 0 0 0.25000000000104028 0 0 0.20000000000083221 0 0.044081577119474857 0.2271058242433576 0 0 0.20000000000083221 0 0.038512288486115001 0.1844147282893184 0 0.044081577119474857 0.2271058242433576 0 0.083105206071467416 0.20007701332709979 0 0.044081577119474857 0.2271058242433576 0 0.038512288486115001 0.1844147282893184 0 0 0.15000000000062411 0 0.065374659239632718 0.1448908038746782 0 0.038512288486115001 0.1844147282893184 0 0 0.15000000000062411 0 0.044310582753132287 0.101412518374475 0 0.065374659239632718 0.1448908038746782 0 0.083105206071467416 0.20007701332709979 0 0.038512288486115001 0.1844147282893184 0 0.065374659239632718 0.1448908038746782 0 0 0.20000000000083221 0 0 0.15000000000062411 0 0.038512288486115001 0.1844147282893184 0 0.065374659239632718 0.1448908038746782 0 0.1053400320299198 0.12877248826361379 0 0.106902708054812 0.16453234188234539 0 0.14332333627550789 0.14578431753966009 0 0.106902708054812 0.16453234188234539 0 0.1053400320299198 0.12877248826361379 0 0.083105206071467416 0.20007701332709979 0 0.065374659239632718 0.1448908038746782 0 0.106902708054812 0.16453234188234539 0 0.083105206071467416 0.20007701332709979 0 0.13737030665753211 0.20313708640667491 0 0.095326043202144745 0.24554465089224409 0 0.083105206071467416 0.20007701332709979 0 0.106902708054812 0.16453234188234539 0 0.13737030665753211 0.20313708640667491 0 0.083105206071467416 0.20007701332709979 0 0.095326043202144745 0.24554465089224409 0 0.044081577119474857 0.2271058242433576 0 0.049706944316556423 0.27522722923869108 0 0.044081577119474857 0.2271058242433576 0 0.095326043202144745 0.24554465089224409 0 0.13737030665753211 0.20313708640667491 0 0.14377654328998779 0.2442024734791064 0 0.095326043202144745 0.24554465089224409 0 0.17933913398461551 0.2350063570234002 0 0.14377654328998779 0.2442024734791064 0 0.13737030665753211 0.20313708640667491 0 0.17933913398461551 0.2350063570234002 0 0.13737030665753211 0.20313708640667491 0 0.18124454140915969 0.18790916706335251 0 0.14332333627550789 0.14578431753966009 0 0.18652628422869419 0.14162325200928061 0 0.18124454140915969 0.18790916706335251 0 0.14332333627550789 0.14578431753966009 0 0.13737030665753211 0.20313708640667491 0 0.106902708054812 0.16453234188234539 0 0.14332333627550789 0.14578431753966009 0 0.18124454140915969 0.18790916706335251 0 0.13737030665753211 0.20313708640667491 0 0.14332333627550789 0.14578431753966009 0 0.16141998738593399 0.10404039647458049 0 0.18652628422869419 0.14162325200928061 0 0.2185883431182947 0.18019736283949719 0 0.18652628422869419 0.14162325200928061 0 0.22985637510995899 0.1298347970200906 0 0.2185883431182947 0.18019736283949719 0 0.22985637510995899 0.1298347970200906 0 0.25557216766470708 0.15874861286892261 0 0.2185883431182947 0.18019736283949719 0 0.25557216766470708 0.15874861286892261 0 0.26429849586623999 0.19346700179430079 0 0.2185883431182947 0.18019736283949719 0 0.18124454140915969 0.18790916706335251 0 0.18652628422869419 0.14162325200928061 0 0.17933913398461551 0.2350063570234002 0 0.18124454140915969 0.18790916706335251 0 0.224700362040408 0.22206622194729711 0 0.2185883431182947 0.18019736283949719 0 0.224700362040408 0.22206622194729711 0 0.18124454140915969 0.18790916706335251 0 0.2185883431182947 0.18019736283949719 0 0.26429849586623999 0.19346700179430079 0 0.224700362040408 0.22206622194729711 0 0.25195515620380449 0.25883339815888678 0 0.21049769590865089 0.26857363548218488 0 0.224700362040408 0.22206622194729711 0 0.17933913398461551 0.2350063570234002 0 0.224700362040408 0.22206622194729711 0 0.21049769590865089 0.26857363548218488 0 0.14999999999970359 0 0 0.184418230509967 0.038773194583122873 0 0.14618258501891079 0.062070108745602003 0 0.19922788606653311 0.085920220746880993 0 0.14618258501891079 0.062070108745602003 0 0.184418230509967 0.038773194583122873 0 0.14999999999970359 0 0 0.19999999999955789 0 0 0.184418230509967 0.038773194583122873 0 0.14999999999970359 0 0 0.14618258501891079 0.062070108745602003 0 0.10266856499169109 0.044518360900210059 0 0.14618258501891079 0.062070108745602003 0 0.16141998738593399 0.10404039647458049 0 0.12372429750337779 0.095814237875728972 0 0.14332333627550789 0.14578431753966009 0 0.12372429750337779 0.095814237875728972 0 0.16141998738593399 0.10404039647458049 0 0.19922788606653311 0.085920220746880993 0 0.18652628422869419 0.14162325200928061 0 0.16141998738593399 0.10404039647458049 0 0.19922788606653311 0.085920220746880993 0 0.16141998738593399 0.10404039647458049 0 0.14618258501891079 0.062070108745602003 0 0.19922788606653311 0.085920220746880993 0 0.22985637510995899 0.1298347970200906 0 0.18652628422869419 0.14162325200928061 0 0.19922788606653311 0.085920220746880993 0 0.24218496799700481 0.089025544070598317 0 0.22985637510995899 0.1298347970200906 0 0.27474541102162192 0.11822029332053539 0 0.22985637510995899 0.1298347970200906 0 0.24218496799700481 0.089025544070598317 0 0.19922788606653311 0.085920220746880993 0 0.22668068146512929 0.045875643423131329 0 0.24218496799700481 0.089025544070598317 0 0.27499999999933927 0.060310814194988557 0 0.24218496799700481 0.089025544070598317 0 0.22668068146512929 0.045875643423131329 0 0.19922788606653311 0.085920220746880993 0 0.184418230509967 0.038773194583122873 0 0.22668068146512929 0.045875643423131329 0 0.19999999999955789 0 0 0.22668068146512929 0.045875643423131329 0 0.184418230509967 0.038773194583122873 0 0.19999999999955789 0 0 0.24999999999941211 0 0 0.22668068146512929 0.045875643423131329 0 0.24999999999941211 0 0 0.29999999999926641 0 0 0.27499999999933927 0.060310814194988557 0 0.24999999999941211 0 0 0.27499999999933927 0.060310814194988557 0 0.22668068146512929 0.045875643423131329 0 0.29999999999926641 0 0 0.32541448401678508 0.046215317981507749 0 0.27499999999933927 0.060310814194988557 0 0.29999999999926641 0 0 0.34999999999912063 0 0 0.32541448401678508 0.046215317981507749 0 0.35312867752657662 0.084946736076730367 0 0.32541448401678508 0.046215317981507749 0 0.3615861437013822 0.03582617922508851 0 0.35312867752657662 0.084946736076730367 0 0.3615861437013822 0.03582617922508851 0 0.39591832466117061 0.056982757562006353 0 0.34999999999912063 0 0 0.3615861437013822 0.03582617922508851 0 0.32541448401678508 0.046215317981507749 0 0.34999999999912063 0 0 0.3999999999989749 0 0 0.3615861437013822 0.03582617922508851 0 0.35312867752657662 0.084946736076730367 0 0.39823268594401579 0.1116623613130045 0 0.36246644853392812 0.1399454205365751 0 0.35312867752657662 0.084946736076730367 0 0.36246644853392812 0.1399454205365751 0 0.32215584939770009 0.1218492143506909 0 0.35312867752657662 0.084946736076730367 0 0.3096713403101819 0.085471541595262421 0 0.32541448401678508 0.046215317981507749 0 0.35312867752657662 0.084946736076730367 0 0.32215584939770009 0.1218492143506909 0 0.3096713403101819 0.085471541595262421 0 0.27474541102162192 0.11822029332053539 0 0.3096713403101819 0.085471541595262421 0 0.32215584939770009 0.1218492143506909 0 0.27499999999933927 0.060310814194988557 0 0.32541448401678508 0.046215317981507749 0 0.3096713403101819 0.085471541595262421 0 0.3096713403101819 0.085471541595262421 0 0.27474541102162192 0.11822029332053539 0 0.27499999999933927 0.060310814194988557 0 0.27499999999933927 0.060310814194988557 0 0.27474541102162192 0.11822029332053539 0 0.24218496799700481 0.089025544070598317 0 0.27474541102162192 0.11822029332053539 0 0.25557216766470708 0.15874861286892261 0 0.22985637510995899 0.1298347970200906 0 0.27474541102162192 0.11822029332053539 0 0.29336099386129338 0.15892013001050981 0 0.25557216766470708 0.15874861286892261 0 0.26429849586623999 0.19346700179430079 0 0.25557216766470708 0.15874861286892261 0 0.29336099386129338 0.15892013001050981 0 0.33084213324567391 0.16272720141332131 0 0.31255190597181792 0.19850845631528771 0 0.29336099386129338 0.15892013001050981 0 0.26429849586623999 0.19346700179430079 0 0.29336099386129338 0.15892013001050981 0 0.31255190597181792 0.19850845631528771 0 0.27474541102162192 0.11822029332053539 0 0.32215584939770009 0.1218492143506909 0 0.29336099386129338 0.15892013001050981 0 0.28040350263641872 0.23054717217092141 0 0.25195515620380449 0.25883339815888678 0 0.224700362040408 0.22206622194729711 0 0.26429849586623999 0.19346700179430079 0 0.28040350263641872 0.23054717217092141 0 0.224700362040408 0.22206622194729711 0 0.26429849586623999 0.19346700179430079 0 0.31255190597181792 0.19850845631528771 0 0.28040350263641872 0.23054717217092141 0 0.33758650185219202 0.23837101504325639 0 0.29132859388405002 0.27203693976649962 0 0.28040350263641872 0.23054717217092141 0 0.33758650185219202 0.23837101504325639 0 0.28040350263641872 0.23054717217092141 0 0.31255190597181792 0.19850845631528771 0 0.33758650185219202 0.23837101504325639 0 0.31255190597181792 0.19850845631528771 0 0.3572130504031617 0.1874703368446563 0 0.33758650185219202 0.23837101504325639 0 0.3572130504031617 0.1874703368446563 0 0.38831533174504851 0.2189834941785925 0 0.33758650185219202 0.23837101504325639 0 0.38831533174504851 0.2189834941785925 0 0.3786248352540974 0.27082301512024259 0 0.33084213324567391 0.16272720141332131 0 0.29336099386129338 0.15892013001050981 0 0.32215584939770009 0.1218492143506909 0 0.33084213324567391 0.16272720141332131 0 0.32215584939770009 0.1218492143506909 0 0.36246644853392812 0.1399454205365751 0 0.33084213324567391 0.16272720141332131 0 0.3572130504031617 0.1874703368446563 0 0.31255190597181792 0.19850845631528771 0 0.39801143831225599 0.16651381068160659 0 0.3572130504031617 0.1874703368446563 0 0.36246644853392812 0.1399454205365751 0 0.33084213324567391 0.16272720141332131 0 0.36246644853392812 0.1399454205365751 0 0.3572130504031617 0.1874703368446563 0 0.39801143831225599 0.16651381068160659 0 0.36246644853392812 0.1399454205365751 0 0.39823268594401579 0.1116623613130045 0 0.39801143831225599 0.16651381068160659 0 0.44288491854585582 0.14116182884956319 0 0.42905200079338551 0.19982395548231649 0 0.39801143831225599 0.16651381068160659 0 0.39823268594401579 0.1116623613130045 0 0.44288491854585582 0.14116182884956319 0 0.42377727103934271 0.25099357235810238 0 0.3786248352540974 0.27082301512024259 0 0.38831533174504851 0.2189834941785925 0 0.39801143831225599 0.16651381068160659 0 0.38831533174504851 0.2189834941785925 0 0.3572130504031617 0.1874703368446563 0 0.39801143831225599 0.16651381068160659 0 0.42905200079338551 0.19982395548231649 0 0.38831533174504851 0.2189834941785925 0 0.42377727103934271 0.25099357235810238 0 0.38831533174504851 0.2189834941785925 0 0.42905200079338551 0.19982395548231649 0 0.42377727103934271 0.25099357235810238 0 0.42905200079338551 0.19982395548231649 0 0.46429753744194407 0.22870891180733599 0 0.47357141910802508 0.1873585799078378 0 0.46429753744194407 0.22870891180733599 0 0.42905200079338551 0.19982395548231649 0 0.47357141910802508 0.1873585799078378 0 0.51729576145820033 0.1683240575987815 0 0.50760557329222289 0.20700468884612061 0 0.47357141910802508 0.1873585799078378 0 0.50760557329222289 0.20700468884612061 0 0.46429753744194407 0.22870891180733599 0 0.49695729691142171 0.25014895411178018 0 0.46429753744194407 0.22870891180733599 0 0.50760557329222289 0.20700468884612061 0 0.47357141910802508 0.1873585799078378 0 0.44288491854585582 0.14116182884956319 0 0.48466639505193998 0.1421439844745814 0 0.47357141910802508 0.1873585799078378 0 0.42905200079338551 0.19982395548231649 0 0.44288491854585582 0.14116182884956319 0 0.47357141910802508 0.1873585799078378 0 0.48466639505193998 0.1421439844745814 0 0.51729576145820033 0.1683240575987815 0 0.44288491854585582 0.14116182884956319 0 0.47881186583059909 0.093591717165689425 0 0.48466639505193998 0.1421439844745814 0 0.51076801031701946 0.1202837388510348 0 0.48466639505193998 0.1421439844745814 0 0.47881186583059909 0.093591717165689425 0 0.43698630808430822 0.080423614171545449 0 0.47881186583059909 0.093591717165689425 0 0.44288491854585582 0.14116182884956319 0 0.43698630808430822 0.080423614171545449 0 0.47040171442036788 0.044141676406503738 0 0.47881186583059909 0.093591717165689425 0 0.52375890611712683 0.059318771819432882 0 0.47881186583059909 0.093591717165689425 0 0.47040171442036788 0.044141676406503738 0 0.49999999999869432 0 0 0.52375890611712683 0.059318771819432882 0 0.47040171442036788 0.044141676406503738 0 0.44999999999882923 0 0 0.49999999999869432 0 0 0.47040171442036788 0.044141676406503738 0 0.44999999999882923 0 0 0.47040171442036788 0.044141676406503738 0 0.4320097814748517 0.037406712692169303 0 0.43698630808430822 0.080423614171545449 0 0.4320097814748517 0.037406712692169303 0 0.47040171442036788 0.044141676406503738 0 0.3999999999989749 0 0 0.4320097814748517 0.037406712692169303 0 0.39591832466117061 0.056982757562006353 0 0.43698630808430822 0.080423614171545449 0 0.39591832466117061 0.056982757562006353 0 0.4320097814748517 0.037406712692169303 0 0.3999999999989749 0 0 0.44999999999882923 0 0 0.4320097814748517 0.037406712692169303 0 0.3999999999989749 0 0 0.39591832466117061 0.056982757562006353 0 0.3615861437013822 0.03582617922508851 0 0.35312867752657662 0.084946736076730367 0 0.39591832466117061 0.056982757562006353 0 0.39823268594401579 0.1116623613130045 0 0.43698630808430822 0.080423614171545449 0 0.44288491854585582 0.14116182884956319 0 0.39823268594401579 0.1116623613130045 0 0.43698630808430822 0.080423614171545449 0 0.39823268594401579 0.1116623613130045 0 0.39591832466117061 0.056982757562006353 0 0.43249999999999988 0.43937499999999979 0 0.38707855792647411 0.42299362914874578 0 0.42161023666869668 0.39493916313643851 0 0.38083244760691543 0.38531983672244652 0 0.42161023666869668 0.39493916313643851 0 0.38707855792647411 0.42299362914874578 0 0.38083244760691543 0.38531983672244652 0 0.40076539126862748 0.34589349467022118 0 0.42161023666869668 0.39493916313643851 0 0.43249999999999988 0.43937499999999979 0 0.3908716102680424 0.47010282357248828 0 0.38707855792647411 0.42299362914874578 0 0.38244435121258652 0.51653317813019495 0 0.3908716102680424 0.47010282357248828 0 0.43507373378304309 0.49699695397193322 0 0.43249999999999988 0.43937499999999979 0 0.43507373378304309 0.49699695397193322 0 0.3908716102680424 0.47010282357248828 0 0.43249999999999988 0.43937499999999979 0 0.46111841286828259 0.46690301029591341 0 0.43507373378304309 0.49699695397193322 0 0.43249999999999988 0.43937499999999979 0 0.48858720058566618 0.43964267759203868 0 0.46111841286828259 0.46690301029591341 0 0.49102375406324739 0.49123754822244059 0 0.43507373378304309 0.49699695397193322 0 0.46111841286828259 0.46690301029591341 0 0.49102375406324739 0.49123754822244059 0 0.46111841286828259 0.46690301029591341 0 0.48858720058566618 0.43964267759203868 0 0.52289427570932567 0.3932284363388488 0 0.48858720058566618 0.43964267759203868 0 0.46655310992796922 0.39650496622958609 0 0.43249999999999988 0.43937499999999979 0 0.46655310992796922 0.39650496622958609 0 0.48858720058566618 0.43964267759203868 0 0.43249999999999988 0.43937499999999979 0 0.42161023666869668 0.39493916313643851 0 0.46655310992796922 0.39650496622958609 0 0.4409427642593301 0.35743108089689513 0 0.46655310992796922 0.39650496622958609 0 0.42161023666869668 0.39493916313643851 0 0.52289427570932567 0.3932284363388488 0 0.46655310992796922 0.39650496622958609 0 0.49077833859261139 0.35229981449445641 0 0.5 0.29999999999999999 0 0.49077833859261139 0.35229981449445641 0 0.46226845272279993 0.31901800744800313 0 0.4409427642593301 0.35743108089689513 0 0.46226845272279993 0.31901800744800313 0 0.49077833859261139 0.35229981449445641 0 0.4409427642593301 0.35743108089689513 0 0.41914690343363781 0.30688979866601612 0 0.46226845272279993 0.31901800744800313 0 0.4409427642593301 0.35743108089689513 0 0.49077833859261139 0.35229981449445641 0 0.46655310992796922 0.39650496622958609 0 0.5 0.29999999999999999 0 0.4604742573284204 0.27846934318264788 0 0.49695729691142171 0.25014895411178018 0 0.49695729691142171 0.25014895411178018 0 0.4604742573284204 0.27846934318264788 0 0.46429753744194407 0.22870891180733599 0 0.5 0.29999999999999999 0 0.46226845272279993 0.31901800744800313 0 0.4604742573284204 0.27846934318264788 0 0.41914690343363781 0.30688979866601612 0 0.4604742573284204 0.27846934318264788 0 0.46226845272279993 0.31901800744800313 0 0.42377727103934271 0.25099357235810238 0 0.46429753744194407 0.22870891180733599 0 0.4604742573284204 0.27846934318264788 0 0.42377727103934271 0.25099357235810238 0 0.4604742573284204 0.27846934318264788 0 0.41914690343363781 0.30688979866601612 0 0.42377727103934271 0.25099357235810238 0 0.41914690343363781 0.30688979866601612 0 0.3786248352540974 0.27082301512024259 0 0.36575549820117997 0.31677992835137742 0 0.3786248352540974 0.27082301512024259 0 0.41914690343363781 0.30688979866601612 0 0.4409427642593301 0.35743108089689513 0 0.42161023666869668 0.39493916313643851 0 0.40076539126862748 0.34589349467022118 0 0.4409427642593301 0.35743108089689513 0 0.40076539126862748 0.34589349467022118 0 0.41914690343363781 0.30688979866601612 0 0.36575549820117997 0.31677992835137742 0 0.41914690343363781 0.30688979866601612 0 0.40076539126862748 0.34589349467022118 0 0.40076539126862748 0.34589349467022118 0 0.33277555741076909 0.36432196682010132 0 0.36575549820117997 0.31677992835137742 0 0.38083244760691543 0.38531983672244652 0 0.33277555741076909 0.36432196682010132 0 0.40076539126862748 0.34589349467022118 0 0.36575549820117997 0.31677992835137742 0 0.33277555741076909 0.36432196682010132 0 0.32752639306529541 0.32610012995269699 0 0.33277555741076909 0.36432196682010132 0 0.29644548887253103 0.34914008784168082 0 0.32752639306529541 0.32610012995269699 0 0.33758650185219202 0.23837101504325639 0 0.3786248352540974 0.27082301512024259 0 0.33402499257867951 0.28911035184473982 0 0.36575549820117997 0.31677992835137742 0 0.33402499257867951 0.28911035184473982 0 0.3786248352540974 0.27082301512024259 0 0.36575549820117997 0.31677992835137742 0 0.32752639306529541 0.32610012995269699 0 0.33402499257867951 0.28911035184473982 0 0.29348325746214782 0.31350119524708198 0 0.33402499257867951 0.28911035184473982 0 0.32752639306529541 0.32610012995269699 0 0.33758650185219202 0.23837101504325639 0 0.33402499257867951 0.28911035184473982 0 0.29132859388405002 0.27203693976649962 0 0.29348325746214782 0.31350119524708198 0 0.29132859388405002 0.27203693976649962 0 0.33402499257867951 0.28911035184473982 0 0.29348325746214782 0.31350119524708198 0 0.24432083401701241 0.3006253385567515 0 0.29132859388405002 0.27203693976649962 0 0.25195515620380449 0.25883339815888678 0 0.29132859388405002 0.27203693976649962 0 0.24432083401701241 0.3006253385567515 0 0.25195515620380449 0.25883339815888678 0 0.28040350263641872 0.23054717217092141 0 0.29132859388405002 0.27203693976649962 0 0.27866744612395528 0.38416094670951489 0 0.29644548887253103 0.34914008784168082 0 0.33277555741076909 0.36432196682010132 0 0.29348325746214782 0.31350119524708198 0 0.32752639306529541 0.32610012995269699 0 0.29644548887253103 0.34914008784168082 0 0.29348325746214782 0.31350119524708198 0 0.29644548887253103 0.34914008784168082 0 0.25966125648670141 0.34351016742083729 0 0.29348325746214782 0.31350119524708198 0 0.25966125648670141 0.34351016742083729 0 0.24432083401701241 0.3006253385567515 0 0.27866744612395528 0.38416094670951489 0 0.25966125648670141 0.34351016742083729 0 0.29644548887253103 0.34914008784168082 0 0.27866744612395528 0.38416094670951489 0 0.22033343844674469 0.36963382230740238 0 0.25966125648670141 0.34351016742083729 0 0.27866744612395528 0.38416094670951489 0 0.29124338931648802 0.43334555462578611 0 0.24049127783545701 0.41270748208749802 0 0.29124338931648802 0.43334555462578611 0 0.25982634974572738 0.46097799597715272 0 0.24049127783545701 0.41270748208749802 0 0.27866744612395528 0.38416094670951489 0 0.31778888742534622 0.40581751814196781 0 0.29124338931648802 0.43334555462578611 0 0.27866744612395528 0.38416094670951489 0 0.33277555741076909 0.36432196682010132 0 0.31778888742534622 0.40581751814196781 0 0.33277555741076909 0.36432196682010132 0 0.35221190152536241 0.40457127605439203 0 0.31778888742534622 0.40581751814196781 0 0.34258405725730701 0.4444034294386992 0 0.31778888742534622 0.40581751814196781 0 0.35221190152536241 0.40457127605439203 0 0.34258405725730701 0.4444034294386992 0 0.29124338931648802 0.43334555462578611 0 0.31778888742534622 0.40581751814196781 0 0.34258405725730701 0.4444034294386992 0 0.35221190152536241 0.40457127605439203 0 0.38707855792647411 0.42299362914874578 0 0.38083244760691543 0.38531983672244652 0 0.38707855792647411 0.42299362914874578 0 0.35221190152536241 0.40457127605439203 0 0.38083244760691543 0.38531983672244652 0 0.35221190152536241 0.40457127605439203 0 0.33277555741076909 0.36432196682010132 0 0.38244435121258652 0.51653317813019495 0 0.35024835142131061 0.48654922671676981 0 0.3908716102680424 0.47010282357248828 0 0.34258405725730701 0.4444034294386992 0 0.3908716102680424 0.47010282357248828 0 0.35024835142131061 0.48654922671676981 0 0.34258405725730701 0.4444034294386992 0 0.38707855792647411 0.42299362914874578 0 0.3908716102680424 0.47010282357248828 0 0.34258405725730701 0.4444034294386992 0 0.31068898841644388 0.47541502461811092 0 0.29124338931648802 0.43334555462578611 0 0.35024835142131061 0.48654922671676981 0 0.33190227185843768 0.52715113583864037 0 0.31068898841644388 0.47541502461811092 0 0.34258405725730701 0.4444034294386992 0 0.35024835142131061 0.48654922671676981 0 0.31068898841644388 0.47541502461811092 0 0.28307294598219601 0.50789252727458634 0 0.25982634974572738 0.46097799597715272 0 0.31068898841644388 0.47541502461811092 0 0.29124338931648802 0.43334555462578611 0 0.31068898841644388 0.47541502461811092 0 0.25982634974572738 0.46097799597715272 0 0.28307294598219601 0.50789252727458634 0 0.23975172658309729 0.49475499200540818 0 0.25982634974572738 0.46097799597715272 0 0.22278230690790279 0.44824268025881547 0 0.23975172658309729 0.49475499200540818 0 0.19604738184454831 0.47787523520405789 0 0.22278230690790279 0.44824268025881547 0 0.19604738184454831 0.47787523520405789 0 0.191953871957803 0.42546416763755879 0 0.22278230690790279 0.44824268025881547 0 0.24049127783545701 0.41270748208749802 0 0.25982634974572738 0.46097799597715272 0 0.22278230690790279 0.44824268025881547 0 0.25982634974572738 0.46097799597715272 0 0.23975172658309729 0.49475499200540818 0 0.27866744612395528 0.38416094670951489 0 0.24049127783545701 0.41270748208749802 0 0.22033343844674469 0.36963382230740238 0 0.1650278706801647 0.38791388161335733 0 0.22033343844674469 0.36963382230740238 0 0.191953871957803 0.42546416763755879 0 0.22033343844674469 0.36963382230740238 0 0.24049127783545701 0.41270748208749802 0 0.191953871957803 0.42546416763755879 0 0.22278230690790279 0.44824268025881547 0 0.191953871957803 0.42546416763755879 0 0.24049127783545701 0.41270748208749802 0 0.15801167086041079 0.46008690540259539 0 0.13773355295499351 0.42497777642586831 0 0.191953871957803 0.42546416763755879 0 0.1650278706801647 0.38791388161335733 0 0.191953871957803 0.42546416763755879 0 0.13773355295499351 0.42497777642586831 0 0.1650278706801647 0.38791388161335733 0 0.13773355295499351 0.42497777642586831 0 0.1117088112799664 0.38831403004970022 0 0.15801167086041079 0.46008690540259539 0 0.113541300460994 0.46208784312094731 0 0.13773355295499351 0.42497777642586831 0 0.1216098864341134 0.50637075089503902 0 0.113541300460994 0.46208784312094731 0 0.15801167086041079 0.46008690540259539 0 0.1216098864341134 0.50637075089503902 0 0.15801167086041079 0.46008690540259539 0 0.16618607197337229 0.50652878253548905 0 0.15801167086041079 0.46008690540259539 0 0.19604738184454831 0.47787523520405789 0 0.16618607197337229 0.50652878253548905 0 0.15801167086041079 0.46008690540259539 0 0.191953871957803 0.42546416763755879 0 0.19604738184454831 0.47787523520405789 0 0.25195515620380449 0.25883339815888678 0 0.24432083401701241 0.3006253385567515 0 0.21049769590865089 0.26857363548218488 0 0.19670163708476801 0.31472518408333222 0 0.21049769590865089 0.26857363548218488 0 0.24432083401701241 0.3006253385567515 0 0.19670163708476801 0.31472518408333222 0 0.168349569971391 0.28054490850913671 0 0.21049769590865089 0.26857363548218488 0 0.19670163708476801 0.31472518408333222 0 0.22615676742807109 0.33458786033114157 0 0.18434624290945251 0.35208838264196463 0 0.19670163708476801 0.31472518408333222 0 0.24432083401701241 0.3006253385567515 0 0.22615676742807109 0.33458786033114157 0 0.24432083401701241 0.3006253385567515 0 0.25966125648670141 0.34351016742083729 0 0.22615676742807109 0.33458786033114157 0 0.22033343844674469 0.36963382230740238 0 0.22615676742807109 0.33458786033114157 0 0.25966125648670141 0.34351016742083729 0 0.22033343844674469 0.36963382230740238 0 0.18434624290945251 0.35208838264196463 0 0.22615676742807109 0.33458786033114157 0 0.1650278706801647 0.38791388161335733 0 0.18434624290945251 0.35208838264196463 0 0.22033343844674469 0.36963382230740238 0 0.1650278706801647 0.38791388161335733 0 0.14223753364722069 0.3341983344262433 0 0.18434624290945251 0.35208838264196463 0 0.1650278706801647 0.38791388161335733 0 0.1117088112799664 0.38831403004970022 0 0.14223753364722069 0.3341983344262433 0 0.19670163708476801 0.31472518408333222 0 0.18434624290945251 0.35208838264196463 0 0.14223753364722069 0.3341983344262433 0 0.19670163708476801 0.31472518408333222 0 0.14223753364722069 0.3341983344262433 0 0.168349569971391 0.28054490850913671 0 0.1247745017231483 0.27198077544791172 0 0.168349569971391 0.28054490850913671 0 0.14223753364722069 0.3341983344262433 0 0.1247745017231483 0.27198077544791172 0 0.14377654328998779 0.2442024734791064 0 0.168349569971391 0.28054490850913671 0 0.17933913398461551 0.2350063570234002 0 0.21049769590865089 0.26857363548218488 0 0.168349569971391 0.28054490850913671 0 0.17933913398461551 0.2350063570234002 0 0.168349569971391 0.28054490850913671 0 0.14377654328998779 0.2442024734791064 0 0.049706944316556423 0.27522722923869108 0 0.095326043202144745 0.24554465089224409 0 0.093851963071650835 0.30582068233324772 0 0.1247745017231483 0.27198077544791172 0 0.095326043202144745 0.24554465089224409 0 0.14377654328998779 0.2442024734791064 0 0.1247745017231483 0.27198077544791172 0 0.093851963071650835 0.30582068233324772 0 0.095326043202144745 0.24554465089224409 0 0.1247745017231483 0.27198077544791172 0 0.14223753364722069 0.3341983344262433 0 0.093851963071650835 0.30582068233324772 0 0.049706944316556423 0.27522722923869108 0 0.093851963071650835 0.30582068233324772 0 0.046389130980076937 0.32668781832131749 0 0.087545339447545459 0.35122518864182262 0 0.046389130980076937 0.32668781832131749 0 0.093851963071650835 0.30582068233324772 0 0.087545339447545459 0.35122518864182262 0 0.093851963071650835 0.30582068233324772 0 0.14223753364722069 0.3341983344262433 0 0.087545339447545459 0.35122518864182262 0 0.14223753364722069 0.3341983344262433 0 0.1117088112799664 0.38831403004970022 0 0.087545339447545459 0.35122518864182262 0 0.1117088112799664 0.38831403004970022 0 0.050583896093752537 0.38543522283434112 0 0.087545339447545459 0.35122518864182262 0 0.050583896093752537 0.38543522283434112 0 0.046389130980076937 0.32668781832131749 0 0 0.35000000000145642 0 0.046389130980076937 0.32668781832131749 0 0.050583896093752537 0.38543522283434112 0 0 0.35000000000145642 0 0 0.30000000000124832 0 0.046389130980076937 0.32668781832131749 0 0 0.30000000000124832 0 0.049706944316556423 0.27522722923869108 0 0.046389130980076937 0.32668781832131749 0 0 0.30000000000124832 0 0 0.25000000000104028 0 0.049706944316556423 0.27522722923869108 0 0 0.25000000000104028 0 0.044081577119474857 0.2271058242433576 0 0.049706944316556423 0.27522722923869108 0 0.078358742472063481 0.43365249433908948 0 0.113541300460994 0.46208784312094731 0 0.068743045408989428 0.48853989837882689 0 0.1216098864341134 0.50637075089503902 0 0.068743045408989428 0.48853989837882689 0 0.113541300460994 0.46208784312094731 0 0.113541300460994 0.46208784312094731 0 0.078358742472063481 0.43365249433908948 0 0.13773355295499351 0.42497777642586831 0 0.078358742472063481 0.43365249433908948 0 0.1117088112799664 0.38831403004970022 0 0.13773355295499351 0.42497777642586831 0 0.078358742472063481 0.43365249433908948 0 0.050583896093752537 0.38543522283434112 0 0.1117088112799664 0.38831403004970022 0 0.078358742472063481 0.43365249433908948 0 0.035463093262830522 0.42673416072819947 0 0.050583896093752537 0.38543522283434112 0 0 0.40000000000166441 0 0 0.35000000000145642 0 0.050583896093752537 0.38543522283434112 0 0 0.40000000000166441 0 0.050583896093752537 0.38543522283434112 0 0.035463093262830522 0.42673416072819947 0 0 0.45000000000187229 0 0 0.40000000000166441 0 0.035463093262830522 0.42673416072819947 0 0 0.45000000000187229 0 0.035463093262830522 0.42673416072819947 0 0.033550201249889847 0.46247875832467239 0 0 0.50000000000205869 0 0.033550201249889847 0.46247875832467239 0 0.068743045408989428 0.48853989837882689 0 0.078358742472063481 0.43365249433908948 0 0.068743045408989428 0.48853989837882689 0 0.033550201249889847 0.46247875832467239 0 0.078358742472063481 0.43365249433908948 0 0.033550201249889847 0.46247875832467239 0 0.035463093262830522 0.42673416072819947 0 0 0.50000000000205869 0 0 0.45000000000187229 0 0.033550201249889847 0.46247875832467239 0 0 0.50000000000205869 0 0.068743045408989428 0.48853989837882689 0 0.044576108720083309 0.53509043209532614 0 0 0.55000000000173355 0 0 0.50000000000205869 0 0.044576108720083309 0.53509043209532614 0 0 0.55000000000173355 0 0.044576108720083309 0.53509043209532614 0 0.034381862692950467 0.57372682250960894 0 0.077693244765132896 0.56932317963405099 0 0.034381862692950467 0.57372682250960894 0 0.044576108720083309 0.53509043209532614 0 0.068743045408989428 0.48853989837882689 0 0.085622222639554768 0.53333248912060549 0 0.044576108720083309 0.53509043209532614 0 0.1216098864341134 0.50637075089503902 0 0.085622222639554768 0.53333248912060549 0 0.068743045408989428 0.48853989837882689 0 0.077693244765132896 0.56932317963405099 0 0.044576108720083309 0.53509043209532614 0 0.085622222639554768 0.53333248912060549 0 0.077693244765132896 0.56932317963405099 0 0.085622222639554768 0.53333248912060549 0 0.1154888278694548 0.56733818459978413 0 0.085622222639554768 0.53333248912060549 0 0.1216098864341134 0.50637075089503902 0 0.1154888278694548 0.56733818459978413 0 0.077693244765132896 0.56932317963405099 0 0.1154888278694548 0.56733818459978413 0 0.1024350934457823 0.60772393977513839 0 0.086179601630648681 0.64647209519980475 0 0.050069554451969707 0.61308520079857043 0 0.1024350934457823 0.60772393977513839 0 0.077693244765132896 0.56932317963405099 0 0.1024350934457823 0.60772393977513839 0 0.050069554451969707 0.61308520079857043 0 0.077693244765132896 0.56932317963405099 0 0.050069554451969707 0.61308520079857043 0 0.034381862692950467 0.57372682250960894 0 0 0.60000000000138687 0 0 0.55000000000173355 0 0.034381862692950467 0.57372682250960894 0 0 0.65000000000104008 0 0 0.60000000000138687 0 0.050069554451969707 0.61308520079857043 0 0 0.60000000000138687 0 0.034381862692950467 0.57372682250960894 0 0.050069554451969707 0.61308520079857043 0 0 0.7000000000006934 0 0 0.65000000000104008 0 0.046634677244967337 0.671418230738282 0 0.086179601630648681 0.64647209519980475 0 0.046634677244967337 0.671418230738282 0 0.050069554451969707 0.61308520079857043 0 0 0.65000000000104008 0 0.050069554451969707 0.61308520079857043 0 0.046634677244967337 0.671418230738282 0 0 0.75000000000034661 0 0 0.7000000000006934 0 0.049706944316475897 0.72477277076253799 0 0 0.7000000000006934 0 0.046634677244967337 0.671418230738282 0 0.049706944316475897 0.72477277076253799 0 0 0.75000000000034661 0 0.049706944316475897 0.72477277076253799 0 0.04408157711937423 0.7728941757575627 0 0.049706944316475897 0.72477277076253799 0 0.1020579365089687 0.69352219419301997 0 0.090953281884486245 0.7564451946902494 0 0.1215415378367805 0.72939333680004137 0 0.090953281884486245 0.7564451946902494 0 0.1020579365089687 0.69352219419301997 0 0.049706944316475897 0.72477277076253799 0 0.046634677244967337 0.671418230738282 0 0.1020579365089687 0.69352219419301997 0 0.1215415378367805 0.72939333680004137 0 0.14335651144331049 0.75565258250209677 0 0.090953281884486245 0.7564451946902494 0 0.086179601630648681 0.64647209519980475 0 0.1020579365089687 0.69352219419301997 0 0.046634677244967337 0.671418230738282 0 0.086179601630648681 0.64647209519980475 0 0.1241190223511371 0.64391885572885044 0 0.1020579365089687 0.69352219419301997 0 0.086179601630648681 0.64647209519980475 0 0.1024350934457823 0.60772393977513839 0 0.1241190223511371 0.64391885572885044 0 0.16500388252850301 0.66612077714085194 0 0.1020579365089687 0.69352219419301997 0 0.1241190223511371 0.64391885572885044 0 0.15720202157091859 0.60665697304410315 0 0.16500388252850301 0.66612077714085194 0 0.1241190223511371 0.64391885572885044 0 0.15720202157091859 0.60665697304410315 0 0.19914261668318661 0.62286739485272158 0 0.16500388252850301 0.66612077714085194 0 0.16500388252850301 0.66612077714085194 0 0.15332765547575641 0.71200081858233666 0 0.1020579365089687 0.69352219419301997 0 0.1215415378367805 0.72939333680004137 0 0.15332765547575641 0.71200081858233666 0 0.14335651144331049 0.75565258250209677 0 0.1215415378367805 0.72939333680004137 0 0.1020579365089687 0.69352219419301997 0 0.15332765547575641 0.71200081858233666 0 0.16500388252850301 0.66612077714085194 0 0.19068556247388771 0.71028988922845504 0 0.15332765547575641 0.71200081858233666 0 0.18269480424590959 0.75905448272264375 0 0.14335651144331049 0.75565258250209677 0 0.15332765547575641 0.71200081858233666 0 0.18269480424590959 0.75905448272264375 0 0.15332765547575641 0.71200081858233666 0 0.19068556247388771 0.71028988922845504 0 0.18269480424590959 0.75905448272264375 0 0.19068556247388771 0.71028988922845504 0 0.2248999640082178 0.72584299459689172 0 0.2236846579037573 0.67380363126050236 0 0.2248999640082178 0.72584299459689172 0 0.19068556247388771 0.71028988922845504 0 0.2236846579037573 0.67380363126050236 0 0.26439878998046262 0.7048065392091396 0 0.2248999640082178 0.72584299459689172 0 0.25676291524611189 0.7436741304886243 0 0.22556077506376701 0.77837424984191617 0 0.2248999640082178 0.72584299459689172 0 0.25676291524611189 0.7436741304886243 0 0.2248999640082178 0.72584299459689172 0 0.26439878998046262 0.7048065392091396 0 0.2236846579037573 0.67380363126050236 0 0.16500388252850301 0.66612077714085194 0 0.19914261668318661 0.62286739485272158 0 0.2236846579037573 0.67380363126050236 0 0.19068556247388771 0.71028988922845504 0 0.16500388252850301 0.66612077714085194 0 0.2236846579037573 0.67380363126050236 0 0.19914261668318661 0.62286739485272158 0 0.2459498854893499 0.63248470766216769 0 0.2236846579037573 0.67380363126050236 0 0.2459498854893499 0.63248470766216769 0 0.27820712747429932 0.65530134213254643 0 0.22549374774072969 0.58452645269293457 0 0.2459498854893499 0.63248470766216769 0 0.19914261668318661 0.62286739485272158 0 0.26573297623774761 0.59828298563722948 0 0.2459498854893499 0.63248470766216769 0 0.22549374774072969 0.58452645269293457 0 0.22549374774072969 0.58452645269293457 0 0.19914261668318661 0.62286739485272158 0 0.18381867841758909 0.57774125163628387 0 0.20050006573841939 0.53248514016039872 0 0.22549374774072969 0.58452645269293457 0 0.18381867841758909 0.57774125163628387 0 0.26573297623774761 0.59828298563722948 0 0.22549374774072969 0.58452645269293457 0 0.25115337790845271 0.54719303014923271 0 0.20050006573841939 0.53248514016039872 0 0.25115337790845271 0.54719303014923271 0 0.22549374774072969 0.58452645269293457 0 0.20050006573841939 0.53248514016039872 0 0.23975172658309729 0.49475499200540818 0 0.25115337790845271 0.54719303014923271 0 0.20050006573841939 0.53248514016039872 0 0.16618607197337229 0.50652878253548905 0 0.19604738184454831 0.47787523520405789 0 0.20050006573841939 0.53248514016039872 0 0.19604738184454831 0.47787523520405789 0 0.23975172658309729 0.49475499200540818 0 0.20050006573841939 0.53248514016039872 0 0.18381867841758909 0.57774125163628387 0 0.14934928745814749 0.55042914607228977 0 0.20050006573841939 0.53248514016039872 0 0.14934928745814749 0.55042914607228977 0 0.16618607197337229 0.50652878253548905 0 0.1216098864341134 0.50637075089503902 0 0.16618607197337229 0.50652878253548905 0 0.14934928745814749 0.55042914607228977 0 0.1154888278694548 0.56733818459978413 0 0.1216098864341134 0.50637075089503902 0 0.14934928745814749 0.55042914607228977 0 0.15720202157091859 0.60665697304410315 0 0.1154888278694548 0.56733818459978413 0 0.14934928745814749 0.55042914607228977 0 0.15720202157091859 0.60665697304410315 0 0.1024350934457823 0.60772393977513839 0 0.1154888278694548 0.56733818459978413 0 0.15720202157091859 0.60665697304410315 0 0.1241190223511371 0.64391885572885044 0 0.1024350934457823 0.60772393977513839 0 0.18381867841758909 0.57774125163628387 0 0.19914261668318661 0.62286739485272158 0 0.15720202157091859 0.60665697304410315 0 0.15720202157091859 0.60665697304410315 0 0.14934928745814749 0.55042914607228977 0 0.18381867841758909 0.57774125163628387 0 0.15000000000062411 1 0 0.10000000000041601 1 0 0.10266856499240549 0.95548163909968886 0 0.083411279318375747 0.91030024466934134 0 0.10266856499240549 0.95548163909968886 0 0.053064897599294662 0.95186845269532028 0 0.050000000000207989 1 0 0.053064897599294662 0.95186845269532028 0 0.10000000000041601 1 0 0.10000000000041601 1 0 0.053064897599294662 0.95186845269532028 0 0.10266856499240549 0.95548163909968886 0 0.050000000000207989 1 0 0.025766224399875661 0.97546711317377799 0 0.053064897599294662 0.95186845269532028 0 0 1 0 0.025766224399875661 0.97546711317377799 0 0.050000000000207989 1 0 0 1 0 0 0.94999999999979179 0 0.025766224399875661 0.97546711317377799 0 0 0.94999999999979179 0 0.053064897599294662 0.95186845269532028 0 0.025766224399875661 0.97546711317377799 0 0 0.94999999999979179 0 0.0443105827531413 0.89858748162559932 0 0.053064897599294662 0.95186845269532028 0 0.083411279318375747 0.91030024466934134 0 0.053064897599294662 0.95186845269532028 0 0.0443105827531413 0.89858748162559932 0 0 0.94999999999979179 0 0 0.89999999999958358 0 0.0443105827531413 0.89858748162559932 0 0 0.89999999999958358 0 0 0.84999999999965292 0 0.0443105827531413 0.89858748162559932 0 0.083411279318375747 0.91030024466934134 0 0.0443105827531413 0.89858748162559932 0 0.065374659239661639 0.8551091961254178 0 0.083411279318375747 0.91030024466934134 0 0.065374659239661639 0.8551091961254178 0 0.10562472963403439 0.87143394428979881 0 0.083411279318375747 0.91030024466934134 0 0.1241151115713819 0.9045666525468371 0 0.10266856499240549 0.95548163909968886 0 0.14617343800780541 0.93808063414349496 0 0.10266856499240549 0.95548163909968886 0 0.1241151115713819 0.9045666525468371 0 0.14474682429600511 0.85524784522713515 0 0.1241151115713819 0.9045666525468371 0 0.10562472963403439 0.87143394428979881 0 0.083411279318375747 0.91030024466934134 0 0.10562472963403439 0.87143394428979881 0 0.1241151115713819 0.9045666525468371 0 0.14474682429600511 0.85524784522713515 0 0.10562472963403439 0.87143394428979881 0 0.1074251789111534 0.83564394292147814 0 0.083105206071452636 0.79992298667296435 0 0.1074251789111534 0.83564394292147814 0 0.065374659239661639 0.8551091961254178 0 0.065374659239661639 0.8551091961254178 0 0.1074251789111534 0.83564394292147814 0 0.10562472963403439 0.87143394428979881 0 0 0.84999999999965292 0 0.038512288486097702 0.8155852717111195 0 0.065374659239661639 0.8551091961254178 0 0 0.84999999999965292 0 0.065374659239661639 0.8551091961254178 0 0.0443105827531413 0.89858748162559932 0 0 0.84999999999965292 0 0 0.79999999999999982 0 0.038512288486097702 0.8155852717111195 0 0.083105206071452636 0.79992298667296435 0 0.065374659239661639 0.8551091961254178 0 0.038512288486097702 0.8155852717111195 0 0.083105206071452636 0.79992298667296435 0 0.038512288486097702 0.8155852717111195 0 0.04408157711937423 0.7728941757575627 0 0 0.79999999999999982 0 0.04408157711937423 0.7728941757575627 0 0.038512288486097702 0.8155852717111195 0 0 0.79999999999999982 0 0 0.75000000000034661 0 0.04408157711937423 0.7728941757575627 0 0.049706944316475897 0.72477277076253799 0 0.090953281884486245 0.7564451946902494 0 0.04408157711937423 0.7728941757575627 0 0.083105206071452636 0.79992298667296435 0 0.04408157711937423 0.7728941757575627 0 0.090953281884486245 0.7564451946902494 0 0.083105206071452636 0.79992298667296435 0 0.1382744753146134 0.79650574229207483 0 0.1074251789111534 0.83564394292147814 0 0.083105206071452636 0.79992298667296435 0 0.090953281884486245 0.7564451946902494 0 0.1382744753146134 0.79650574229207483 0 0.1382744753146134 0.79650574229207483 0 0.090953281884486245 0.7564451946902494 0 0.14335651144331049 0.75565258250209677 0 0.18269480424590959 0.75905448272264375 0 0.1382744753146134 0.79650574229207483 0 0.14335651144331049 0.75565258250209677 0 0.18269480424590959 0.75905448272264375 0 0.17777405986036951 0.81832336108265358 0 0.1382744753146134 0.79650574229207483 0 0.18269480424590959 0.75905448272264375 0 0.2248999640082178 0.72584299459689172 0 0.22556077506376701 0.77837424984191617 0 0.21858834311891909 0.81980263716112767 0 0.22556077506376701 0.77837424984191617 0 0.26104540868854792 0.81401944968719064 0 0.21858834311891909 0.81980263716112767 0 0.17777405986036951 0.81832336108265358 0 0.22556077506376701 0.77837424984191617 0 0.18269480424590959 0.75905448272264375 0 0.22556077506376701 0.77837424984191617 0 0.17777405986036951 0.81832336108265358 0 0.21858834311891909 0.81980263716112767 0 0.19741632902693801 0.86755867406447229 0 0.17777405986036951 0.81832336108265358 0 0.21858834311891909 0.81980263716112767 0 0.26104540868854792 0.81401944968719064 0 0.2401283238295133 0.85648409884788523 0 0.21858834311891909 0.81980263716112767 0 0.2401283238295133 0.85648409884788523 0 0.19741632902693801 0.86755867406447229 0 0.14474682429600511 0.85524784522713515 0 0.17777405986036951 0.81832336108265358 0 0.19741632902693801 0.86755867406447229 0 0.14474682429600511 0.85524784522713515 0 0.19741632902693801 0.86755867406447229 0 0.16206583317966519 0.89685560785156404 0 0.14474682429600511 0.85524784522713515 0 0.1382744753146134 0.79650574229207483 0 0.17777405986036951 0.81832336108265358 0 0.14474682429600511 0.85524784522713515 0 0.1074251789111534 0.83564394292147814 0 0.1382744753146134 0.79650574229207483 0 0.14474682429600511 0.85524784522713515 0 0.16206583317966519 0.89685560785156404 0 0.1241151115713819 0.9045666525468371 0 0.14617343800780541 0.93808063414349496 0 0.1241151115713819 0.9045666525468371 0 0.16206583317966519 0.89685560785156404 0 0.19901705110390991 0.9175543425573498 0 0.14617343800780541 0.93808063414349496 0 0.16206583317966519 0.89685560785156404 0 0.19901705110390991 0.9175543425573498 0 0.16206583317966519 0.89685560785156404 0 0.19741632902693801 0.86755867406447229 0 0.19901705110390991 0.9175543425573498 0 0.19741632902693801 0.86755867406447229 0 0.24536017905392571 0.90704567837671446 0 0.19741632902693801 0.86755867406447229 0 0.2401283238295133 0.85648409884788523 0 0.24536017905392571 0.90704567837671446 0 0.19901705110390991 0.9175543425573498 0 0.24536017905392571 0.90704567837671446 0 0.22850979588452081 0.95594428570238643 0 0.19901705110390991 0.9175543425573498 0 0.22850979588452081 0.95594428570238643 0 0.18474005699953849 0.96231585248064622 0 0.27609987656793722 0.94991445621608572 0 0.22850979588452081 0.95594428570238643 0 0.24536017905392571 0.90704567837671446 0 0.25000000000104028 1 0 0.20000000000083221 1 0 0.22850979588452081 0.95594428570238643 0 0.20000000000083221 1 0 0.18474005699953849 0.96231585248064622 0 0.22850979588452081 0.95594428570238643 0 0.20000000000083221 1 0 0.15000000000062411 1 0 0.18474005699953849 0.96231585248064622 0 0.19901705110390991 0.9175543425573498 0 0.18474005699953849 0.96231585248064622 0 0.14617343800780541 0.93808063414349496 0 0.15000000000062411 1 0 0.14617343800780541 0.93808063414349496 0 0.18474005699953849 0.96231585248064622 0 0.15000000000062411 1 0 0.10266856499240549 0.95548163909968886 0 0.14617343800780541 0.93808063414349496 0 0.35000000000145642 1 0 0.32544832635163229 0.95485394099568932 0 0.36184234618600131 0.96443954459096326 0 0.40000000000166441 1 0 0.35000000000145642 1 0 0.36184234618600131 0.96443954459096326 0 0.35752321586431363 0.9185439911803448 0 0.36184234618600131 0.96443954459096326 0 0.32544832635163229 0.95485394099568932 0 0.35752321586431363 0.9185439911803448 0 0.39641108128798319 0.94356127926187128 0 0.36184234618600131 0.96443954459096326 0 0.35000000000145642 1 0 0.30000000000124832 1 0 0.32544832635163229 0.95485394099568932 0 0.30000000000124832 1 0 0.25000000000104028 1 0 0.27609987656793722 0.94991445621608572 0 0.25000000000104028 1 0 0.22850979588452081 0.95594428570238643 0 0.27609987656793722 0.94991445621608572 0 0.30000000000124832 1 0 0.27609987656793722 0.94991445621608572 0 0.32544832635163229 0.95485394099568932 0 0.27609987656793722 0.94991445621608572 0 0.30864387279288652 0.89906554525974958 0 0.32544832635163229 0.95485394099568932 0 0.27270076654418179 0.87751467830216623 0 0.30864387279288652 0.89906554525974958 0 0.24536017905392571 0.90704567837671446 0 0.27609987656793722 0.94991445621608572 0 0.24536017905392571 0.90704567837671446 0 0.30864387279288652 0.89906554525974958 0 0.27270076654418179 0.87751467830216623 0 0.24536017905392571 0.90704567837671446 0 0.2401283238295133 0.85648409884788523 0 0.35752321586431363 0.9185439911803448 0 0.30864387279288652 0.89906554525974958 0 0.35864759629805099 0.87963482415279515 0 0.35752321586431363 0.9185439911803448 0 0.32544832635163229 0.95485394099568932 0 0.30864387279288652 0.89906554525974958 0 0.35752321586431363 0.9185439911803448 0 0.35864759629805099 0.87963482415279515 0 0.39767323751400468 0.89584229130535065 0 0.35864759629805099 0.87963482415279515 0 0.33403534827021109 0.84402799729020661 0 0.39536230704883951 0.84069429572832477 0 0.33403534827021109 0.84402799729020661 0 0.35642984951668422 0.80994399665655703 0 0.39536230704883951 0.84069429572832477 0 0.33403534827021109 0.84402799729020661 0 0.30857225866488791 0.81101973481716805 0 0.35642984951668422 0.80994399665655703 0 0.33403534827021109 0.84402799729020661 0 0.35864759629805099 0.87963482415279515 0 0.30864387279288652 0.89906554525974958 0 0.33403534827021109 0.84402799729020661 0 0.30864387279288652 0.89906554525974958 0 0.29209212897034281 0.84715728365233667 0 0.27270076654418179 0.87751467830216623 0 0.29209212897034281 0.84715728365233667 0 0.30864387279288652 0.89906554525974958 0 0.27270076654418179 0.87751467830216623 0 0.2401283238295133 0.85648409884788523 0 0.29209212897034281 0.84715728365233667 0 0.26104540868854792 0.81401944968719064 0 0.29209212897034281 0.84715728365233667 0 0.2401283238295133 0.85648409884788523 0 0.26104540868854792 0.81401944968719064 0 0.30857225866488791 0.81101973481716805 0 0.29209212897034281 0.84715728365233667 0 0.33403534827021109 0.84402799729020661 0 0.29209212897034281 0.84715728365233667 0 0.30857225866488791 0.81101973481716805 0 0.26104540868854792 0.81401944968719064 0 0.2792923945214143 0.77665808831789485 0 0.30857225866488791 0.81101973481716805 0 0.33123028043633618 0.77629643437932982 0 0.30857225866488791 0.81101973481716805 0 0.2792923945214143 0.77665808831789485 0 0.26104540868854792 0.81401944968719064 0 0.22556077506376701 0.77837424984191617 0 0.2792923945214143 0.77665808831789485 0 0.25676291524611189 0.7436741304886243 0 0.29904318922293632 0.74132814928635593 0 0.2792923945214143 0.77665808831789485 0 0.25676291524611189 0.7436741304886243 0 0.2792923945214143 0.77665808831789485 0 0.22556077506376701 0.77837424984191617 0 0.33123028043633618 0.77629643437932982 0 0.2792923945214143 0.77665808831789485 0 0.29904318922293632 0.74132814928635593 0 0.33123028043633618 0.77629643437932982 0 0.29904318922293632 0.74132814928635593 0 0.35415581127540569 0.73730480045900215 0 0.33123028043633618 0.77629643437932982 0 0.35642984951668422 0.80994399665655703 0 0.30857225866488791 0.81101973481716805 0 0.33123028043633618 0.77629643437932982 0 0.38586766253264881 0.78219501014812498 0 0.35642984951668422 0.80994399665655703 0 0.33123028043633618 0.77629643437932982 0 0.35415581127540569 0.73730480045900215 0 0.38586766253264881 0.78219501014812498 0 0.40326160981139969 0.73346192995102844 0 0.42676259796334498 0.76772545931379299 0 0.38586766253264881 0.78219501014812498 0 0.40326160981139969 0.73346192995102844 0 0.38586766253264881 0.78219501014812498 0 0.35415581127540569 0.73730480045900215 0 0.39536230704883951 0.84069429572832477 0 0.38586766253264881 0.78219501014812498 0 0.42609163930740518 0.80361684430568059 0 0.39536230704883951 0.84069429572832477 0 0.35642984951668422 0.80994399665655703 0 0.38586766253264881 0.78219501014812498 0 0.38586766253264881 0.78219501014812498 0 0.42676259796334498 0.76772545931379299 0 0.42609163930740518 0.80361684430568059 0 0.4656888918609538 0.78493261229743638 0 0.42676259796334498 0.76772545931379299 0 0.45582236402875981 0.73896743678908217 0 0.4656888918609538 0.78493261229743638 0 0.45582236402875981 0.73896743678908217 0 0.50945740445113552 0.75476055527778108 0 0.4656888918609538 0.78493261229743638 0 0.50945740445113552 0.75476055527778108 0 0.50731287292894423 0.78963574450233831 0 0.4656888918609538 0.78493261229743638 0 0.50731287292894423 0.78963574450233831 0 0.50627822638148745 0.8263979829520941 0 0.4656888918609538 0.78493261229743638 0 0.45677673713123867 0.84253684404072415 0 0.42609163930740518 0.80361684430568059 0 0.4656888918609538 0.78493261229743638 0 0.42609163930740518 0.80361684430568059 0 0.42676259796334498 0.76772545931379299 0 0.4656888918609538 0.78493261229743638 0 0.50627822638148745 0.8263979829520941 0 0.45677673713123867 0.84253684404072415 0 0.50202631463681879 0.87892870825713787 0 0.45677673713123867 0.84253684404072415 0 0.50627822638148745 0.8263979829520941 0 0.50202631463681879 0.87892870825713787 0 0.44003836461056539 0.88093474584252718 0 0.45677673713123867 0.84253684404072415 0 0.39536230704883951 0.84069429572832477 0 0.45677673713123867 0.84253684404072415 0 0.44003836461056539 0.88093474584252718 0 0.39536230704883951 0.84069429572832477 0 0.44003836461056539 0.88093474584252718 0 0.39767323751400468 0.89584229130535065 0 0.39536230704883951 0.84069429572832477 0 0.42609163930740518 0.80361684430568059 0 0.45677673713123867 0.84253684404072415 0 0.39536230704883951 0.84069429572832477 0 0.39767323751400468 0.89584229130535065 0 0.35864759629805099 0.87963482415279515 0 0.35752321586431363 0.9185439911803448 0 0.39767323751400468 0.89584229130535065 0 0.39641108128798319 0.94356127926187128 0 0.4367309254023824 0.92065556789053882 0 0.39641108128798319 0.94356127926187128 0 0.39767323751400468 0.89584229130535065 0 0.4367309254023824 0.92065556789053882 0 0.39767323751400468 0.89584229130535065 0 0.44003836461056539 0.88093474584252718 0 0.4367309254023824 0.92065556789053882 0 0.44003836461056539 0.88093474584252718 0 0.47401147028110507 0.91529957330468115 0 0.50202631463681879 0.87892870825713787 0 0.47401147028110507 0.91529957330468115 0 0.44003836461056539 0.88093474584252718 0 0.52122150208832174 0.94089974453840242 0 0.47135117303824892 0.95556877749289892 0 0.47401147028110507 0.91529957330468115 0 0.50202631463681879 0.87892870825713787 0 0.52122150208832174 0.94089974453840242 0 0.47401147028110507 0.91529957330468115 0 0.4367309254023824 0.92065556789053882 0 0.47401147028110507 0.91529957330468115 0 0.47135117303824892 0.95556877749289892 0 0.4367309254023824 0.92065556789053882 0 0.47135117303824892 0.95556877749289892 0 0.4308986359464303 0.96395712492906194 0 0.50000000000205869 1 0 0.47135117303824892 0.95556877749289892 0 0.52122150208832174 0.94089974453840242 0 0.50000000000205869 1 0 0.45000000000187229 1 0 0.47135117303824892 0.95556877749289892 0 0.45000000000187229 1 0 0.4308986359464303 0.96395712492906194 0 0.47135117303824892 0.95556877749289892 0 0.45000000000187229 1 0 0.40000000000166441 1 0 0.4308986359464303 0.96395712492906194 0 0.40000000000166441 1 0 0.39641108128798319 0.94356127926187128 0 0.4308986359464303 0.96395712492906194 0 0.4367309254023824 0.92065556789053882 0 0.4308986359464303 0.96395712492906194 0 0.39641108128798319 0.94356127926187128 0 0.40000000000166441 1 0 0.36184234618600131 0.96443954459096326 0 0.39641108128798319 0.94356127926187128 0 0.33122374654748771 0.57588941099433744 0 0.35765792684946668 0.6000687869219653 0 0.31502927232353312 0.6134992213375432 0 0.35864735590330371 0.63903383440414463 0 0.31502927232353312 0.6134992213375432 0 0.35765792684946668 0.6000687869219653 0 0.35864735590330371 0.63903383440414463 0 0.35765792684946668 0.6000687869219653 0 0.39743091024207589 0.6239520004230239 0 0.33122374654748771 0.57588941099433744 0 0.37272913873093971 0.56192925302619479 0 0.35765792684946668 0.6000687869219653 0 0.38244435121258652 0.51653317813019495 0 0.37272913873093971 0.56192925302619479 0 0.33190227185843768 0.52715113583864037 0 0.33122374654748771 0.57588941099433744 0 0.33190227185843768 0.52715113583864037 0 0.37272913873093971 0.56192925302619479 0 0.38244435121258652 0.51653317813019495 0 0.33190227185843768 0.52715113583864037 0 0.35024835142131061 0.48654922671676981 0 0.33122374654748771 0.57588941099433744 0 0.29110487519241501 0.56588143995431495 0 0.33190227185843768 0.52715113583864037 0 0.28307294598219601 0.50789252727458634 0 0.33190227185843768 0.52715113583864037 0 0.29110487519241501 0.56588143995431495 0 0.31068898841644388 0.47541502461811092 0 0.33190227185843768 0.52715113583864037 0 0.28307294598219601 0.50789252727458634 0 0.28307294598219601 0.50789252727458634 0 0.25115337790845271 0.54719303014923271 0 0.23975172658309729 0.49475499200540818 0 0.28307294598219601 0.50789252727458634 0 0.29110487519241501 0.56588143995431495 0 0.25115337790845271 0.54719303014923271 0 0.26573297623774761 0.59828298563722948 0 0.25115337790845271 0.54719303014923271 0 0.29110487519241501 0.56588143995431495 0 0.33122374654748771 0.57588941099433744 0 0.31502927232353312 0.6134992213375432 0 0.29110487519241501 0.56588143995431495 0 0.26573297623774761 0.59828298563722948 0 0.29110487519241501 0.56588143995431495 0 0.31502927232353312 0.6134992213375432 0 0.26573297623774761 0.59828298563722948 0 0.31502927232353312 0.6134992213375432 0 0.27820712747429932 0.65530134213254643 0 0.26573297623774761 0.59828298563722948 0 0.27820712747429932 0.65530134213254643 0 0.2459498854893499 0.63248470766216769 0 0.2236846579037573 0.67380363126050236 0 0.27820712747429932 0.65530134213254643 0 0.26439878998046262 0.7048065392091396 0 0.31378396441836959 0.70157213313026345 0 0.27820712747429932 0.65530134213254643 0 0.32263089806001177 0.66003674931826484 0 0.31378396441836959 0.70157213313026345 0 0.26439878998046262 0.7048065392091396 0 0.27820712747429932 0.65530134213254643 0 0.27820712747429932 0.65530134213254643 0 0.31502927232353312 0.6134992213375432 0 0.32263089806001177 0.66003674931826484 0 0.25676291524611189 0.7436741304886243 0 0.26439878998046262 0.7048065392091396 0 0.29904318922293632 0.74132814928635593 0 0.31378396441836959 0.70157213313026345 0 0.29904318922293632 0.74132814928635593 0 0.26439878998046262 0.7048065392091396 0 0.31378396441836959 0.70157213313026345 0 0.35415581127540569 0.73730480045900215 0 0.29904318922293632 0.74132814928635593 0 0.31378396441836959 0.70157213313026345 0 0.36622285152418499 0.69092437780804039 0 0.35415581127540569 0.73730480045900215 0 0.40326160981139969 0.73346192995102844 0 0.35415581127540569 0.73730480045900215 0 0.36622285152418499 0.69092437780804039 0 0.35864735590330371 0.63903383440414463 0 0.32263089806001177 0.66003674931826484 0 0.31502927232353312 0.6134992213375432 0 0.31378396441836959 0.70157213313026345 0 0.32263089806001177 0.66003674931826484 0 0.36622285152418499 0.69092437780804039 0 0.35864735590330371 0.63903383440414463 0 0.36622285152418499 0.69092437780804039 0 0.32263089806001177 0.66003674931826484 0 0.35864735590330371 0.63903383440414463 0 0.3977710372045391 0.65868194622830212 0 0.36622285152418499 0.69092437780804039 0 0.35864735590330371 0.63903383440414463 0 0.39743091024207589 0.6239520004230239 0 0.3977710372045391 0.65868194622830212 0 0.36622285152418499 0.69092437780804039 0 0.3977710372045391 0.65868194622830212 0 0.43323420005758778 0.6913544522562407 0 0.43846182030517877 0.64845797726506715 0 0.43323420005758778 0.6913544522562407 0 0.3977710372045391 0.65868194622830212 0 0.43846182030517877 0.64845797726506715 0 0.39743091024207589 0.6239520004230239 0 0.43545892161006339 0.61093128915313821 0 0.43846182030517877 0.64845797726506715 0 0.3977710372045391 0.65868194622830212 0 0.39743091024207589 0.6239520004230239 0 0.40326160981139969 0.73346192995102844 0 0.36622285152418499 0.69092437780804039 0 0.43323420005758778 0.6913544522562407 0 0.40326160981139969 0.73346192995102844 0 0.43323420005758778 0.6913544522562407 0 0.45582236402875981 0.73896743678908217 0 0.40326160981139969 0.73346192995102844 0 0.45582236402875981 0.73896743678908217 0 0.42676259796334498 0.76772545931379299 0 0.5 0.69999999999999996 0 0.45582236402875981 0.73896743678908217 0 0.43323420005758778 0.6913544522562407 0 0.5 0.69999999999999996 0 0.50945740445113552 0.75476055527778108 0 0.45582236402875981 0.73896743678908217 0 0.5 0.69999999999999996 0 0.43323420005758778 0.6913544522562407 0 0.47913475093885149 0.66010775372412711 0 0.43846182030517877 0.64845797726506715 0 0.47095389620662098 0.61892551373708504 0 0.47913475093885149 0.66010775372412711 0 0.43846182030517877 0.64845797726506715 0 0.43545892161006339 0.61093128915313821 0 0.47095389620662098 0.61892551373708504 0 0.43846182030517877 0.64845797726506715 0 0.47913475093885149 0.66010775372412711 0 0.43323420005758778 0.6913544522562407 0 0.50715858906372158 0.63295939104129484 0 0.47913475093885149 0.66010775372412711 0 0.47095389620662098 0.61892551373708504 0 0.50715858906372158 0.63295939104129484 0 0.47095389620662098 0.61892551373708504 0 0.5166924242153631 0.59825134841919447 0 0.46666084890304671 0.57634471035397938 0 0.5166924242153631 0.59825134841919447 0 0.47095389620662098 0.61892551373708504 0 0.46666084890304671 0.57634471035397938 0 0.47095389620662098 0.61892551373708504 0 0.43545892161006339 0.61093128915313821 0 0.4089290844030305 0.58728915500154233 0 0.43545892161006339 0.61093128915313821 0 0.39743091024207589 0.6239520004230239 0 0.43545892161006339 0.61093128915313821 0 0.4089290844030305 0.58728915500154233 0 0.46666084890304671 0.57634471035397938 0 0.4089290844030305 0.58728915500154233 0 0.42644501560315817 0.54603747078095544 0 0.46666084890304671 0.57634471035397938 0 0.4089290844030305 0.58728915500154233 0 0.37272913873093971 0.56192925302619479 0 0.42644501560315817 0.54603747078095544 0 0.4089290844030305 0.58728915500154233 0 0.35765792684946668 0.6000687869219653 0 0.37272913873093971 0.56192925302619479 0 0.4089290844030305 0.58728915500154233 0 0.39743091024207589 0.6239520004230239 0 0.35765792684946668 0.6000687869219653 0 0.38244435121258652 0.51653317813019495 0 0.42644501560315817 0.54603747078095544 0 0.37272913873093971 0.56192925302619479 0 0.38244435121258652 0.51653317813019495 0 0.43507373378304309 0.49699695397193322 0 0.42644501560315817 0.54603747078095544 0 0.46666084890304671 0.57634471035397938 0 0.47793794143994173 0.52940715638744962 0 0.53245488764484505 0.55078124999999989 0 0.49102375406324739 0.49123754822244059 0 0.47793794143994173 0.52940715638744962 0 0.43507373378304309 0.49699695397193322 0 0.43507373378304309 0.49699695397193322 0 0.47793794143994173 0.52940715638744962 0 0.42644501560315817 0.54603747078095544 0 0.46666084890304671 0.57634471035397938 0 0.42644501560315817 0.54603747078095544 0 0.47793794143994173 0.52940715638744962 0 0.49102375406324739 0.49123754822244059 0 0.53330375813596242 0.50827942741749099 0 0.47793794143994173 0.52940715638744962 0 0.53245488764484505 0.55078124999999989 0 0.47793794143994173 0.52940715638744962 0 0.53330375813596242 0.50827942741749099 0 0.53245488764484505 0.55078124999999989 0 0.53330375813596242 0.50827942741749099 0 0.57435499076887508 0.54267261987897775 0 0.57412547362576272 0.58273804879550706 0 0.53245488764484505 0.55078124999999989 0 0.57435499076887508 0.54267261987897775 0 0.57611405284611883 0.50165903596042916 0 0.57435499076887508 0.54267261987897775 0 0.53330375813596242 0.50827942741749099 0 0.57611405284611883 0.50165903596042916 0 0.62042975506801734 0.54295974692364424 0 0.57435499076887508 0.54267261987897775 0 0.57412547362576272 0.58273804879550706 0 0.57435499076887508 0.54267261987897775 0 0.62042975506801734 0.54295974692364424 0 0.57611405284611883 0.50165903596042916 0 0.61547661924074692 0.48539576058873962 0 0.62042975506801734 0.54295974692364424 0 0.6405463747586706 0.63290524857395714 0 0.5991018319127801 0.62925360607495295 0 0.63065402604362242 0.59661356661633302 0 0.57412547362576272 0.58273804879550706 0 0.63065402604362242 0.59661356661633302 0 0.5991018319127801 0.62925360607495295 0 0.57412547362576272 0.58273804879550706 0 0.62042975506801734 0.54295974692364424 0 0.63065402604362242 0.59661356661633302 0 0.57412547362576272 0.58273804879550706 0 0.5991018319127801 0.62925360607495295 0 0.5498280205245758 0.6290146943450976 0 0.46666084890304671 0.57634471035397938 0 0.53245488764484505 0.55078124999999989 0 0.5166924242153631 0.59825134841919447 0 0.57412547362576272 0.58273804879550706 0 0.5498280205245758 0.6290146943450976 0 0.5166924242153631 0.59825134841919447 0 0.57412547362576272 0.58273804879550706 0 0.5166924242153631 0.59825134841919447 0 0.53245488764484505 0.55078124999999989 0 0.50715858906372158 0.63295939104129484 0 0.5166924242153631 0.59825134841919447 0 0.5498280205245758 0.6290146943450976 0 0.50715858906372158 0.63295939104129484 0 0.52584555706968406 0.66664215091846768 0 0.47913475093885149 0.66010775372412711 0 0.50715858906372158 0.63295939104129484 0 0.5498280205245758 0.6290146943450976 0 0.52584555706968406 0.66664215091846768 0 0.5 0.69999999999999996 0 0.47913475093885149 0.66010775372412711 0 0.52584555706968406 0.66664215091846768 0 0.54999999999999993 0.69999999999999996 0 0.52584555706968406 0.66664215091846768 0 0.57484956128872922 0.66573805030881994 0 0.57484956128872922 0.66573805030881994 0 0.52584555706968406 0.66664215091846768 0 0.5498280205245758 0.6290146943450976 0 0.50945740445113552 0.75476055527778108 0 0.5 0.69999999999999996 0 0.55363780716230748 0.74348740161571747 0 0.5 0.69999999999999996 0 0.52584555706968406 0.66664215091846768 0 0.54999999999999993 0.69999999999999996 0 0.5 0.69999999999999996 0 0.54999999999999993 0.69999999999999996 0 0.5 0.69999999999999996 0 0.54999999999999993 0.69999999999999996 0 0.55363780716230748 0.74348740161571747 0 0.59999999999999976 0.69999999999999996 0 0.59636844454254345 0.75937156204589151 0 0.55363780716230748 0.74348740161571747 0 0.54999999999999993 0.69999999999999996 0 0.59999999999999976 0.69999999999999996 0 0.54999999999999993 0.69999999999999996 0 0.57484956128872922 0.66573805030881994 0 0.59999999999999976 0.69999999999999996 0 0.54999999999999993 0.69999999999999996 0 0.59999999999999976 0.69999999999999996 0 0.55363780716230748 0.74348740161571747 0 0.59999999999999976 0.69999999999999996 0 0.6499999999999998 0.69999999999999996 0 0.59999999999999976 0.69999999999999996 0 0.62460753523532009 0.66851202781000296 0 0.6499999999999998 0.69999999999999996 0 0.59999999999999976 0.69999999999999996 0 0.63221990677827677 0.73442891067859706 0 0.59636844454254345 0.75937156204589151 0 0.57484956128872922 0.66573805030881994 0 0.5498280205245758 0.6290146943450976 0 0.5991018319127801 0.62925360607495295 0 0.59999999999999976 0.69999999999999996 0 0.57484956128872922 0.66573805030881994 0 0.62460753523532009 0.66851202781000296 0 0.57484956128872922 0.66573805030881994 0 0.5991018319127801 0.62925360607495295 0 0.62460753523532009 0.66851202781000296 0 0.6405463747586706 0.63290524857395714 0 0.62460753523532009 0.66851202781000296 0 0.5991018319127801 0.62925360607495295 0 0.6405463747586706 0.63290524857395714 0 0.675261390228442 0.65996937624687813 0 0.62460753523532009 0.66851202781000296 0 0.6499999999999998 0.69999999999999996 0 0.62460753523532009 0.66851202781000296 0 0.675261390228442 0.65996937624687813 0 0.6499999999999998 0.69999999999999996 0 0.675261390228442 0.65996937624687813 0 0.69999999999999984 0.69999999999999996 0 0.6405463747586706 0.63290524857395714 0 0.67529834988829951 0.61613270668143583 0 0.675261390228442 0.65996937624687813 0 0.64753070846764316 0.77332939069435502 0 0.63221990677827677 0.73442891067859706 0 0.66427993341343905 0.73232764502436276 0 0.6499999999999998 0.69999999999999996 0 0.66427993341343905 0.73232764502436276 0 0.63221990677827677 0.73442891067859706 0 0.59999999999999976 0.69999999999999996 0 0.6499999999999998 0.69999999999999996 0 0.63221990677827677 0.73442891067859706 0 0.6499999999999998 0.69999999999999996 0 0.69999999999999984 0.69999999999999996 0 0.6499999999999998 0.69999999999999996 0 0.69999999999999984 0.69999999999999996 0 0.66427993341343905 0.73232764502436276 0 0.69999999999999984 0.69999999999999996 0 0.6916490518212759 0.75387992374886192 0 0.66427993341343905 0.73232764502436276 0 0.69999999999999984 0.69999999999999996 0 0.72501250972655151 0.74067302935308721 0 0.6916490518212759 0.75387992374886192 0 0.69999999999999984 0.69999999999999996 0 0.74999999999999989 0.69999999999999996 0 0.72501250972655151 0.74067302935308721 0 0.69999999999999984 0.69999999999999996 0 0.72500000000000064 0.67022701834392062 0 0.74999999999999989 0.69999999999999996 0 0.69999999999999984 0.69999999999999996 0 0.74999999999999989 0.69999999999999996 0 0.74999999999999989 0.69999999999999996 0 0.75841349681148107 0.75422312624214749 0 0.72501250972655151 0.74067302935308721 0 0.71406021706547751 0.63292083137662503 0 0.72500000000000064 0.67022701834392062 0 0.675261390228442 0.65996937624687813 0 0.71406021706547751 0.63292083137662503 0 0.675261390228442 0.65996937624687813 0 0.67529834988829951 0.61613270668143583 0 0.69999999999999984 0.69999999999999996 0 0.675261390228442 0.65996937624687813 0 0.72500000000000064 0.67022701834392062 0 0.71406021706547751 0.63292083137662503 0 0.74994237037456724 0.62775548192980357 0 0.72500000000000064 0.67022701834392062 0 0.7750489929959945 0.66593931409600093 0 0.72500000000000064 0.67022701834392062 0 0.74994237037456724 0.62775548192980357 0 0.71406021706547751 0.63292083137662503 0 0.71809016091162536 0.58185040402320831 0 0.74994237037456724 0.62775548192980357 0 0.77293540622714185 0.59448302402785813 0 0.74994237037456724 0.62775548192980357 0 0.71809016091162536 0.58185040402320831 0 0.71406021706547751 0.63292083137662503 0 0.67529834988829951 0.61613270668143583 0 0.71809016091162536 0.58185040402320831 0 0.67323294229744413 0.57556450033612505 0 0.67569444444444449 0.53500863336860327 0 0.71809016091162536 0.58185040402320831 0 0.67323294229744413 0.57556450033612505 0 0.71809016091162536 0.58185040402320831 0 0.67529834988829951 0.61613270668143583 0 0.7152569930854884 0.5237994455134295 0 0.77151014687832564 0.54436834383023036 0 0.71809016091162536 0.58185040402320831 0 0.7152569930854884 0.5237994455134295 0 0.73947346780852752 0.49062440112282169 0 0.77151014687832564 0.54436834383023036 0 0.7152569930854884 0.5237994455134295 0 0.67569444444444449 0.53500863336860327 0 0.69385896817107129 0.48377516041410151 0 0.7152569930854884 0.5237994455134295 0 0.71809016091162536 0.58185040402320831 0 0.67569444444444449 0.53500863336860327 0 0.67323294229744413 0.57556450033612505 0 0.62042975506801734 0.54295974692364424 0 0.67569444444444449 0.53500863336860327 0 0.6541250972820879 0.49999999999999989 0 0.69385896817107129 0.48377516041410151 0 0.67569444444444449 0.53500863336860327 0 0.6541250972820879 0.49999999999999989 0 0.67569444444444449 0.53500863336860327 0 0.62042975506801734 0.54295974692364424 0 0.6541250972820879 0.49999999999999989 0 0.62042975506801734 0.54295974692364424 0 0.61547661924074692 0.48539576058873962 0 0.67323294229744413 0.57556450033612505 0 0.63065402604362242 0.59661356661633302 0 0.62042975506801734 0.54295974692364424 0 0.6405463747586706 0.63290524857395714 0 0.63065402604362242 0.59661356661633302 0 0.67529834988829951 0.61613270668143583 0 0.67323294229744413 0.57556450033612505 0 0.67529834988829951 0.61613270668143583 0 0.63065402604362242 0.59661356661633302 0 0.60000000000138687 1 0 0.57382506491224949 0.9629411906298494 0 0.62065498684670595 0.95224934003983619 0 0.65000000000104008 1 0 0.60000000000138687 1 0 0.62065498684670595 0.95224934003983619 0 0.57724883562309992 0.92155686857100794 0 0.62065498684670595 0.95224934003983619 0 0.57382506491224949 0.9629411906298494 0 0.60000000000138687 1 0 0.55000000000173355 1 0 0.57382506491224949 0.9629411906298494 0 0.55000000000173355 1 0 0.50000000000205869 1 0 0.52122150208832174 0.94089974453840242 0 0.57724883562309992 0.92155686857100794 0 0.57382506491224949 0.9629411906298494 0 0.52122150208832174 0.94089974453840242 0 0.55000000000173355 1 0 0.52122150208832174 0.94089974453840242 0 0.57382506491224949 0.9629411906298494 0 0.57724883562309992 0.92155686857100794 0 0.52122150208832174 0.94089974453840242 0 0.54783390826260769 0.89287767010860219 0 0.50202631463681879 0.87892870825713787 0 0.54783390826260769 0.89287767010860219 0 0.52122150208832174 0.94089974453840242 0 0.55899371797446828 0.85003102233514438 0 0.5832743223239254 0.88483152652961872 0 0.54783390826260769 0.89287767010860219 0 0.57724883562309992 0.92155686857100794 0 0.54783390826260769 0.89287767010860219 0 0.5832743223239254 0.88483152652961872 0 0.57724883562309992 0.92155686857100794 0 0.5832743223239254 0.88483152652961872 0 0.61885627562261258 0.90282959257498208 0 0.57724883562309992 0.92155686857100794 0 0.61885627562261258 0.90282959257498208 0 0.62065498684670595 0.95224934003983619 0 0.61343887413683884 0.856862479058357 0 0.61885627562261258 0.90282959257498208 0 0.5832743223239254 0.88483152652961872 0 0.61343887413683884 0.856862479058357 0 0.60294066490120068 0.80851322453934582 0 0.65005442820240822 0.82644988530054031 0 0.61343887413683884 0.856862479058357 0 0.55899371797446828 0.85003102233514438 0 0.60294066490120068 0.80851322453934582 0 0.54782696902220018 0.79245182748204157 0 0.60294066490120068 0.80851322453934582 0 0.55899371797446828 0.85003102233514438 0 0.61343887413683884 0.856862479058357 0 0.5832743223239254 0.88483152652961872 0 0.55899371797446828 0.85003102233514438 0 0.50202631463681879 0.87892870825713787 0 0.55899371797446828 0.85003102233514438 0 0.54783390826260769 0.89287767010860219 0 0.50202631463681879 0.87892870825713787 0 0.50627822638148745 0.8263979829520941 0 0.55899371797446828 0.85003102233514438 0 0.54782696902220018 0.79245182748204157 0 0.55899371797446828 0.85003102233514438 0 0.50627822638148745 0.8263979829520941 0 0.54782696902220018 0.79245182748204157 0 0.50627822638148745 0.8263979829520941 0 0.50731287292894423 0.78963574450233831 0 0.54782696902220018 0.79245182748204157 0 0.50731287292894423 0.78963574450233831 0 0.50945740445113552 0.75476055527778108 0 0.54782696902220018 0.79245182748204157 0 0.50945740445113552 0.75476055527778108 0 0.55363780716230748 0.74348740161571747 0 0.54782696902220018 0.79245182748204157 0 0.55363780716230748 0.74348740161571747 0 0.59636844454254345 0.75937156204589151 0 0.54782696902220018 0.79245182748204157 0 0.59636844454254345 0.75937156204589151 0 0.60294066490120068 0.80851322453934582 0 0.64753070846764316 0.77332939069435502 0 0.60294066490120068 0.80851322453934582 0 0.59636844454254345 0.75937156204589151 0 0.64753070846764316 0.77332939069435502 0 0.59636844454254345 0.75937156204589151 0 0.63221990677827677 0.73442891067859706 0 0.64753070846764316 0.77332939069435502 0 0.65005442820240822 0.82644988530054031 0 0.60294066490120068 0.80851322453934582 0 0.64753070846764316 0.77332939069435502 0 0.68024162096458085 0.79868546898116533 0 0.65005442820240822 0.82644988530054031 0 0.64753070846764316 0.77332939069435502 0 0.6916490518212759 0.75387992374886192 0 0.68024162096458085 0.79868546898116533 0 0.64753070846764316 0.77332939069435502 0 0.66427993341343905 0.73232764502436276 0 0.6916490518212759 0.75387992374886192 0 0.6916490518212759 0.75387992374886192 0 0.72501250972655151 0.74067302935308721 0 0.72500000000000064 0.7952620967744265 0 0.72501250972655151 0.74067302935308721 0 0.75841349681148107 0.75422312624214749 0 0.72500000000000064 0.7952620967744265 0 0.72500000000000064 0.7952620967744265 0 0.68024162096458085 0.79868546898116533 0 0.6916490518212759 0.75387992374886192 0 0.72500000000000064 0.7952620967744265 0 0.68697391633157634 0.84450604838764298 0 0.68024162096458085 0.79868546898116533 0 0.72500000000000064 0.7952620967744265 0 0.72863726579783861 0.85390518901155588 0 0.68697391633157634 0.84450604838764298 0 0.72500000000000064 0.7952620967744265 0 0.76901770135486491 0.84293557325473656 0 0.72863726579783861 0.85390518901155588 0 0.7250000000005199 0.89375000000045834 0 0.68697391633157634 0.84450604838764298 0 0.72863726579783861 0.85390518901155588 0 0.7250000000005199 0.89375000000045834 0 0.66412543161245952 0.88015090885499059 0 0.68697391633157634 0.84450604838764298 0 0.68697391633157634 0.84450604838764298 0 0.66412543161245952 0.88015090885499059 0 0.65005442820240822 0.82644988530054031 0 0.68697391633157634 0.84450604838764298 0 0.65005442820240822 0.82644988530054031 0 0.68024162096458085 0.79868546898116533 0 0.61343887413683884 0.856862479058357 0 0.65005442820240822 0.82644988530054031 0 0.66412543161245952 0.88015090885499059 0 0.61343887413683884 0.856862479058357 0 0.66412543161245952 0.88015090885499059 0 0.61885627562261258 0.90282959257498208 0 0.65507451745379841 0.92229208810758578 0 0.61885627562261258 0.90282959257498208 0 0.66412543161245952 0.88015090885499059 0 0.65507451745379841 0.92229208810758578 0 0.62065498684670595 0.95224934003983619 0 0.61885627562261258 0.90282959257498208 0 0.65507451745379841 0.92229208810758578 0 0.68987011941058407 0.92105047536677087 0 0.68015064798562208 0.95924320340003011 0 0.65507451745379841 0.92229208810758578 0 0.66412543161245952 0.88015090885499059 0 0.68987011941058407 0.92105047536677087 0 0.7250000000005199 0.89375000000045834 0 0.68987011941058407 0.92105047536677087 0 0.66412543161245952 0.88015090885499059 0 0.7250000000005199 0.89375000000045834 0 0.72863726579783861 0.85390518901155588 0 0.76891166905518427 0.88835469571185499 0 0.7250000000005199 0.89375000000045834 0 0.75729602384198635 0.92353652857884294 0 0.7250000000005199 0.94981617647078953 0 0.7250000000005199 0.89375000000045834 0 0.7250000000005199 0.94981617647078953 0 0.68987011941058407 0.92105047536677087 0 0.7250000000005199 0.94981617647078953 0 0.68015064798562208 0.95924320340003011 0 0.68987011941058407 0.92105047536677087 0 0.75000000000034661 1 0 0.7000000000006934 1 0 0.7250000000005199 0.94981617647078953 0 0.75000000000034661 1 0 0.7250000000005199 0.94981617647078953 0 0.770759834363826 0.95919399014344442 0 0.7000000000006934 1 0 0.68015064798562208 0.95924320340003011 0 0.7250000000005199 0.94981617647078953 0 0.7000000000006934 1 0 0.65000000000104008 1 0 0.68015064798562208 0.95924320340003011 0 0.65507451745379841 0.92229208810758578 0 0.68015064798562208 0.95924320340003011 0 0.62065498684670595 0.95224934003983619 0 0.65000000000104008 1 0 0.62065498684670595 0.95224934003983619 0 0.68015064798562208 0.95924320340003011 0 0.84999999999965292 1 0 0.85170973911348691 0.93569607295217616 0 0.89898474358632463 0.95391965591118966 0 0.84999999999965292 1 0 0.81486180804382891 0.96321394949790495 0 0.85170973911348691 0.93569607295217616 0 0.79680861578988083 0.92656778056766709 0 0.85170973911348691 0.93569607295217616 0 0.81486180804382891 0.96321394949790495 0 0.84999999999965292 1 0 0.79999999999999982 1 0 0.81486180804382891 0.96321394949790495 0 0.79999999999999982 1 0 0.770759834363826 0.95919399014344442 0 0.81486180804382891 0.96321394949790495 0 0.79999999999999982 1 0 0.75000000000034661 1 0 0.770759834363826 0.95919399014344442 0 0.7250000000005199 0.94981617647078953 0 0.75729602384198635 0.92353652857884294 0 0.770759834363826 0.95919399014344442 0 0.79680861578988083 0.92656778056766709 0 0.81486180804382891 0.96321394949790495 0 0.770759834363826 0.95919399014344442 0 0.79680861578988083 0.92656778056766709 0 0.75729602384198635 0.92353652857884294 0 0.76891166905518427 0.88835469571185499 0 0.79680861578988083 0.92656778056766709 0 0.770759834363826 0.95919399014344442 0 0.75729602384198635 0.92353652857884294 0 0.7250000000005199 0.89375000000045834 0 0.76891166905518427 0.88835469571185499 0 0.75729602384198635 0.92353652857884294 0 0.79680861578988083 0.92656778056766709 0 0.76891166905518427 0.88835469571185499 0 0.81159157511211755 0.88795995483179491 0 0.85170973911348691 0.93569607295217616 0 0.81159157511211755 0.88795995483179491 0 0.85600844944837662 0.88483418979512773 0 0.79680861578988083 0.92656778056766709 0 0.81159157511211755 0.88795995483179491 0 0.85170973911348691 0.93569607295217616 0 0.90416666666660628 0.9041666666666166 0 0.85170973911348691 0.93569607295217616 0 0.85600844944837662 0.88483418979512773 0 0.82709327591091286 0.84937141670920724 0 0.88088768115933802 0.84674609810493673 0 0.85600844944837662 0.88483418979512773 0 0.82709327591091286 0.84937141670920724 0 0.84725310900444062 0.80779732082917555 0 0.88088768115933802 0.84674609810493673 0 0.82709327591091286 0.84937141670920724 0 0.80041942726660109 0.81543261647703358 0 0.84725310900444062 0.80779732082917555 0 0.82709327591091286 0.84937141670920724 0 0.85600844944837662 0.88483418979512773 0 0.81159157511211755 0.88795995483179491 0 0.76901770135486491 0.84293557325473656 0 0.81159157511211755 0.88795995483179491 0 0.76891166905518427 0.88835469571185499 0 0.82709327591091286 0.84937141670920724 0 0.81159157511211755 0.88795995483179491 0 0.76901770135486491 0.84293557325473656 0 0.76901770135486491 0.84293557325473656 0 0.76891166905518427 0.88835469571185499 0 0.72863726579783861 0.85390518901155588 0 0.76901770135486491 0.84293557325473656 0 0.77094201086366854 0.79647480515688507 0 0.80041942726660109 0.81543261647703358 0 0.82709327591091286 0.84937141670920724 0 0.76901770135486491 0.84293557325473656 0 0.80041942726660109 0.81543261647703358 0 0.80185942888539485 0.77452061303608133 0 0.80041942726660109 0.81543261647703358 0 0.77094201086366854 0.79647480515688507 0 0.72500000000000064 0.7952620967744265 0 0.75841349681148107 0.75422312624214749 0 0.77094201086366854 0.79647480515688507 0 0.72500000000000064 0.7952620967744265 0 0.77094201086366854 0.79647480515688507 0 0.76901770135486491 0.84293557325473656 0 0.80185942888539485 0.77452061303608133 0 0.77094201086366854 0.79647480515688507 0 0.75841349681148107 0.75422312624214749 0 0.80185942888539485 0.77452061303608133 0 0.75841349681148107 0.75422312624214749 0 0.78578450296893509 0.73292684821144505 0 0.80185942888539485 0.77452061303608133 0 0.85491058998424563 0.76004753345552634 0 0.84725310900444062 0.80779732082917555 0 0.80185942888539485 0.77452061303608133 0 0.81864958914779962 0.73589050177899629 0 0.85491058998424563 0.76004753345552634 0 0.80185942888539485 0.77452061303608133 0 0.84725310900444062 0.80779732082917555 0 0.80041942726660109 0.81543261647703358 0 0.90299850604011456 0.79563452813489832 0 0.84725310900444062 0.80779732082917555 0 0.85491058998424563 0.76004753345552634 0 0.90299850604011456 0.79563452813489832 0 0.85491058998424563 0.76004753345552634 0 0.89999166460796554 0.74528934923809909 0 0.90299850604011456 0.79563452813489832 0 0.94399509803918602 0.75600490196082126 0 0.95386563387742829 0.80414874155775029 0 0.90299850604011456 0.79563452813489832 0 0.89999166460796554 0.74528934923809909 0 0.94399509803918602 0.75600490196082126 0 0.94399509803918602 0.75600490196082126 0 0.97435614836745565 0.77499999999987745 0 0.95386563387742829 0.80414874155775029 0 0.94399509803918602 0.75600490196082126 0 0.97166519676947294 0.73337114490064459 0 0.97435614836745565 0.77499999999987745 0 1 0.74999999999993494 0 0.97435614836745565 0.77499999999987745 0 0.97166519676947294 0.73337114490064459 0 1 0.74999999999993494 0 1 0.7999999999998193 0 0.97435614836745565 0.77499999999987745 0 1 0.7999999999998193 0 0.95386563387742829 0.80414874155775029 0 0.97435614836745565 0.77499999999987745 0 1 0.84999999999982645 0 0.95391631417670719 0.89584263333814784 0 0.93677536231884972 0.85000000000000286 0 1 0.84999999999982645 0 0.93677536231884972 0.85000000000000286 0 0.95386563387742829 0.80414874155775029 0 1 0.7999999999998193 0 1 0.84999999999982645 0 0.95386563387742829 0.80414874155775029 0 0.90416666666660628 0.9041666666666166 0 0.88088768115933802 0.84674609810493673 0 0.93677536231884972 0.85000000000000286 0 0.90299850604011456 0.79563452813489832 0 0.95386563387742829 0.80414874155775029 0 0.93677536231884972 0.85000000000000286 0 0.90299850604011456 0.79563452813489832 0 0.93677536231884972 0.85000000000000286 0 0.88088768115933802 0.84674609810493673 0 0.90299850604011456 0.79563452813489832 0 0.88088768115933802 0.84674609810493673 0 0.84725310900444062 0.80779732082917555 0 0.90416666666660628 0.9041666666666166 0 0.85600844944837662 0.88483418979512773 0 0.88088768115933802 0.84674609810493673 0 0.90416666666660628 0.9041666666666166 0 0.89898474358632463 0.95391965591118966 0 0.85170973911348691 0.93569607295217616 0 0.90416666666660628 0.9041666666666166 0 0.95391631417670719 0.89584263333814784 0 0.94399509803919068 0.9439950980391687 0 0.90416666666660628 0.9041666666666166 0 0.94399509803919068 0.9439950980391687 0 0.89898474358632463 0.95391965591118966 0 0.90416666666660628 0.9041666666666166 0 0.93677536231884972 0.85000000000000286 0 0.95391631417670719 0.89584263333814784 0 1 0.84999999999982645 0 1 0.8999999999998336 0 0.95391631417670719 0.89584263333814784 0 1 0.8999999999998336 0 1 0.94999999999997109 0 0.97435614836744289 0.92499999999990257 0 1 0.8999999999998336 0 0.97435614836744289 0.92499999999990257 0 0.95391631417670719 0.89584263333814784 0 0.94399509803919068 0.9439950980391687 0 0.95391631417670719 0.89584263333814784 0 0.97435614836744289 0.92499999999990257 0 0.94399509803919068 0.9439950980391687 0 0.97435614836744289 0.92499999999990257 0 0.97166519676946206 0.96662885509935492 0 1 0.94999999999997109 0 0.97166519676946206 0.96662885509935492 0 0.97435614836744289 0.92499999999990257 0 1 1 0 0.97166519676946206 0.96662885509935492 0 1 0.94999999999997109 0 1 1 0 0.94999999999979179 1 0 0.97166519676946206 0.96662885509935492 0 0.94999999999979179 1 0 0.94399509803919068 0.9439950980391687 0 0.97166519676946206 0.96662885509935492 0 0.94999999999979179 1 0 0.89999999999958358 1 0 0.89898474358632463 0.95391965591118966 0 0.94999999999979179 1 0 0.89898474358632463 0.95391965591118966 0 0.94399509803919068 0.9439950980391687 0 0.89999999999958358 1 0 0.84999999999965292 1 0 0.89898474358632463 0.95391965591118966 0 0.86956835336234861 0.571283299838105 0 0.81723410853263523 0.59419663659258926 0 0.82862096804812391 0.55037090955459045 0 0.83758014339878906 0.63222013025741819 0 0.81723410853263523 0.59419663659258926 0 0.87159648282691515 0.61285406320581504 0 0.83758014339878906 0.63222013025741819 0 0.79884539758237771 0.62875045078114233 0 0.81723410853263523 0.59419663659258926 0 0.86956835336234861 0.571283299838105 0 0.87159648282691515 0.61285406320581504 0 0.81723410853263523 0.59419663659258926 0 0.86956835336234861 0.571283299838105 0 0.82862096804812391 0.55037090955459045 0 0.86907294890112186 0.52008116128001669 0 0.82862096804812391 0.55037090955459045 0 0.81441713509985358 0.51161854125224959 0 0.86907294890112186 0.52008116128001669 0 0.84723782639812573 0.48638347960178252 0 0.86907294890112186 0.52008116128001669 0 0.81441713509985358 0.51161854125224959 0 0.82862096804812391 0.55037090955459045 0 0.77151014687832564 0.54436834383023036 0 0.81441713509985358 0.51161854125224959 0 0.77846603114747959 0.49850927265137401 0 0.81441713509985358 0.51161854125224959 0 0.77151014687832564 0.54436834383023036 0 0.77846603114747959 0.49850927265137401 0 0.77151014687832564 0.54436834383023036 0 0.73947346780852752 0.49062440112282169 0 0.77293540622714185 0.59448302402785813 0 0.71809016091162536 0.58185040402320831 0 0.77151014687832564 0.54436834383023036 0 0.81723410853263523 0.59419663659258926 0 0.77293540622714185 0.59448302402785813 0 0.77151014687832564 0.54436834383023036 0 0.82862096804812391 0.55037090955459045 0 0.81723410853263523 0.59419663659258926 0 0.77151014687832564 0.54436834383023036 0 0.77293540622714185 0.59448302402785813 0 0.81723410853263523 0.59419663659258926 0 0.79884539758237771 0.62875045078114233 0 0.77293540622714185 0.59448302402785813 0 0.79884539758237771 0.62875045078114233 0 0.74994237037456724 0.62775548192980357 0 0.7750489929959945 0.66593931409600093 0 0.74994237037456724 0.62775548192980357 0 0.79884539758237771 0.62875045078114233 0 0.74999999999999989 0.69999999999999996 0 0.72500000000000064 0.67022701834392062 0 0.7750489929959945 0.66593931409600093 0 0.79999999999999982 0.69999999999999996 0 0.7750489929959945 0.66593931409600093 0 0.82457059160610424 0.66831947184359608 0 0.7750489929959945 0.66593931409600093 0 0.79884539758237771 0.62875045078114233 0 0.82457059160610424 0.66831947184359608 0 0.74999999999999989 0.69999999999999996 0 0.78578450296893509 0.73292684821144505 0 0.75841349681148107 0.75422312624214749 0 0.74999999999999989 0.69999999999999996 0 0.79999999999999982 0.69999999999999996 0 0.78578450296893509 0.73292684821144505 0 0.74999999999999989 0.69999999999999996 0 0.7750489929959945 0.66593931409600093 0 0.79999999999999982 0.69999999999999996 0 0.74999999999999989 0.69999999999999996 0 0.79999999999999982 0.69999999999999996 0 0.80185942888539485 0.77452061303608133 0 0.78578450296893509 0.73292684821144505 0 0.81864958914779962 0.73589050177899629 0 0.79999999999999982 0.69999999999999996 0 0.81864958914779962 0.73589050177899629 0 0.78578450296893509 0.73292684821144505 0 0.84999999999999987 0.69999999999999996 0 0.85491058998424563 0.76004753345552634 0 0.81864958914779962 0.73589050177899629 0 0.79999999999999982 0.69999999999999996 0 0.84999999999999987 0.69999999999999996 0 0.79999999999999982 0.69999999999999996 0 0.82457059160610424 0.66831947184359608 0 0.84999999999999987 0.69999999999999996 0 0.79999999999999982 0.69999999999999996 0 0.84999999999999987 0.69999999999999996 0 0.81864958914779962 0.73589050177899629 0 0.84999999999999987 0.69999999999999996 0 0.89999999999999991 0.69999999999999996 0 0.84999999999999987 0.69999999999999996 0 0.89999166460796554 0.74528934923809909 0 0.85491058998424563 0.76004753345552634 0 0.83758014339878906 0.63222013025741819 0 0.82457059160610424 0.66831947184359608 0 0.79884539758237771 0.62875045078114233 0 0.84999999999999987 0.69999999999999996 0 0.82457059160610424 0.66831947184359608 0 0.87712158428786946 0.65709029563313581 0 0.83758014339878906 0.63222013025741819 0 0.87159648282691515 0.61285406320581504 0 0.87712158428786946 0.65709029563313581 0 0.83758014339878906 0.63222013025741819 0 0.87712158428786946 0.65709029563313581 0 0.82457059160610424 0.66831947184359608 0 0.91750694127105259 0.63017627779935648 0 0.92057473616084773 0.66770436535372446 0 0.87712158428786946 0.65709029563313581 0 0.91750694127105259 0.63017627779935648 0 0.87712158428786946 0.65709029563313581 0 0.87159648282691515 0.61285406320581504 0 0.84999999999999987 0.69999999999999996 0 0.87712158428786946 0.65709029563313581 0 0.89999999999999991 0.69999999999999996 0 0.89999999999999991 0.69999999999999996 0 0.87712158428786946 0.65709029563313581 0 0.92057473616084773 0.66770436535372446 0 0.91750694127105259 0.63017627779935648 0 0.9578014258160763 0.65787212321113708 0 0.92057473616084773 0.66770436535372446 0 0.84999999999999987 0.69999999999999996 0 0.89999999999999991 0.69999999999999996 0 0.89999166460796554 0.74528934923809909 0 0.89999999999999991 0.69999999999999996 0 0.94999999999999996 0.69999999999999996 0 0.89999999999999991 0.69999999999999996 0 0.92057473616084773 0.66770436535372446 0 0.94999999999999996 0.69999999999999996 0 0.89999999999999991 0.69999999999999996 0 0.94999999999999996 0.69999999999999996 0 0.89999166460796554 0.74528934923809909 0 0.94999999999999996 0.69999999999999996 0 0.94399509803918602 0.75600490196082126 0 0.89999166460796554 0.74528934923809909 0 0.94999999999999996 0.69999999999999996 0 0.97166519676947294 0.73337114490064459 0 0.94399509803918602 0.75600490196082126 0 0.94999999999999996 0.69999999999999996 0 1 0.69999999999999996 0 1 0.69999999999999996 0 0.97166519676947294 0.73337114490064459 0 0.94999999999999996 0.69999999999999996 0 1 0.69999999999999996 0 1 0.74999999999993494 0 0.97166519676947294 0.73337114490064459 0 0.91750694127105259 0.63017627779935648 0 0.95867599106212187 0.60011091146651041 0 0.9578014258160763 0.65787212321113708 0 0.94999999999999996 0.69999999999999996 0 0.92057473616084773 0.66770436535372446 0 0.9578014258160763 0.65787212321113708 0 1 0.69999999999999996 0 0.94999999999999996 0.69999999999999996 0 0.9578014258160763 0.65787212321113708 0 1 0.69999999999999996 0 0.9578014258160763 0.65787212321113708 0 1 0.64999999999986979 0 1 0.64999999999986979 0 0.9578014258160763 0.65787212321113708 0 0.95867599106212187 0.60011091146651041 0 1 0.54999999999963112 0 0.95867599106212187 0.60011091146651041 0 0.93732437411268477 0.55911392101136159 0 1 0.59999999999973963 0 1 0.64999999999986979 0 0.95867599106212187 0.60011091146651041 0 1 0.54999999999963112 0 1 0.59999999999973963 0 0.95867599106212187 0.60011091146651041 0 0.91750694127105259 0.63017627779935648 0 0.91143117093204207 0.58709913730335972 0 0.95867599106212187 0.60011091146651041 0 0.93732437411268477 0.55911392101136159 0 0.95867599106212187 0.60011091146651041 0 0.91143117093204207 0.58709913730335972 0 0.86956835336234861 0.571283299838105 0 0.90900154012161016 0.53607784105648792 0 0.91143117093204207 0.58709913730335972 0 0.86956835336234861 0.571283299838105 0 0.91143117093204207 0.58709913730335972 0 0.87159648282691515 0.61285406320581504 0 0.91750694127105259 0.63017627779935648 0 0.87159648282691515 0.61285406320581504 0 0.91143117093204207 0.58709913730335972 0 0.91696753777131557 0.497780560203536 0 0.90900154012161016 0.53607784105648792 0 0.86907294890112186 0.52008116128001669 0 0.86956835336234861 0.571283299838105 0 0.86907294890112186 0.52008116128001669 0 0.90900154012161016 0.53607784105648792 0 0.93732437411268477 0.55911392101136159 0 0.90900154012161016 0.53607784105648792 0 0.95631871884947484 0.51827533208233789 0 0.93732437411268477 0.55911392101136159 0 0.91143117093204207 0.58709913730335972 0 0.90900154012161016 0.53607784105648792 0 0.91696753777131557 0.497780560203536 0 0.95631871884947484 0.51827533208233789 0 0.90900154012161016 0.53607784105648792 0 1 0.54999999999963112 0 0.93732437411268477 0.55911392101136159 0 0.95631871884947484 0.51827533208233789 0 1 0.49999999999950101 0 1 0.54999999999963112 0 0.95631871884947484 0.51827533208233789 0 1 0.49999999999950101 0 0.95631871884947484 0.51827533208233789 0 0.96228564064454991 0.48206450662049471 0 1 0.44999999999963131 0 1 0.49999999999950101 0 0.96228564064454991 0.48206450662049471 0 1 0.44999999999963131 0 0.96228564064454991 0.48206450662049471 0 0.93814194660195893 0.44426664081746747 0 0.91696753777131557 0.497780560203536 0 0.93814194660195893 0.44426664081746747 0 0.96228564064454991 0.48206450662049471 0 0.91696753777131557 0.497780560203536 0 0.96228564064454991 0.48206450662049471 0 0.95631871884947484 0.51827533208233789 0 1 0.34999999999993492 0 1 0.39999999999978308 0 0.95871855522754235 0.40006508612975411 0 1 0.39999999999978308 0 1 0.44999999999963131 0 0.95871855522754235 0.40006508612975411 0 1 0.44999999999963131 0 0.93814194660195893 0.44426664081746747 0 0.95871855522754235 0.40006508612975411 0 0.91750694127107502 0.36982372220068471 0 0.95871855522754235 0.40006508612975411 0 0.90594285160987287 0.4141265964174129 0 0.93814194660195893 0.44426664081746747 0 0.90594285160987287 0.4141265964174129 0 0.95871855522754235 0.40006508612975411 0 0.90594285160987287 0.4141265964174129 0 0.88594198078881503 0.46167788676578442 0 0.86411095495256451 0.42388805655111889 0 0.86411095495256451 0.42388805655111889 0 0.86844634540301924 0.38530937474099819 0 0.90594285160987287 0.4141265964174129 0 0.91750694127107502 0.36982372220068471 0 0.90594285160987287 0.4141265964174129 0 0.86844634540301924 0.38530937474099819 0 0.91696753777131557 0.497780560203536 0 0.88594198078881503 0.46167788676578442 0 0.93814194660195893 0.44426664081746747 0 0.93814194660195893 0.44426664081746747 0 0.88594198078881503 0.46167788676578442 0 0.90594285160987287 0.4141265964174129 0 0.91696753777131557 0.497780560203536 0 0.86907294890112186 0.52008116128001669 0 0.88594198078881503 0.46167788676578442 0 0.84723782639812573 0.48638347960178252 0 0.88594198078881503 0.46167788676578442 0 0.86907294890112186 0.52008116128001669 0 0.84723782639812573 0.48638347960178252 0 0.81441713509985358 0.51161854125224959 0 0.81400510706333218 0.47357325943904899 0 0.84723782639812573 0.48638347960178252 0 0.81400510706333218 0.47357325943904899 0 0.84925632466077294 0.45359738909549091 0 0.81973119833356312 0.43505687159469048 0 0.84925632466077294 0.45359738909549091 0 0.81400510706333218 0.47357325943904899 0 0.84723782639812573 0.48638347960178252 0 0.84925632466077294 0.45359738909549091 0 0.88594198078881503 0.46167788676578442 0 0.86411095495256451 0.42388805655111889 0 0.84925632466077294 0.45359738909549091 0 0.81973119833356312 0.43505687159469048 0 0.86411095495256451 0.42388805655111889 0 0.88594198078881503 0.46167788676578442 0 0.84925632466077294 0.45359738909549091 0 0.86411095495256451 0.42388805655111889 0 0.81308179852519835 0.39754945808726527 0 0.86844634540301924 0.38530937474099819 0 0.83573492347052902 0.36590755630746369 0 0.86844634540301924 0.38530937474099819 0 0.81308179852519835 0.39754945808726527 0 0.86411095495256451 0.42388805655111889 0 0.81973119833356312 0.43505687159469048 0 0.81308179852519835 0.39754945808726527 0 0.77354604466818633 0.40378688774472771 0 0.81973119833356312 0.43505687159469048 0 0.77972660463949339 0.45529290596363098 0 0.77354604466818633 0.40378688774472771 0 0.81308179852519835 0.39754945808726527 0 0.81973119833356312 0.43505687159469048 0 0.77354604466818633 0.40378688774472771 0 0.78145581580700685 0.34881365920033602 0 0.81308179852519835 0.39754945808726527 0 0.77354604466818633 0.40378688774472771 0 0.77972660463949339 0.45529290596363098 0 0.73483647259922602 0.44789725365921768 0 0.73483647259922602 0.44789725365921768 0 0.77972660463949339 0.45529290596363098 0 0.73947346780852752 0.49062440112282169 0 0.77846603114747959 0.49850927265137401 0 0.73947346780852752 0.49062440112282169 0 0.77972660463949339 0.45529290596363098 0 0.77846603114747959 0.49850927265137401 0 0.77972660463949339 0.45529290596363098 0 0.81400510706333218 0.47357325943904899 0 0.77846603114747959 0.49850927265137401 0 0.81400510706333218 0.47357325943904899 0 0.81441713509985358 0.51161854125224959 0 0.81973119833356312 0.43505687159469048 0 0.81400510706333218 0.47357325943904899 0 0.77972660463949339 0.45529290596363098 0 0.79999999999999982 0.29999999999999999 0 0.77075983436335049 0.25919399014334171 0 0.81486180804364938 0.26321394949780091 0 0.74999999999999989 0.29999999999999999 0 0.79999999999999982 0.29999999999999999 0 0.74999999999999989 0.29999999999999999 0 0.77075983436335049 0.25919399014334171 0 0.79999999999999982 0.29999999999999999 0 0.74999999999999989 0.29999999999999999 0 0.79999999999999982 0.29999999999999999 0 0.78145581580700685 0.34881365920033602 0 0.74999999999999989 0.29999999999999999 0 0.78145581580700685 0.34881365920033602 0 0.73090396928863699 0.33699297293167962 0 0.77354604466818633 0.40378688774472771 0 0.74764719760526988 0.3719647154012321 0 0.78145581580700685 0.34881365920033602 0 0.78145581580700685 0.34881365920033602 0 0.74764719760526988 0.3719647154012321 0 0.73090396928863699 0.33699297293167962 0 0.83573492347052902 0.36590755630746369 0 0.81308179852519835 0.39754945808726527 0 0.78145581580700685 0.34881365920033602 0 0.79999999999999982 0.29999999999999999 0 0.82500000000000062 0.33010209762754811 0 0.78145581580700685 0.34881365920033602 0 0.83573492347052902 0.36590755630746369 0 0.78145581580700685 0.34881365920033602 0 0.82500000000000062 0.33010209762754811 0 0.83573492347052902 0.36590755630746369 0 0.82500000000000062 0.33010209762754811 0 0.87430060258887643 0.34056085888204451 0 0.83573492347052902 0.36590755630746369 0 0.87430060258887643 0.34056085888204451 0 0.86844634540301924 0.38530937474099819 0 0.84999999999999987 0.29999999999999999 0 0.87430060258887643 0.34056085888204451 0 0.82500000000000062 0.33010209762754811 0 0.84999999999999987 0.29999999999999999 0 0.89999999999999991 0.29999999999999999 0 0.87430060258887643 0.34056085888204451 0 0.84999999999999987 0.29999999999999999 0 0.81486180804364938 0.26321394949780091 0 0.8517097391133297 0.2356960729520409 0 0.84999999999999987 0.29999999999999999 0 0.8517097391133297 0.2356960729520409 0 0.89898474358614167 0.25391965591104898 0 0.84999999999999987 0.29999999999999999 0 0.89999999999999991 0.29999999999999999 0 0.79999999999999982 0.29999999999999999 0 0.84999999999999987 0.29999999999999999 0 0.82500000000000062 0.33010209762754811 0 0.79999999999999982 0.29999999999999999 0 0.81486180804364938 0.26321394949780091 0 0.84999999999999987 0.29999999999999999 0 0.79999999999999982 0.29999999999999999 0 0.84999999999999987 0.29999999999999999 0 0.84999999999999987 0.29999999999999999 0 0.89898474358614167 0.25391965591104898 0 0.89999999999999991 0.29999999999999999 0 0.89999999999999991 0.29999999999999999 0 0.94999999999999996 0.29999999999999999 0 0.89999999999999991 0.29999999999999999 0 0.94999999999999996 0.29999999999999999 0 0.92012390126144183 0.33123581297173937 0 0.89999999999999991 0.29999999999999999 0 0.89898474358614167 0.25391965591104898 0 0.94999999999999996 0.29999999999999999 0 0.94999999999999996 0.29999999999999999 0 0.89898474358614167 0.25391965591104898 0 0.94399509803921056 0.24399509803922639 0 0.91750694127107502 0.36982372220068471 0 0.86844634540301924 0.38530937474099819 0 0.87430060258887643 0.34056085888204451 0 0.91750694127107502 0.36982372220068471 0 0.87430060258887643 0.34056085888204451 0 0.92012390126144183 0.33123581297173937 0 0.89999999999999991 0.29999999999999999 0 0.92012390126144183 0.33123581297173937 0 0.87430060258887643 0.34056085888204451 0 0.91750694127107502 0.36982372220068471 0 0.92012390126144183 0.33123581297173937 0 0.95780851984364423 0.34215720972155339 0 0.91750694127107502 0.36982372220068471 0 0.95780851984364423 0.34215720972155339 0 0.95871855522754235 0.40006508612975411 0 0.94999999999999996 0.29999999999999999 0 0.95780851984364423 0.34215720972155339 0 0.92012390126144183 0.33123581297173937 0 1 0.29999999999999999 0 0.95780851984364423 0.34215720972155339 0 0.94999999999999996 0.29999999999999999 0 1 0.29999999999999999 0 1 0.34999999999993492 0 0.95780851984364423 0.34215720972155339 0 1 0.34999999999993492 0 0.95871855522754235 0.40006508612975411 0 0.95780851984364423 0.34215720972155339 0 0.94999999999999996 0.29999999999999999 0 0.94399509803921056 0.24399509803922639 0 0.97166519676951801 0.26662885509932011 0 0.94999999999999996 0.29999999999999999 0 1 0.29999999999999999 0 1 0.29999999999999999 0 0.94999999999999996 0.29999999999999999 0 0.97166519676951801 0.26662885509932011 0 1 0.29999999999999999 0 0.97166519676951801 0.26662885509932011 0 1 0.24999999999987299 0 1 0.24999999999987299 0 0.97166519676951801 0.26662885509932011 0 0.97435614836740092 0.22499999999981049 0 1 0.19999999999974799 0 1 0.24999999999987299 0 0.97435614836740092 0.22499999999981049 0 0.94399509803921056 0.24399509803922639 0 0.95391631417672862 0.19584263333809451 0 0.97435614836740092 0.22499999999981049 0 0.94399509803921056 0.24399509803922639 0 0.97435614836740092 0.22499999999981049 0 0.97166519676951801 0.26662885509932011 0 1 0.19999999999974799 0 0.97435614836740092 0.22499999999981049 0 0.95391631417672862 0.19584263333809451 0 1 0.14999999999961891 0 0.95391631417672862 0.19584263333809451 0 0.93677536231883773 0.14999999999999089 0 1 0.14999999999961891 0 0.93677536231883773 0.14999999999999089 0 0.95386563387744361 0.1041487415577465 0 1 0.14999999999961891 0 1 0.19999999999974799 0 0.95391631417672862 0.19584263333809451 0 0.90416666666668166 0.20416666666667119 0 0.93677536231883773 0.14999999999999089 0 0.95391631417672862 0.19584263333809451 0 0.90416666666668166 0.20416666666667119 0 0.88088768115941807 0.14674609810479519 0 0.93677536231883773 0.14999999999999089 0 0.90299850604006393 0.09563452813493091 0 0.93677536231883773 0.14999999999999089 0 0.88088768115941807 0.14674609810479519 0 0.90416666666668166 0.20416666666667119 0 0.85600844944842547 0.1848341897950983 0 0.88088768115941807 0.14674609810479519 0 0.90416666666668166 0.20416666666667119 0 0.89898474358614167 0.25391965591104898 0 0.8517097391133297 0.2356960729520409 0 0.90416666666668166 0.20416666666667119 0 0.94399509803921056 0.24399509803922639 0 0.89898474358614167 0.25391965591104898 0 0.90416666666668166 0.20416666666667119 0 0.95391631417672862 0.19584263333809451 0 0.94399509803921056 0.24399509803922639 0 0.94999999999986839 0 0 0.97166519676946894 0.033371144900598393 0 0.94399509803922566 0.056004901960802607 0 1 0 0 0.97166519676946894 0.033371144900598393 0 0.94999999999986839 0 0 1 0 0 1 0.049999999999896842 0 0.97166519676946894 0.033371144900598393 0 1 0.049999999999896842 0 0.97435614836748241 0.074999999999825387 0 0.97166519676946894 0.033371144900598393 0 0.94399509803922566 0.056004901960802607 0 0.97166519676946894 0.033371144900598393 0 0.97435614836748241 0.074999999999825387 0 0.94399509803922566 0.056004901960802607 0 0.97435614836748241 0.074999999999825387 0 0.95386563387744361 0.1041487415577465 0 1 0.099999999999753911 0 0.95386563387744361 0.1041487415577465 0 0.97435614836748241 0.074999999999825387 0 1 0.049999999999896842 0 1 0.099999999999753911 0 0.97435614836748241 0.074999999999825387 0 1 0.099999999999753911 0 1 0.14999999999961891 0 0.95386563387744361 0.1041487415577465 0 0.90299850604006393 0.09563452813493091 0 0.95386563387744361 0.1041487415577465 0 0.93677536231883773 0.14999999999999089 0 0.90299850604006393 0.09563452813493091 0 0.88088768115941807 0.14674609810479519 0 0.84725310900442086 0.10779732082922661 0 0.90299850604006393 0.09563452813493091 0 0.85491058998398861 0.060047533455626502 0 0.899991664607802 0.045289349238254978 0 0.90299850604006393 0.09563452813493091 0 0.94399509803922566 0.056004901960802607 0 0.95386563387744361 0.1041487415577465 0 0.90299850604006393 0.09563452813493091 0 0.899991664607802 0.045289349238254978 0 0.94399509803922566 0.056004901960802607 0 0.94999999999986839 0 0 0.94399509803922566 0.056004901960802607 0 0.899991664607802 0.045289349238254978 0 0.84999999999960507 0 0 0.89999999999973679 0 0 0.899991664607802 0.045289349238254978 0 0.89999999999973679 0 0 0.94999999999986839 0 0 0.899991664607802 0.045289349238254978 0 0.79999999999947335 0 0 0.84999999999960507 0 0 0.81864958914740749 0.035890501779055867 0 0.84999999999960507 0 0 0.899991664607802 0.045289349238254978 0 0.85491058998398861 0.060047533455626502 0 0.80185942888501827 0.074520613036224564 0 0.81864958914740749 0.035890501779055867 0 0.85491058998398861 0.060047533455626502 0 0.84999999999960507 0 0 0.85491058998398861 0.060047533455626502 0 0.81864958914740749 0.035890501779055867 0 0.80185942888501827 0.074520613036224564 0 0.85491058998398861 0.060047533455626502 0 0.84725310900442086 0.10779732082922661 0 0.90299850604006393 0.09563452813493091 0 0.84725310900442086 0.10779732082922661 0 0.85491058998398861 0.060047533455626502 0 0.80185942888501827 0.074520613036224564 0 0.84725310900442086 0.10779732082922661 0 0.80076557130237269 0.1154587552654202 0 0.82709327591102189 0.14937141670914489 0 0.80076557130237269 0.1154587552654202 0 0.84725310900442086 0.10779732082922661 0 0.80185942888501827 0.074520613036224564 0 0.80076557130237269 0.1154587552654202 0 0.76878382444651716 0.097147941686331368 0 0.72525833953073282 0.1032114801687094 0 0.76878382444651716 0.097147941686331368 0 0.77144070960558853 0.14311854477243749 0 0.77144070960558853 0.14311854477243749 0 0.76878382444651716 0.097147941686331368 0 0.80076557130237269 0.1154587552654202 0 0.80185942888501827 0.074520613036224564 0 0.76878382444651716 0.097147941686331368 0 0.7527966693318906 0.053051678021508272 0 0.80185942888501827 0.074520613036224564 0 0.78393852574753176 0.032039079577822822 0 0.81864958914740749 0.035890501779055867 0 0.80185942888501827 0.074520613036224564 0 0.7527966693318906 0.053051678021508272 0 0.78393852574753176 0.032039079577822822 0 0.74999999999934175 0 0 0.78393852574753176 0.032039079577822822 0 0.7527966693318906 0.053051678021508272 0 0.74999999999934175 0 0 0.79999999999947335 0 0 0.78393852574753176 0.032039079577822822 0 0.79999999999947335 0 0 0.81864958914740749 0.035890501779055867 0 0.78393852574753176 0.032039079577822822 0 0.79680861578956375 0.22656778056752541 0 0.81283102246527783 0.1881007222486438 0 0.8517097391133297 0.2356960729520409 0 0.8517097391133297 0.2356960729520409 0 0.81283102246527783 0.1881007222486438 0 0.85600844944842547 0.1848341897950983 0 0.79680861578956375 0.22656778056752541 0 0.8517097391133297 0.2356960729520409 0 0.81486180804364938 0.26321394949780091 0 0.90416666666668166 0.20416666666667119 0 0.8517097391133297 0.2356960729520409 0 0.85600844944842547 0.1848341897950983 0 0.82709327591102189 0.14937141670914489 0 0.88088768115941807 0.14674609810479519 0 0.85600844944842547 0.1848341897950983 0 0.82709327591102189 0.14937141670914489 0 0.84725310900442086 0.10779732082922661 0 0.88088768115941807 0.14674609810479519 0 0.82709327591102189 0.14937141670914489 0 0.85600844944842547 0.1848341897950983 0 0.81283102246527783 0.1881007222486438 0 0.77144070960558853 0.14311854477243749 0 0.81283102246527783 0.1881007222486438 0 0.76587607630038135 0.18880039518954719 0 0.82709327591102189 0.14937141670914489 0 0.81283102246527783 0.1881007222486438 0 0.77144070960558853 0.14311854477243749 0 0.82709327591102189 0.14937141670914489 0 0.77144070960558853 0.14311854477243749 0 0.80076557130237269 0.1154587552654202 0 0.77144070960558853 0.14311854477243749 0 0.76587607630038135 0.18880039518954719 0 0.72634814642510737 0.16106886917518889 0 0.79680861578956375 0.22656778056752541 0 0.75668890529066124 0.2244279804069782 0 0.76587607630038135 0.18880039518954719 0 0.79680861578956375 0.22656778056752541 0 0.76587607630038135 0.18880039518954719 0 0.81283102246527783 0.1881007222486438 0 0.79680861578956375 0.22656778056752541 0 0.81486180804364938 0.26321394949780091 0 0.77075983436335049 0.25919399014334171 0 0.79680861578956375 0.22656778056752541 0 0.77075983436335049 0.25919399014334171 0 0.75668890529066124 0.2244279804069782 0 0.72500000000000064 0.2498161764706 0 0.75668890529066124 0.2244279804069782 0 0.77075983436335049 0.25919399014334171 0 0.72500000000001008 0.19776155966387679 0 0.75668890529066124 0.2244279804069782 0 0.72500000000000064 0.2498161764706 0 0.72500000000001008 0.19776155966387679 0 0.72500000000000064 0.2498161764706 0 0.69397719155551807 0.2245125647000914 0 0.72500000000000064 0.2498161764706 0 0.67933712972090698 0.25920070958121938 0 0.69397719155551807 0.2245125647000914 0 0.72500000000001008 0.19776155966387679 0 0.69397719155551807 0.2245125647000914 0 0.6865991819015953 0.189116534044597 0 0.72500000000001008 0.19776155966387679 0 0.76587607630038135 0.18880039518954719 0 0.75668890529066124 0.2244279804069782 0 0.72500000000001008 0.19776155966387679 0 0.72634814642510737 0.16106886917518889 0 0.76587607630038135 0.18880039518954719 0 0.72525833953073282 0.1032114801687094 0 0.77144070960558853 0.14311854477243749 0 0.72634814642510737 0.16106886917518889 0 0.72525833953073282 0.1032114801687094 0 0.72634814642510737 0.16106886917518889 0 0.68391457121233579 0.14440470121196541 0 0.72500000000001008 0.19776155966387679 0 0.6865991819015953 0.189116534044597 0 0.72634814642510737 0.16106886917518889 0 0.68391457121233579 0.14440470121196541 0 0.72634814642510737 0.16106886917518889 0 0.6865991819015953 0.189116534044597 0 0.68391457121233579 0.14440470121196541 0 0.6865991819015953 0.189116534044597 0 0.64011864159029941 0.18789607982138171 0 0.6236733212988993 0.14864538214901801 0 0.65290632656860115 0.11434202593454081 0 0.68391457121233579 0.14440470121196541 0 0.6236733212988993 0.14864538214901801 0 0.68391457121233579 0.14440470121196541 0 0.64011864159029941 0.18789607982138171 0 0.65394964615507722 0.22666784374016369 0 0.59814117807200873 0.23398510860739519 0 0.64011864159029941 0.18789607982138171 0 0.65394964615507722 0.22666784374016369 0 0.62657463266645097 0.26524202571255862 0 0.59814117807200873 0.23398510860739519 0 0.65394964615507722 0.22666784374016369 0 0.69397719155551807 0.2245125647000914 0 0.67933712972090698 0.25920070958121938 0 0.65394964615507722 0.22666784374016369 0 0.64011864159029941 0.18789607982138171 0 0.6865991819015953 0.189116534044597 0 0.65394964615507722 0.22666784374016369 0 0.6865991819015953 0.189116534044597 0 0.69397719155551807 0.2245125647000914 0 0.69999999999921003 0 0 0.72683645290270404 0.027797073151180601 0 0.7010294155333181 0.056779085686491267 0 0.69999999999921003 0 0 0.7010294155333181 0.056779085686491267 0 0.66369801598854572 0.036327466368102787 0 0.74999999999934175 0 0 0.7527966693318906 0.053051678021508272 0 0.72683645290270404 0.027797073151180601 0 0.69999999999921003 0 0 0.74999999999934175 0 0 0.72683645290270404 0.027797073151180601 0 0.7527966693318906 0.053051678021508272 0 0.7010294155333181 0.056779085686491267 0 0.72683645290270404 0.027797073151180601 0 0.72525833953073282 0.1032114801687094 0 0.68330259535470161 0.10038702501083881 0 0.7010294155333181 0.056779085686491267 0 0.72525833953073282 0.1032114801687094 0 0.7010294155333181 0.056779085686491267 0 0.7527966693318906 0.053051678021508272 0 0.72525833953073282 0.1032114801687094 0 0.7527966693318906 0.053051678021508272 0 0.76878382444651716 0.097147941686331368 0 0.72525833953073282 0.1032114801687094 0 0.68391457121233579 0.14440470121196541 0 0.68330259535470161 0.10038702501083881 0 0.65408113592120842 0.073941773121567966 0 0.68330259535470161 0.10038702501083881 0 0.65290632656860115 0.11434202593454081 0 0.68391457121233579 0.14440470121196541 0 0.65290632656860115 0.11434202593454081 0 0.68330259535470161 0.10038702501083881 0 0.6236733212988993 0.14864538214901801 0 0.61956000905586006 0.1043312481793135 0 0.65290632656860115 0.11434202593454081 0 0.65408113592120842 0.073941773121567966 0 0.65290632656860115 0.11434202593454081 0 0.61956000905586006 0.1043312481793135 0 0.65408113592120842 0.073941773121567966 0 0.61956000905586006 0.1043312481793135 0 0.61940220174112337 0.047251958781050582 0 0.65408113592120842 0.073941773121567966 0 0.7010294155333181 0.056779085686491267 0 0.68330259535470161 0.10038702501083881 0 0.65408113592120842 0.073941773121567966 0 0.66369801598854572 0.036327466368102787 0 0.7010294155333181 0.056779085686491267 0 0.65408113592120842 0.073941773121567966 0 0.61940220174112337 0.047251958781050582 0 0.66369801598854572 0.036327466368102787 0 0.64999999999907843 0 0 0.66369801598854572 0.036327466368102787 0 0.61940220174112337 0.047251958781050582 0 0.64999999999907843 0 0 0.69999999999921003 0 0 0.66369801598854572 0.036327466368102787 0 0.5499999999988151 0 0 0.59999999999894682 0 0 0.57396793757665954 0.037011367187645222 0 0.59999999999894682 0 0 0.64999999999907843 0 0 0.61940220174112337 0.047251958781050582 0 0.59999999999894682 0 0 0.61940220174112337 0.047251958781050582 0 0.57396793757665954 0.037011367187645222 0 0.57667858002728545 0.078486105337742612 0 0.57396793757665954 0.037011367187645222 0 0.61940220174112337 0.047251958781050582 0 0.57667858002728545 0.078486105337742612 0 0.61940220174112337 0.047251958781050582 0 0.61956000905586006 0.1043312481793135 0 0.6236733212988993 0.14864538214901801 0 0.58516465772821369 0.11653801664834119 0 0.61956000905586006 0.1043312481793135 0 0.57667858002728545 0.078486105337742612 0 0.61956000905586006 0.1043312481793135 0 0.58516465772821369 0.11653801664834119 0 0.56202748619534593 0.15054058349222879 0 0.54979595918804436 0.1060565713905809 0 0.58516465772821369 0.11653801664834119 0 0.57667858002728545 0.078486105337742612 0 0.58516465772821369 0.11653801664834119 0 0.54979595918804436 0.1060565713905809 0 0.51076801031701946 0.1202837388510348 0 0.52375890611712683 0.059318771819432882 0 0.54979595918804436 0.1060565713905809 0 0.51076801031701946 0.1202837388510348 0 0.47881186583059909 0.093591717165689425 0 0.52375890611712683 0.059318771819432882 0 0.57667858002728545 0.078486105337742612 0 0.54979595918804436 0.1060565713905809 0 0.52375890611712683 0.059318771819432882 0 0.5499999999988151 0 0 0.57396793757665954 0.037011367187645222 0 0.52375890611712683 0.059318771819432882 0 0.57667858002728545 0.078486105337742612 0 0.52375890611712683 0.059318771819432882 0 0.57396793757665954 0.037011367187645222 0 0.49999999999869432 0 0 0.5499999999988151 0 0 0.52375890611712683 0.059318771819432882 0 0.55306006949600994 0.20198184231352201 0 0.59443395090188023 0.18455690917515069 0 0.59814117807200873 0.23398510860739519 0 0.55306006949600994 0.20198184231352201 0 0.59814117807200873 0.23398510860739519 0 0.54248833945060504 0.2520322959927106 0 0.59814117807200873 0.23398510860739519 0 0.59443395090188023 0.18455690917515069 0 0.64011864159029941 0.18789607982138171 0 0.6236733212988993 0.14864538214901801 0 0.64011864159029941 0.18789607982138171 0 0.59443395090188023 0.18455690917515069 0 0.6236733212988993 0.14864538214901801 0 0.56202748619534593 0.15054058349222879 0 0.58516465772821369 0.11653801664834119 0 0.6236733212988993 0.14864538214901801 0 0.59443395090188023 0.18455690917515069 0 0.56202748619534593 0.15054058349222879 0 0.55306006949600994 0.20198184231352201 0 0.56202748619534593 0.15054058349222879 0 0.59443395090188023 0.18455690917515069 0 0.55306006949600994 0.20198184231352201 0 0.51729576145820033 0.1683240575987815 0 0.56202748619534593 0.15054058349222879 0 0.51076801031701946 0.1202837388510348 0 0.54979595918804436 0.1060565713905809 0 0.56202748619534593 0.15054058349222879 0 0.51076801031701946 0.1202837388510348 0 0.51729576145820033 0.1683240575987815 0 0.48466639505193998 0.1421439844745814 0 0.51076801031701946 0.1202837388510348 0 0.56202748619534593 0.15054058349222879 0 0.51729576145820033 0.1683240575987815 0 0.55306006949600994 0.20198184231352201 0 0.50760557329222289 0.20700468884612061 0 0.51729576145820033 0.1683240575987815 0 0.50760557329222289 0.20700468884612061 0 0.55306006949600994 0.20198184231352201 0 0.54248833945060504 0.2520322959927106 0 0.49695729691142171 0.25014895411178018 0 0.50760557329222289 0.20700468884612061 0 0.54248833945060504 0.2520322959927106 0 0.5 0.29999999999999999 0 0.49695729691142171 0.25014895411178018 0 0.54248833945060504 0.2520322959927106 0 0.5 0.29999999999999999 0 0.54999999999999993 0.29999999999999999 0 0.52752007115234678 0.33170632466418198 0 0.5 0.29999999999999999 0 0.54248833945060504 0.2520322959927106 0 0.54999999999999993 0.29999999999999999 0 0.5 0.29999999999999999 0 0.54999999999999993 0.29999999999999999 0 0.54999999999999993 0.29999999999999999 0 0.54248833945060504 0.2520322959927106 0 0.5794309697024993 0.27124795968204829 0 0.59814117807200873 0.23398510860739519 0 0.5794309697024993 0.27124795968204829 0 0.54248833945060504 0.2520322959927106 0 0.54999999999999993 0.29999999999999999 0 0.59999999999999976 0.29999999999999999 0 0.54999999999999993 0.29999999999999999 0 0.5794309697024993 0.27124795968204829 0 0.59999999999999976 0.29999999999999999 0 0.59999999999999976 0.29999999999999999 0 0.6499999999999998 0.29999999999999999 0 0.59999999999999976 0.29999999999999999 0 0.5794309697024993 0.27124795968204829 0 0.62657463266645097 0.26524202571255862 0 0.59814117807200873 0.23398510860739519 0 0.62657463266645097 0.26524202571255862 0 0.5794309697024993 0.27124795968204829 0 0.6084546825910605 0.37989672713932537 0 0.56836770495988642 0.3523062350852913 0 0.61959173890754571 0.33832250091341232 0 0.59999999999999976 0.29999999999999999 0 0.6499999999999998 0.29999999999999999 0 0.61959173890754571 0.33832250091341232 0 0.59999999999999976 0.29999999999999999 0 0.61959173890754571 0.33832250091341232 0 0.56836770495988642 0.3523062350852913 0 0.54999999999999993 0.29999999999999999 0 0.59999999999999976 0.29999999999999999 0 0.56836770495988642 0.3523062350852913 0 0.56836770495988642 0.3523062350852913 0 0.52289427570932567 0.3932284363388488 0 0.52752007115234678 0.33170632466418198 0 0.54999999999999993 0.29999999999999999 0 0.56836770495988642 0.3523062350852913 0 0.52752007115234678 0.33170632466418198 0 0.5 0.29999999999999999 0 0.52752007115234678 0.33170632466418198 0 0.49077833859261139 0.35229981449445641 0 0.52752007115234678 0.33170632466418198 0 0.52289427570932567 0.3932284363388488 0 0.49077833859261139 0.35229981449445641 0 0.52289427570932567 0.3932284363388488 0 0.56836770495988642 0.3523062350852913 0 0.57744073070774993 0.41535148636609359 0 0.52289427570932567 0.3932284363388488 0 0.57744073070774993 0.41535148636609359 0 0.53823865529665704 0.45873898050322898 0 0.52289427570932567 0.3932284363388488 0 0.53823865529665704 0.45873898050322898 0 0.48858720058566618 0.43964267759203868 0 0.49102375406324739 0.49123754822244059 0 0.53823865529665704 0.45873898050322898 0 0.53330375813596242 0.50827942741749099 0 0.49102375406324739 0.49123754822244059 0 0.48858720058566618 0.43964267759203868 0 0.53823865529665704 0.45873898050322898 0 0.57611405284611883 0.50165903596042916 0 0.53330375813596242 0.50827942741749099 0 0.53823865529665704 0.45873898050322898 0 0.57611405284611883 0.50165903596042916 0 0.57975577671020095 0.46172033326338591 0 0.61547661924074692 0.48539576058873962 0 0.57611405284611883 0.50165903596042916 0 0.53823865529665704 0.45873898050322898 0 0.57975577671020095 0.46172033326338591 0 0.61209567303293111 0.44669033081290321 0 0.57975577671020095 0.46172033326338591 0 0.57744073070774993 0.41535148636609359 0 0.53823865529665704 0.45873898050322898 0 0.57744073070774993 0.41535148636609359 0 0.57975577671020095 0.46172033326338591 0 0.61209567303293111 0.44669033081290321 0 0.61547661924074692 0.48539576058873962 0 0.57975577671020095 0.46172033326338591 0 0.6084546825910605 0.37989672713932537 0 0.57744073070774993 0.41535148636609359 0 0.56836770495988642 0.3523062350852913 0 0.61209567303293111 0.44669033081290321 0 0.57744073070774993 0.41535148636609359 0 0.63912439215427275 0.41063340167983359 0 0.6084546825910605 0.37989672713932537 0 0.63912439215427275 0.41063340167983359 0 0.57744073070774993 0.41535148636609359 0 0.6084546825910605 0.37989672713932537 0 0.65481233915350323 0.35652751921065562 0 0.63912439215427275 0.41063340167983359 0 0.6879972333610942 0.43038561374960838 0 0.65178832218679827 0.45929119821019959 0 0.63912439215427275 0.41063340167983359 0 0.6879972333610942 0.43038561374960838 0 0.63912439215427275 0.41063340167983359 0 0.68128176404677243 0.38629093627004979 0 0.65481233915350323 0.35652751921065562 0 0.68128176404677243 0.38629093627004979 0 0.63912439215427275 0.41063340167983359 0 0.6541250972820879 0.49999999999999989 0 0.61547661924074692 0.48539576058873962 0 0.65178832218679827 0.45929119821019959 0 0.61209567303293111 0.44669033081290321 0 0.65178832218679827 0.45929119821019959 0 0.61547661924074692 0.48539576058873962 0 0.61209567303293111 0.44669033081290321 0 0.63912439215427275 0.41063340167983359 0 0.65178832218679827 0.45929119821019959 0 0.6879972333610942 0.43038561374960838 0 0.69385896817107129 0.48377516041410151 0 0.65178832218679827 0.45929119821019959 0 0.6541250972820879 0.49999999999999989 0 0.65178832218679827 0.45929119821019959 0 0.69385896817107129 0.48377516041410151 0 0.7152569930854884 0.5237994455134295 0 0.69385896817107129 0.48377516041410151 0 0.73947346780852752 0.49062440112282169 0 0.6879972333610942 0.43038561374960838 0 0.73483647259922602 0.44789725365921768 0 0.69385896817107129 0.48377516041410151 0 0.73483647259922602 0.44789725365921768 0 0.73947346780852752 0.49062440112282169 0 0.69385896817107129 0.48377516041410151 0 0.71508799138962864 0.36622814920737751 0 0.72622533758026719 0.40265885511101601 0 0.68128176404677243 0.38629093627004979 0 0.6879972333610942 0.43038561374960838 0 0.72622533758026719 0.40265885511101601 0 0.73483647259922602 0.44789725365921768 0 0.6879972333610942 0.43038561374960838 0 0.68128176404677243 0.38629093627004979 0 0.72622533758026719 0.40265885511101601 0 0.77354604466818633 0.40378688774472771 0 0.73483647259922602 0.44789725365921768 0 0.72622533758026719 0.40265885511101601 0 0.71508799138962864 0.36622814920737751 0 0.74764719760526988 0.3719647154012321 0 0.72622533758026719 0.40265885511101601 0 0.77354604466818633 0.40378688774472771 0 0.72622533758026719 0.40265885511101601 0 0.74764719760526988 0.3719647154012321 0 0.71508799138962864 0.36622814920737751 0 0.73090396928863699 0.33699297293167962 0 0.74764719760526988 0.3719647154012321 0 0.71508799138962864 0.36622814920737751 0 0.68887083591306764 0.33632058575757479 0 0.73090396928863699 0.33699297293167962 0 0.71508799138962864 0.36622814920737751 0 0.68128176404677243 0.38629093627004979 0 0.68887083591306764 0.33632058575757479 0 0.69999999999999984 0.29999999999999999 0 0.73090396928863699 0.33699297293167962 0 0.68887083591306764 0.33632058575757479 0 0.69999999999999984 0.29999999999999999 0 0.72500000000000064 0.2498161764706 0 0.74999999999999989 0.29999999999999999 0 0.69999999999999984 0.29999999999999999 0 0.74999999999999989 0.29999999999999999 0 0.69999999999999984 0.29999999999999999 0 0.74999999999999989 0.29999999999999999 0 0.73090396928863699 0.33699297293167962 0 0.74999999999999989 0.29999999999999999 0 0.72500000000000064 0.2498161764706 0 0.77075983436335049 0.25919399014334171 0 0.69999999999999984 0.29999999999999999 0 0.67933712972090698 0.25920070958121938 0 0.72500000000000064 0.2498161764706 0 0.6499999999999998 0.29999999999999999 0 0.67933712972090698 0.25920070958121938 0 0.69999999999999984 0.29999999999999999 0 0.6499999999999998 0.29999999999999999 0 0.69999999999999984 0.29999999999999999 0 0.68887083591306764 0.33632058575757479 0 0.6499999999999998 0.29999999999999999 0 0.69999999999999984 0.29999999999999999 0 0.6499999999999998 0.29999999999999999 0 0.62657463266645097 0.26524202571255862 0 0.67933712972090698 0.25920070958121938 0 0.65394964615507722 0.22666784374016369 0 0.67933712972090698 0.25920070958121938 0 0.62657463266645097 0.26524202571255862 0 0.59999999999999976 0.29999999999999999 0 0.62657463266645097 0.26524202571255862 0 0.6499999999999998 0.29999999999999999 0 0.6499999999999998 0.29999999999999999 0 0.65481233915350323 0.35652751921065562 0 0.61959173890754571 0.33832250091341232 0 0.6084546825910605 0.37989672713932537 0 0.61959173890754571 0.33832250091341232 0 0.65481233915350323 0.35652751921065562 0 0.65481233915350323 0.35652751921065562 0 0.68887083591306764 0.33632058575757479 0 0.68128176404677243 0.38629093627004979 0 0.6499999999999998 0.29999999999999999 0 0.68887083591306764 0.33632058575757479 0 0.65481233915350323 0.35652751921065562 0 
</DataArray>
</Points>
<Cells>
<DataArray type="UInt32" Name="connectivity" format="ascii">
0 1 2 3 4 5 6 7 8 9 10 11 12 13 14 15 16 17 18 19 20 21 22 23 24 25 26 27 28 29 30 31 32 33 34 35 36 37 38 39 40 41 42 43 44 45 46 47 48 49 50 51 52 53 54 55 56 57 58 59 60 61 62 63 64 65 66 67 68 69 70 71 72 73 74 75 76 77 78 79 80 81 82 83 84 85 86 87 88 89 90 91 92 93 94 95 96 97 98 99 100 101 102 103 104 105 106 107 108 109 110 111 112 113 114 115 116 117 118 119 120 121 122 123 124 125 126 127 128 129 130 131 132 133 134 135 136 137 138 139 140 141 142 143 144 145 146 147 148 149 150 151 152 153 154 155 156 157 158 159 160 161 162 163 164 165 166 167 168 169 170 171 172 173 174 175 176 177 178 179 180 181 182 183 184 185 186 187 188 189 190 191 192 193 194 195 196 197 198 199 200 201 202 203 204 205 206 207 208 209 210 211 212 213 214 215 216 217 218 219 220 221 222 223 224 225 226 227 228 229 230 231 232 233 234 235 236 237 238 239 240 241 242 243 244 245 246 247 248 249 250 251 252 253 254 255 256 257 258 259 260 261 262 263 264 265 266 267 268 269 270 271 272 273 274 275 276 277 278 279 280 281 282 283 284 285 286 287 288 289 290 291 292 293 294 295 296 297 298 299 300 301 302 303 304 305 306 307 308 309 310 311 312 313 314 315 316 317 318 319 320 321 322 323 324 325 326 327 328 329 330 331 332 333 334 335 336 337 338 339 340 341 342 343 344 345 346 347 348 349 350 351 352 353 354 355 356 357 358 359 360 361 362 363 364 365 366 367 368 369 370 371 372 373 374 375 376 377 378 379 380 381 382 383 384 385 386 387 388 389 390 391 392 393 394 395 396 397 398 399 400 401 402 403 404 405 406 407 408 409 410 411 412 413 414 415 416 417 418 419 420 421 422 423 424 425 426 427 428 429 430 431 432 433 434 435 436 437 438 439 440 441 442 443 444 445 446 447 448 449 450 451 452 453 454 455 456 457 458 459 460 461 462 463 464 465 466 467 468 469 470 471 472 473 474 475 476 477 478 479 480 481 482 483 484 485 486 487 488 489 490 491 492 493 494 495 496 497 498 499 500 501 502 503 504 505 506 507 508 509 510 511 512 513 514 515 516 517 518 519 520 521 522 523 524 525 526 527 528 529 530 531 532 533 534 535 536 537 538 539 540 541 542 543 544 545 546 547 548 549 550 551 552 553 554 555 556 557 558 559 560 561 562 563 564 565 566 567 568 569 570 571 572 573 574 575 576 577 578 579 580 581 582 583 584 585 586 587 588 589 590 591 592 593 594 595 596 597 598 599 600 601 602 603 604 605 606 607 608 609 610 611 612 613 614 615 616 617 618 619 620 621 622 623 624 625 626 627 628 629 630 631 632 633 634 635 636 637 638 639 640 641 642 643 644 645 646 647 648 649 650 651 652 653 654 655 656 657 658 659 660 661 662 663 664 665 666 667 668 669 670 671 672 673 674 675 676 677 678 679 680 681 682 683 684 685 686 687 688 689 690 691 692 693 694 695 696 697 698 699 700 701 702 703 704 705 706 707 708 709 710 711 712 713 714 715 716 717 718 719 720 721 722 723 724 725 726 727 728 729 730 731 732 733 734 735 736 737 738 739 740 741 742 743 744 745 746 747 748 749 750 751 752 753 754 755 756 757 758 759 760 761 762 763 764 765 766 767 768 769 770 771 772 773 774 775 776 777 778 779 780 781 782 783 784 785 786 787 788 789 790 791 792 793 794 795 796 797 798 799 800 801 802 803 804 805 806 807 808 809 810 811 812 813 814 815 816 817 818 819 820 821 822 823 824 825 826 827 828 829 830 831 832 833 834 835 836 837 838 839 840 841 842 843 844 845 846 847 848 849 850 851 852 853 854 855 856 857 858 859 860 861 862 863 864 865 866 867 868 869 870 871 872 873 874 875 876 877 878 879 880 881 882 883 884 885 886 887 888 889 890 891 892 893 894 895 896 897 898 899 900 901 902 903 904 905 906 907 908 909 910 911 912 913 914 915 916 917 918 919 920 921 922 923 924 925 926 927 928 929 930 931 932 933 934 935 936 937 938 939 940 941 942 943 944 945 946 947 948 949 950 951 952 953 954 955 956 957 958 959 960 961 962 963 964 965 966 967 968 969 970 971 972 973 974 975 976 977 978 979 980 981 982 983 984 985 986 987 988 989 990 991 992 993 994 995 996 997 998 999 1000 1001 1002 1003 1004 1005 1006 1007 1008 1009 1010 1011 1012 1013 1014 1015 1016 1017 1018 1019 1020 1021 1022 1023 1024 1025 1026 1027 1028 1029 1030 1031 1032 1033 1034 1035 1036 1037 1038 1039 1040 1041 1042 1043 1044 1045 1046 1047 1048 1049 1050 1051 1052 1053 1054 1055 1056 1057 1058 1059 1060 1061 1062 1063 1064 1065 1066 1067 1068 1069 1070 1071 1072 1073 1074 1075 1076 1077 1078 1079 1080 1081 1082 1083 1084 1085 1086 1087 1088 1089 1090 1091 1092 1093 1094 1095 1096 1097 1098 1099 1100 1101 1102 1103 1104 1105 1106 1107 1108 1109 1110 1111 1112 1113 1114 1115 1116 1117 1118 1119 1120 1121 1122 1123 1124 1125 1126 1127 1128 1129 1130 1131 1132 1133 1134 1135 1136 1137 1138 1139 1140 1141 1142 1143 1144 1145 1146 1147 1148 1149 1150 1151 1152 1153 1154 1155 1156 1157 1158 1159 1160 1161 1162 1163 1164 1165 1166 1167 1168 1169 1170 1171 1172 1173 1174 1175 1176 1177 1178 1179 1180 1181 1182 1183 1184 1185 1186 1187 1188 1189 1190 1191 1192 1193 1194 1195 1196 1197 1198 1199 1200 1201 1202 1203 1204 1205 1206 1207 1208 1209 1210 1211 1212 1213 1214 1215 1216 1217 1218 1219 1220 1221 1222 1223 1224 1225 1226 1227 1228 1229 1230 1231 1232 1233 1234 1235 1236 1237 1238 1239 1240 1241 1242 1243 1244 1245 1246 1247 1248 1249 1250 1251 1252 1253 1254 1255 1256 1257 1258 1259 1260 1261 1262 1263 1264 1265 1266 1267 1268 1269 1270 1271 1272 1273 1274 1275 1276 1277 1278 1279 1280 1281 1282 1283 1284 1285 1286 1287 1288 1289 1290 1291 1292 1293 1294 1295 1296 1297 1298 1299 1300 1301 1302 1303 1304 1305 1306 1307 1308 1309 1310 1311 1312 1313 1314 1315 1316 1317 1318 1319 1320 1321 1322 1323 1324 1325 1326 1327 1328 1329 1330 1331 1332 1333 1334 1335 1336 1337 1338 1339 1340 1341 1342 1343 1344 1345 1346 1347 1348 1349 1350 1351 1352 1353 1354 1355 1356 1357 1358 1359 1360 1361 1362 1363 1364 1365 1366 1367 1368 1369 1370 1371 1372 1373 1374 1375 1376 1377 1378 1379 1380 1381 1382 1383 1384 1385 1386 1387 1388 1389 1390 1391 1392 1393 1394 1395 1396 1397 1398 1399 1400 1401 1402 1403 1404 1405 1406 1407 1408 1409 1410 1411 1412 1413 1414 1415 1416 1417 1418 1419 1420 1421 1422 1423 1424 1425 1426 1427 1428 1429 1430 1431 1432 1433 1434 1435 1436 1437 1438 1439 1440 1441 1442 1443 1444 1445 1446 1447 1448 1449 1450 1451 1452 1453 1454 1455 1456 1457 1458 1459 1460 1461 1462 1463 1464 1465 1466 1467 1468 1469 1470 1471 1472 1473 1474 1475 1476 1477 1478 1479 1480 1481 1482 1483 1484 1485 1486 1487 1488 1489 1490 1491 1492 1493 1494 1495 1496 1497 1498 1499 1500 1501 1502 1503 1504 1505 1506 1507 1508 1509 1510 1511 1512 1513 1514 1515 1516 1517 1518 1519 1520 1521 1522 1523 1524 1525 1526 1527 1528 1529 1530 1531 1532 1533 1534 1535 1536 1537 1538 1539 1540 1541 1542 1543 1544 1545 1546 1547 1548 1549 1550 1551 1552 1553 1554 1555 1556 1557 1558 1559 1560 1561 1562 1563 1564 1565 1566 1567 1568 1569 1570 1571 1572 1573 1574 1575 1576 1577 1578 1579 1580 1581 1582 1583 1584 1585 1586 1587 1588 1589 1590 1591 1592 1593 1594 1595 1596 1597 1598 1599 1600 1601 1602 1603 1604 1605 1606 1607 1608 1609 1610 1611 1612 1613 1614 1615 1616 1617 1618 1619 1620 1621 1622 1623 1624 1625 1626 1627 1628 1629 1630 1631 1632 1633 1634 1635 1636 1637 1638 1639 1640 1641 1642 1643 1644 1645 1646 1647 1648 1649 1650 1651 1652 1653 1654 1655 1656 1657 1658 1659 1660 1661 1662 1663 1664 1665 1666 1667 1668 1669 1670 1671 1672 1673 1674 1675 1676 1677 1678 1679 1680 1681 1682 1683 1684 1685 1686 1687 1688 1689 1690 1691 1692 1693 1694 1695 1696 1697 1698 1699 1700 1701 1702 1703 1704 1705 1706 1707 1708 1709 1710 1711 1712 1713 1714 1715 1716 1717 1718 1719 1720 1721 1722 1723 1724 1725 1726 1727 1728 1729 1730 1731 1732 1733 1734 1735 1736 1737 1738 1739 1740 1741 1742 1743 1744 1745 1746 1747 1748 1749 1750 1751 1752 1753 1754 1755 1756 1757 1758 1759 1760 1761 1762 1763 1764 1765 1766 1767 1768 1769 1770 1771 1772 1773 1774 1775 1776 1777 1778 1779 1780 1781 1782 1783 1784 1785 1786 1787 1788 1789 1790 1791 1792 1793 1794 1795 1796 1797 1798 1799 1800 1801 1802 1803 1804 1805 1806 1807 1808 1809 1810 1811 1812 1813 1814 1815 1816 1817 1818 1819 1820 1821 1822 1823 1824 1825 1826 1827 1828 1829 1830 1831 1832 1833 1834 1835 1836 1837 1838 1839 1840 1841 1842 1843 1844 1845 1846 1847 1848 1849 1850 1851 1852 1853 1854 1855 1856 1857 1858 1859 1860 1861 1862 1863 1864 1865 1866 1867 1868 1869 1870 1871 1872 1873 1874 1875 1876 1877 1878 1879 1880 1881 1882 1883 1884 1885 1886 1887 1888 1889 1890 1891 1892 1893 1894 1895 1896 1897 1898 1899 1900 1901 1902 1903 1904 1905 1906 1907 1908 1909 1910 1911 1912 1913 1914 1915 1916 1917 1918 1919 1920 1921 1922 1923 1924 1925 1926 1927 1928 1929 1930 1931 1932 1933 1934 1935 1936 1937 1938 1939 1940 1941 1942 1943 1944 1945 1946 1947 1948 1949 1950 1951 1952 1953 1954 1955 1956 1957 1958 1959 1960 1961 1962 1963 1964 1965 1966 1967 1968 1969 1970 1971 1972 1973 1974 1975 1976 1977 1978 1979 1980 1981 1982 1983 1984 1985 1986 1987 1988 1989 1990 1991 1992 1993 1994 1995 1996 1997 1998 1999 2000 2001 2002 2003 2004 2005 2006 2007 2008 2009 2010 2011 2012 2013 2014 2015 2016 2017 2018 2019 2020 2021 2022 2023 2024 2025 2026 2027 2028 2029 2030 2031 2032 2033 2034 2035 2036 2037 2038 2039 2040 2041 2042 2043 2044 2045 2046 2047 2048 2049 2050 2051 2052 2053 2054 2055 2056 2057 2058 2059 2060 2061 2062 2063 2064 2065 2066 2067 2068 2069 2070 2071 2072 2073 2074 2075 2076 2077 2078 2079 2080 2081 2082 2083 2084 2085 2086 2087 2088 2089 2090 2091 2092 2093 2094 2095 2096 2097 2098 2099 2100 2101 2102 2103 2104 2105 2106 2107 2108 2109 2110 2111 2112 2113 2114 2115 2116 2117 2118 2119 2120 2121 2122 2123 2124 2125 2126 2127 2128 2129 2130 2131 2132 2133 2134 2135 2136 2137 2138 2139 2140 2141 2142 2143 2144 2145 2146 2147 2148 2149 2150 2151 2152 2153 2154 2155 2156 2157 2158 2159 2160 2161 2162 2163 2164 2165 2166 2167 2168 2169 2170 2171 2172 2173 2174 2175 2176 2177 2178 2179 2180 2181 2182 2183 2184 2185 2186 2187 2188 2189 2190 2191 2192 2193 2194 2195 2196 2197 2198 2199 2200 2201 2202 2203 2204 2205 2206 2207 2208 2209 2210 2211 2212 2213 2214 2215 2216 2217 2218 2219 2220 2221 2222 2223 2224 2225 2226 2227 2228 2229 2230 2231 2232 2233 2234 2235 2236 2237 2238 2239 2240 2241 2242 2243 2244 2245 2246 2247 2248 2249 2250 2251 2252 2253 2254 2255 2256 2257 2258 2259 2260 2261 2262 2263 2264 2265 2266 2267 2268 2269 2270 2271 2272 2273 2274 2275 2276 2277 2278 2279 2280 2281 2282 2283 2284 2285 2286 2287 2288 2289 2290 2291 2292 2293 2294 2295 2296 2297 2298 2299 2300 2301 2302 2303 2304 2305 2306 2307 2308 2309 2310 2311 2312 2313 2314 2315 2316 2317 2318 2319 2320 2321 2322 2323 2324 2325 2326 2327 2328 2329 2330 2331 2332 2333 2334 2335 2336 2337 2338 2339 2340 2341 2342 2343 2344 2345 2346 2347 2348 2349 2350 2351 2352 2353 2354 2355 2356 2357 2358 2359 2360 2361 2362 2363 2364 2365 2366 2367 2368 2369 2370 2371 2372 2373 2374 2375 2376 2377 2378 2379 2380 2381 2382 2383 2384 2385 2386 2387 2388 2389 2390 2391 2392 2393 2394 2395 2396 2397 2398 2399 2400 2401 2402 2403 2404 2405 2406 2407 2408 2409 2410 2411 2412 2413 2414 2415 2416 2417 2418 2419 2420 2421 2422 2423 2424 2425 2426 2427 2428 2429 2430 2431 2432 2433 2434 2435 2436 2437 2438 2439 2440 2441 2442 2443 2444 2445 2446 2447 2448 2449 2450 2451 2452 2453 2454 2455 2456 2457 2458 2459 2460 2461 2462 2463 2464 2465 2466 2467 2468 2469 2470 2471 2472 2473 2474 2475 2476 2477 2478 2479 2480 2481 2482 2483 2484 2485 2486 2487 2488 2489 2490 2491 2492 2493 2494 2495 2496 2497 2498 2499 2500 2501 2502 2503 2504 2505 2506 2507 2508 2509 2510 2511 2512 2513 2514 2515 2516 2517 2518 2519 2520 2521 2522 2523 2524 2525 2526 2527 2528 2529 2530 2531 2532 2533 2534 2535 2536 2537 2538 2539 2540 2541 2542 2543 2544 2545 2546 2547 2548 2549 2550 2551 2552 2553 2554 2555 2556 2557 2558 2559 2560 2561 2562 2563 2564 2565 2566 2567 2568 2569 2570 2571 2572 2573 2574 2575 2576 2577 2578 2579 2580 2581 2582 2583 2584 2585 2586 2587 2588 2589 2590 2591 2592 2593 2594 2595 2596 2597 2598 2599 2600 2601 2602 2603 2604 2605 2606 2607 2608 2609 2610 2611 2612 2613 2614 2615 2616 2617 2618 2619 2620 2621 2622 2623 2624 2625 2626 2627 2628 2629 2630 2631 2632 2633 2634 2635 2636 2637 2638 2639 2640 2641 2642 2643 2644 2645 2646 2647 2648 2649 2650 2651 2652 2653 2654 2655 2656 2657 2658 2659 2660 2661 2662 2663 2664 2665 2666 2667 2668 2669 2670 2671 2672 2673 2674 2675 2676 2677 2678 2679 2680 2681 2682 2683 2684 2685 2686 2687 2688 2689 2690 2691 2692 2693 2694 2695 2696 2697 2698 2699 2700 2701 2702 2703 2704 2705 2706 2707 2708 2709 2710 2711 2712 2713 2714 2715 2716 2717 2718 2719 2720 2721 2722 2723 2724 2725 2726 2727 2728 2729 2730 2731 2732 2733 2734 2735 2736 2737 2738 2739 2740 2741 2742 2743 2744 2745 2746 2747 2748 2749 2750 2751 2752 2753 2754 2755 2756 2757 2758 2759 2760 2761 2762 2763 2764 2765 2766 2767 2768 2769 2770 2771 2772 2773 2774 2775 2776 2777 2778 2779 2780 2781 2782 2783 2784 2785 2786 2787 2788 2789 2790 2791 2792 2793 2794 2795 2796 2797 2798 2799 2800 2801 2802 2803 2804 2805 2806 2807 2808 2809 2810 2811 2812 2813 2814 2815 2816 2817 2818 2819 2820 2821 2822 2823 2824 2825 2826 2827 2828 2829 2830 2831 2832 2833 2834 2835 2836 2837 2838 2839 2840 2841 2842 2843 2844 2845 2846 2847 2848 2849 2850 2851 2852 2853 2854 2855 2856 2857 2858 2859 2860 2861 2862 2863 2864 2865 2866 2867 2868 2869 2870 2871 2872 2873 2874 2875 2876 2877 2878 2879 2880 2881 2882 2883 2884 2885 2886 2887 2888 2889 2890 2891 2892 2893 2894 2895 2896 2897 2898 2899 2900 2901 2902 2903 2904 2905 2906 2907 2908 2909 2910 2911 2912 2913 2914 2915 2916 2917 2918 2919 2920 2921 2922 2923 2924 2925 2926 2927 2928 2929 2930 2931 2932 2933 2934 2935 2936 2937 2938 2939 2940 2941 2942 2943 2944 2945 2946 2947 2948 2949 2950 2951 2952 2953 2954 2955 2956 2957 2958 2959 2960 2961 2962 2963 2964 2965 2966 2967 2968 2969 2970 2971 2972 2973 2974 2975 2976 2977 2978 2979 2980 2981 2982 2983 2984 2985 2986 2987 2988 2989 2990 2991 2992 2993 2994 2995 2996 2997 2998 2999 3000 3001 3002 3003 3004 3005 3006 3007 3008 3009 3010 3011 3012 3013 3014 3015 3016 3017 3018 3019 3020 3021 3022 3023 3024 3025 3026 3027 3028 3029 3030 3031 3032 3033 3034 3035 3036 3037 3038 3039 3040 3041 3042 3043 3044 3045 3046 3047 3048 3049 3050 3051 3052 3053 3054 3055 3056 3057 3058 3059 3060 3061 3062 3063 3064 3065 3066 3067 3068 3069 3070 3071 3072 3073 3074 3075 3076 3077 3078 3079 3080 3081 3082 3083 3084 3085 3086 3087 3088 3089 3090 3091 3092 3093 3094 3095 3096 3097 3098 3099 3100 3101 3102 3103 3104 3105 3106 3107 3108 3109 3110 3111 3112 3113 3114 3115 3116 3117 3118 3119 3120 3121 3122 3123 3124 3125 3126 3127 3128 3129 3130 3131 3132 3133 3134 3135 3136 3137 3138 3139 3140 3141 
</DataArray>
<DataArray type="UInt32" Name="offsets" format="ascii">
3 6 9 12 15 18 21 24 27 30 33 36 39 42 45 48 51 54 57 60 63 66 69 72 75 78 81 84 87 90 93 96 99 102 105 108 111 114 117 120 123 126 129 132 135 138 141 144 147 150 153 156 159 162 165 168 171 174 177 180 183 186 189 192 195 198 201 204 207 210 213 216 219 222 225 228 231 234 237 240 243 246 249 252 255 258 261 264 267 270 273 276 279 282 285 288 291 294 297 300 303 306 309 312 315 318 321 324 327 330 333 336 339 342 345 348 351 354 357 360 363 366 369 372 375 378 381 384 387 390 393 396 399 402 405 408 411 414 417 420 423 426 429 432 435 438 441 444 447 450 453 456 459 462 465 468 471 474 477 480 483 486 489 492 495 498 501 504 507 510 513 516 519 522 525 528 531 534 537 540 543 546 549 552 555 558 561 564 567 570 573 576 579 582 585 588 591 594 597 600 603 606 609 612 615 618 621 624 627 630 633 636 639 642 645 648 651 654 657 660 663 666 669 672 675 678 681 684 687 690 693 696 699 702 705 708 711 714 717 720 723 726 729 732 735 738 741 744 747 750 753 756 759 762 765 768 771 774 777 780 783 786 789 792 795 798 801 804 807 810 813 816 819 822 825 828 831 834 837 840 843 846 849 852 855 858 861 864 867 870 873 876 879 882 885 888 891 894 897 900 903 906 909 912 915 918 921 924 927 930 933 936 939 942 945 948 951 954 957 960 963 966 969 972 975 978 981 984 987 990 993 996 999 1002 1005 1008 1011 1014 1017 1020 1023 1026 1029 1032 1035 1038 1041 1044 1047 1050 1053 1056 1059 1062 1065 1068 1071 1074 1077 1080 1083 1086 1089 1092 1095 1098 1101 1104 1107 1110 1113 1116 1119 1122 1125 1128 1131 1134 1137 1140 1143 1146 1149 1152 1155 1158 1161 1164 1167 1170 1173 1176 1179 1182 1185 1188 1191 1194 1197 1200 1203 1206 1209 1212 1215 1218 1221 1224 1227 1230 1233 1236 1239 1242 1245 1248 1251 1254 1257 1260 1263 1266 1269 1272 1275 1278 1281 1284 1287 1290 1293 1296 1299 1302 1305 1308 1311 1314 1317 1320 1323 1326 1329 1332 1335 1338 1341 1344 1347 1350 1353 1356 1359 1362 1365 1368 1371 1374 1377 1380 1383 1386 1389 1392 1395 1398 1401 1404 1407 1410 1413 1416 1419 1422 1425 1428 1431 1434 1437 1440 1443 1446 1449 1452 1455 1458 1461 1464 1467 1470 1473 1476 1479 1482 1485 1488 1491 1494 1497 1500 1503 1506 1509 1512 1515 1518 1521 1524 1527 1530 1533 1536 1539 1542 1545 1548 1551 1554 1557 1560 1563 1566 1569 1572 1575 1578 1581 1584 1587 1590 1593 1596 1599 1602 1605 1608 1611 1614 1616 1619 1622 1624 1627 1630 1632 1635 1638 1641 1644 1647 1650 1653 1656 1659 1662 1665 1668 1671 1673 1676 1679 1682 1685 1688 1690 1693 1696 1699 1702 1705 1708 1711 1714 1717 1720 1723 1726 1729 1732 1735 1738 1741 1744 1747 1750 1753 1756 1759 1762 1765 1768 1771 1774 1777 1780 1783 1786 1789 1792 1795 1798 1801 1804 1807 1810 1813 1816 1819 1822 1825 1828 1831 1834 1837 1840 1843 1846 1849 1852 1855 1858 1861 1864 1867 1870 1873 1876 1879 1882 1885 1888 1891 1894 1897 1900 1903 1906 1909 1912 1915 1918 1921 1924 1927 1930 1933 1936 1939 1942 1945 1948 1951 1954 1957 1960 1963 1966 1969 1972 1975 1978 1981 1984 1987 1990 1993 1996 1999 2002 2005 2008 2011 2014 2017 2020 2023 2026 2029 2032 2035 2038 2041 2044 2047 2050 2053 2056 2059 2062 2065 2068 2071 2074 2077 2080 2083 2086 2089 2092 2095 2098 2101 2104 2107 2110 2113 2116 2119 2122 2125 2128 2131 2134 2137 2140 2143 2146 2149 2152 2155 2158 2161 2164 2167 2170 2173 2176 2179 2182 2185 2188 2191 2194 2196 2199 2202 2205 2207 2210 2213 2215 2218 2221 2224 2227 2230 2233 2236 2239 2242 2245 2248 2250 2253 2256 2259 2262 2264 2267 2270 2273 2276 2279 2282 2285 2288 2291 2294 2297 2300 2303 2306 2309 2312 2315 2318 2321 2324 2327 2330 2333 2336 2339 2342 2345 2348 2351 2354 2357 2360 2363 2366 2369 2372 2375 2378 2381 2384 2387 2390 2393 2396 2399 2402 2405 2408 2411 2414 2417 2420 2423 2426 2429 2432 2435 2438 2440 2443 2446 2449 2452 2455 2458 2461 2464 2467 2470 2473 2476 2479 2482 2484 2487 2490 2492 2495 2497 2500 2503 2506 2509 2512 2515 2518 2521 2524 2527 2530 2533 2536 2538 2541 2544 2547 2550 2553 2556 2559 2562 2565 2568 2571 2574 2577 2580 2583 2586 2589 2592 2595 2598 2601 2604 2607 2610 2613 2616 2619 2622 2625 2628 2631 2634 2637 2640 2643 2646 2649 2652 2655 2658 2661 2664 2667 2670 2673 2676 2679 2682 2685 2688 2691 2694 2697 2700 2703 2706 2709 2712 2715 2718 2721 2724 2727 2730 2733 2736 2739 2742 2745 2748 2751 2754 2757 2760 2763 2766 2769 2772 2775 2778 2781 2784 2787 2790 2793 2796 2799 2802 2805 2808 2811 2814 2817 2820 2823 2826 2829 2832 2835 2838 2841 2844 2847 2850 2853 2856 2859 2862 2865 2868 2871 2874 2877 2880 2883 2886 2889 2892 2895 2898 2901 2904 2907 2910 2913 2916 2919 2922 2925 2928 2931 2934 2937 2940 2943 2946 2948 2951 2954 2956 2959 2961 2964 2967 2970 2973 2976 2979 2982 2985 2988 2991 2994 2997 3000 3003 3006 3009 3012 3015 3018 3021 3024 3027 3030 3033 3036 3039 3042 3045 3048 3051 3054 3057 3060 3063 3066 3069 3072 3075 3078 3081 3084 3087 3090 3093 3096 3099 3102 3104 3107 3110 3113 3116 3119 3121 3124 3127 3130 3133 3136 3139 3142 
</DataArray>
<DataArray type="UInt32" Name="types" format="ascii">
5 5 5 5 5 5 5 5 5 5 5 5 5 5 5 5 5 5 5 5 5 5 5 5 5 5 5 5 5 5 5 5 5 5 5 5 5 5 5 5 5 5 5 5 5 5 5 5 5 5 5 5 5 5 5 5 5 5 5 5 5 5 5 5 5 5 5 5 5 5 5 5 5 5 5 5 5 5 5 5 5 5 5 5 5 5 5 5 5 5 5 5 5 5 5 5 5 5 5 5 5 5 5 5 5 5 5 5 5 5 5 5 5 5 5 5 5 5 5 5 5 5 5 5 5 5 5 5 5 5 5 5 5 5 5 5 5 5 5 5 5 5 5 5 5 5 5 5 5 5 5 5 5 5 5 5 5 5 5 5 5 5 5 5 5 5 5 5 5 5 5 5 5 5 5 5 5 5 5 5 5 5 5 5 5 5 5 5 5 5 5 5 5 5 5 5 5 5 5 5 5 5 5 5 5 5 5 5 5 5 5 5 5 5 5 5 5 5 5 5 5 5 5 5 5 5 5 5 5 5 5 5 5 5 5 5 5 5 5 5 5 5 5 5 5 5 5 5 5 5 5 5 5 5 5 5 5 5 5 5 5 5 5 5 5 5 5 5 5 5 5 5 5 5 5 5 5 5 5 5 5 5 5 5 5 5 5 5 5 5 5 5 5 5 5 5 5 5 5 5 5 5 5 5 5 5 5 5 5 5 5 5 5 5 5 5 5 5 5 5 5 5 5 5 5 5 5 5 5 5 5 5 5 5 5 5 5 5 5 5 5 5 5 5 5 5 5 5 5 5 5 5 5 5 5 5 5 5 5 5 5 5 5 5 5 5 5 5 5 5 5 5 5 5 5 5 5 5 5 5 5 5 5 5 5 5 5 5 5 5 5 5 5 5 5 5 5 5 5 5 5 5 5 5 5 5 5 5 5 5 5 5 5 5 5 5 5 5 5 5 5 5 5 5 5 5 5 5 5 5 5 5 5 5 5 5 5 5 5 5 5 5 5 5 5 5 5 5 5 5 5 5 5 5 5 5 5 5 5 5 5 5 5 5 5 5 5 5 5 5 5 5 5 5 5 5 5 5 5 5 5 5 5 5 5 5 5 5 5 5 5 5 5 5 5 5 5 5 5 5 5 5 5 5 5 5 5 5 5 5 5 5 5 5 5 5 5 5 5 5 5 5 5 5 5 5 5 5 5 5 5 5 5 5 5 5 5 5 3 5 5 3 5 5 3 5 5 5 5 5 5 5 5 5 5 5 5 5 3 5 5 5 5 5 3 5 5 5 5 5 5 5 5 5 5 5 5 5 5 5 5 5 5 5 5 5 5 5 5 5 5 5 5 5 5 5 5 5 5 5 5 5 5 5 5 5 5 5 5 5 5 5 5 5 5 5 5 5 5 5 5 5 5 5 5 5 5 5 5 5 5 5 5 5 5 5 5 5 5 5 5 5 5 5 5 5 5 5 5 5 5 5 5 5 5 5 5 5 5 5 5 5 5 5 5 5 5 5 5 5 5 5 5 5 5 5 5 5 5 5 5 5 5 5 5 5 5 5 5 5 5 5 5 5 5 5 5 5 5 5 5 5 5 5 5 5 5 5 5 5 5 5 5 5 5 5 5 5 5 5 5 5 5 5 5 5 5 5 5 5 5 5 5 3 5 5 5 3 5 5 3 5 5 5 5 5 5 5 5 5 5 5 3 5 5 5 5 3 5 5 5 5 5 5 5 5 5 5 5 5 5 5 5 5 5 5 5 5 5 5 5 5 5 5 5 5 5 5 5 5 5 5 5 5 5 5 5 5 5 5 5 5 5 5 5 5 5 5 5 5 5 5 5 5 5 5 3 5 5 5 5 5 5 5 5 5 5 5 5 5 5 3 5 5 3 5 3 5 5 5 5 5 5 5 5 5 5 5 5 5 3 5 5 5 5 5 5 5 5 5 5 5 5 5 5 5 5 5 5 5 5 5 5 5 5 5 5 5 5 5 5 5 5 5 5 5 5 5 5 5 5 5 5 5 5 5 5 5 5 5 5 5 5 5 5 5 5 5 5 5 5 5 5 5 5 5 5 5 5 5 5 5 5 5 5 5 5 5 5 5 5 5 5 5 5 5 5 5 5 5 5 5 5 5 5 5 5 5 5 5 5 5 5 5 5 5 5 5 5 5 5 5 5 5 5 5 5 5 5 5 5 5 5 5 5 5 5 5 5 5 5 5 5 5 5 5 5 3 5 5 3 5 3 5 5 5 5 5 5 5 5 5 5 5 5 5 5 5 5 5 5 5 5 5 5 5 5 5 5 5 5 5 5 5 5 5 5 5 5 5 5 5 5 5 5 5 5 5 5 5 3 5 5 5 5 5 3 5 5 5 5 5 5 5 
</DataArray>
</Cells>
<PointData Scalars="" Vectors="displacement," Tensors="">
<DataArray type="Float64" Name="displacement" NumberOfComponents="3" format="ascii">
-1.8216167993125508e-09 -7.4930560788714461e-10 0 -2.0927740178597763e-06 1.4364646123596542e-09 0 -9.4785293370433458e-07 2.1838457424561938e-07 0 -1.8216167993125508e-09 -7.4930560788714461e-10 0 -9.4785293370433479e-07 2.1838457424561943e-07 0 -1.6724582879039815e-09 5.3502687530022872e-10 0 -2.0927740178597763e-06 1.4364646123596542e-09 0 -2.1271922568587576e-06 8.5656744666941506e-07 0 -9.4785293370433458e-07 2.1838457424561938e-07 0 -1.6724582879039815e-09 5.3502687530022872e-10 0 -9.4785293370433469e-07 2.1838457424561946e-07 0 -2.1271922568587576e-06 8.5656744666941506e-07 0 -1.6561690518625235e-09 3.2525437095996721e-10 0 -1.6724582879039815e-09 5.3502687530022872e-10 0 -1.3555385616520434e-06 1.2443697137531195e-06 0 -8.6922302835539287e-10 9.745827867173209e-10 0 -1.6561690518625235e-09 3.2525437095996721e-10 0 -1.3555385616520434e-06 1.2443697137531195e-06 0 -2.9625606951598216e-06 1.8617157225985952e-06 0 -1.3555385616520434e-06 1.2443697137531195e-06 0 -2.1271922568587576e-06 8.5656744666941506e-07 0 -1.6724582879039815e-09 5.3502687530022872e-10 0 -2.1271922568587576e-06 8.5656744666941506e-07 0 -1.3555385616520434e-06 1.2443697137531195e-06 0 -2.9625606951598216e-06 1.8617157225985952e-06 0 -1.5672612383082796e-06 2.0703571013231509e-06 0 -1.3555385616520434e-06 1.2443697137531195e-06 0 -2.9625606951598216e-06 1.8617157225985952e-06 0 -3.0202480428782341e-06 2.6173444029460878e-06 0 -1.5672612383082796e-06 2.0703571013231509e-06 0 -2.9625606951598216e-06 1.8617157225985952e-06 0 -4.571054900695096e-06 2.3831869292135686e-06 0 -3.0202480428782341e-06 2.6173444029460878e-06 0 -3.6557062298101379e-06 3.0610003763821504e-06 0 -3.0202480428782341e-06 2.6173444029460878e-06 0 -4.571054900695096e-06 2.3831869292135686e-06 0 -6.5297510689115206e-06 1.8922355440387647e-06 0 -4.571054900695096e-06 2.3831869292135686e-06 0 -4.5685471125581627e-06 1.3997364103285872e-06 0 -2.9625606951598216e-06 1.8617157225985952e-06 0 -4.5685471125581627e-06 1.3997364103285872e-06 0 -4.571054900695096e-06 2.3831869292135686e-06 0 -4.6936566778412917e-06 5.2767706215142414e-07 0 -7.8790466854152216e-06 7.0753219035603652e-07 0 -4.5685471125581627e-06 1.3997364103285872e-06 0 -2.0927740178597763e-06 1.4364646123596542e-09 0 -4.6936566778412917e-06 5.2767706215142414e-07 0 -2.1271922568587576e-06 8.5656744666941506e-07 0 -4.6936566778412917e-06 5.2767706215142414e-07 0 -4.5685471125581627e-06 1.3997364103285872e-06 0 -2.1271922568587576e-06 8.5656744666941506e-07 0 -2.9625606951598216e-06 1.8617157225985952e-06 0 -2.1271922568587576e-06 8.5656744666941506e-07 0 -4.5685471125581627e-06 1.3997364103285872e-06 0 -2.4747869060248591e-11 8.5343837192306679e-10 0 -5.4375665518804729e-10 6.9084545965937322e-10 0 -2.1829552118208693e-07 1.7390789590080799e-06 0 -5.4375665518804729e-10 6.9084545965937322e-10 0 -5.4955601122430331e-07 1.4523220808487879e-06 0 -2.1829552118208693e-07 1.7390789590080799e-06 0 -9.7126801440412316e-07 2.6980987464917763e-06 0 -2.1829552118208693e-07 1.7390789590080799e-06 0 -5.4955601122430331e-07 1.4523220808487879e-06 0 -8.6922302835539287e-10 9.745827867173209e-10 0 -1.5672612383082796e-06 2.0703571013231509e-06 0 -5.4955601122430331e-07 1.4523220808487879e-06 0 -8.6922302835539287e-10 9.745827867173209e-10 0 -1.3555385616520434e-06 1.2443697137531195e-06 0 -1.5672612383082796e-06 2.0703571013231509e-06 0 -9.7126801440412316e-07 2.6980987464917763e-06 0 -5.4955601122430331e-07 1.4523220808487879e-06 0 -1.5672612383082796e-06 2.0703571013231509e-06 0 -5.4375665518804729e-10 6.9084545965937322e-10 0 -8.6922302835539287e-10 9.745827867173209e-10 0 -5.4955601122430331e-07 1.4523220808487879e-06 0 -1.5672612383082796e-06 2.0703571013231509e-06 0 -3.0202480428782346e-06 2.6173444029460878e-06 0 -2.1605367907788851e-06 2.9350375376839291e-06 0 -3.6557062298101379e-06 3.0610003763821504e-06 0 -2.1605367907788851e-06 2.9350375376839291e-06 0 -3.0202480428782341e-06 2.6173444029460878e-06 0 -9.7126801440412316e-07 2.6980987464917763e-06 0 -1.5672612383082796e-06 2.0703571013231509e-06 0 -2.1605367907788851e-06 2.9350375376839291e-06 0 -9.7126801440412316e-07 2.6980987464917763e-06 0 -1.4771940388871679e-06 3.4157158891924477e-06 0 -6.5744556173704568e-08 3.007779344915158e-06 0 -9.7126801440412316e-07 2.6980987464917763e-06 0 -2.1605367907788851e-06 2.9350375376839291e-06 0 -1.4771940388871679e-06 3.4157158891924477e-06 0 -9.7126801440412316e-07 2.6980987464917763e-06 0 -6.5744556173704568e-08 3.007779344915158e-06 0 -2.1829552118208693e-07 1.7390789590080799e-06 0 2.5856699939849516e-07 1.8994115307430229e-06 0 -2.1829552118208693e-07 1.7390789590080799e-06 0 -6.5744556173704568e-08 3.007779344915158e-06 0 -1.4771940388871679e-06 3.4157158891924477e-06 0 -1.6752944814324029e-07 3.4549631531694994e-06 0 -6.5744556173704568e-08 3.007779344915158e-06 0 -5.3943112132614453e-07 3.4246831687647076e-06 0 -1.6752944814324008e-07 3.4549631531694994e-06 0 -1.4771940388871679e-06 3.4157158891924477e-06 0 -5.3943112132614453e-07 3.4246831687647076e-06 0 -1.4771940388871679e-06 3.4157158891924477e-06 0 -2.7175397622264829e-06 3.2488333424000864e-06 0 -3.6557062298101379e-06 3.0610003763821504e-06 0 -5.0768756592108667e-06 2.8028540019974171e-06 0 -2.7175397622264829e-06 3.2488333424000864e-06 0 -3.6557062298101379e-06 3.0610003763821504e-06 0 -1.4771940388871679e-06 3.4157158891924473e-06 0 -2.1605367907788851e-06 2.9350375376839291e-06 0 -3.6557062298101379e-06 3.0610003763821504e-06 0 -2.7175397622264829e-06 3.2488333424000864e-06 0 -1.4771940388871679e-06 3.4157158891924477e-06 0 -3.6557062298101379e-06 3.0610003763821504e-06 0 -5.843339638039202e-06 2.51677568369778e-06 0 -5.0768756592108667e-06 2.8028540019974175e-06 0 -3.75093108662989e-06 2.6322001395628968e-06 0 -5.0768756592108667e-06 2.8028540019974175e-06 0 -7.1754269673952476e-06 1.8863809895866254e-06 0 -3.75093108662989e-06 2.6322001395628968e-06 0 -7.1754269673952476e-06 1.8863809895866254e-06 0 -5.9625278185607383e-06 1.3766791609884067e-06 0 -3.75093108662989e-06 2.6322001395628968e-06 0 -5.9625278185607383e-06 1.3766791609884064e-06 0 -3.5714353074608292e-06 1.3793668758325901e-06 0 -3.75093108662989e-06 2.6322001395628968e-06 0 -2.7175397622264829e-06 3.2488333424000864e-06 0 -5.0768756592108667e-06 2.8028540019974175e-06 0 -5.3943112132614453e-07 3.4246831687647076e-06 0 -2.7175397622264829e-06 3.2488333424000864e-06 0 -1.3637881766220141e-06 2.7618792639368388e-06 0 -3.75093108662989e-06 2.6322001395628968e-06 0 -1.3637881766220141e-06 2.7618792639368388e-06 0 -2.7175397622264829e-06 3.2488333424000864e-06 0 -3.75093108662989e-06 2.6322001395628968e-06 0 -3.5714353074608292e-06 1.3793668758325901e-06 0 -1.3637881766220141e-06 2.7618792639368388e-06 0 8.0700641350371369e-07 2.0687931198533905e-06 0 1.0989977299895034e-06 3.0876893605577458e-06 0 -1.3637881766220141e-06 2.7618792639368388e-06 0 -5.3943112132614453e-07 3.4246831687647076e-06 0 -1.3637881766220141e-06 2.7618792639368388e-06 0 1.0989977299895034e-06 3.0876893605577458e-06 0 -7.8790466854152216e-06 7.0753219035603652e-07 0 -9.3457838308618784e-06 1.2234017439140244e-06 0 -6.5297510689115206e-06 1.8922355440387647e-06 0 -8.3200493703954163e-06 1.9157010923054315e-06 0 -6.5297510689115198e-06 1.8922355440387647e-06 0 -9.3457838308618801e-06 1.2234017439140242e-06 0 -7.8790466854152216e-06 7.0753219035603652e-07 0 -1.1650236759918325e-05 5.6144456830263842e-08 0 -9.3457838308618801e-06 1.2234017439140242e-06 0 -7.8790466854152216e-06 7.0753219035603652e-07 0 -6.5297510689115215e-06 1.8922355440387649e-06 0 -4.5685471125581627e-06 1.3997364103285872e-06 0 -6.5297510689115206e-06 1.8922355440387647e-06 0 -5.843339638039202e-06 2.51677568369778e-06 0 -4.571054900695096e-06 2.3831869292135686e-06 0 -3.6557062298101379e-06 3.0610003763821504e-06 0 -4.571054900695096e-06 2.3831869292135686e-06 0 -5.843339638039202e-06 2.51677568369778e-06 0 -8.3200493703954163e-06 1.9157010923054315e-06 0 -5.0768756592108667e-06 2.8028540019974175e-06 0 -5.843339638039202e-06 2.51677568369778e-06 0 -8.3200493703954163e-06 1.9157010923054315e-06 0 -5.843339638039202e-06 2.51677568369778e-06 0 -6.5297510689115206e-06 1.8922355440387647e-06 0 -8.3200493703954163e-06 1.9157010923054315e-06 0 -7.1754269673952476e-06 1.8863809895866254e-06 0 -5.0768756592108667e-06 2.8028540019974175e-06 0 -8.3200493703954163e-06 1.9157010923054315e-06 0 -1.0304806058688194e-05 8.9831515944693342e-07 0 -7.1754269673952476e-06 1.8863809895866254e-06 0 -9.7315624946418399e-06 1.2275938554512387e-07 0 -7.1754269673952476e-06 1.8863809895866254e-06 0 -1.0304806058688194e-05 8.9831515944693331e-07 0 -8.3200493703954163e-06 1.9157010923054315e-06 0 -1.1800468376561386e-05 5.1676900431911096e-07 0 -1.0304806058688194e-05 8.9831515944693331e-07 0 -1.4254365105990382e-05 -9.9455349219888803e-07 0 -1.0304806058688194e-05 8.9831515944693331e-07 0 -1.1800468376561386e-05 5.1676900431911096e-07 0 -8.3200493703954163e-06 1.9157010923054315e-06 0 -9.3457838308618801e-06 1.2234017439140242e-06 0 -1.1800468376561386e-05 5.1676900431911096e-07 0 -1.1650236759918323e-05 5.614445683026406e-08 0 -1.1800468376561386e-05 5.1676900431911096e-07 0 -9.3457838308618801e-06 1.2234017439140242e-06 0 -1.1650236759918323e-05 5.614445683026406e-08 0 -1.5929779778750508e-05 -1.4928755741749772e-06 0 -1.1800468376561386e-05 5.1676900431911096e-07 0 -1.5929779778750508e-05 -1.4928755741749772e-06 0 -2.047240943817681e-05 -4.1077732307753201e-06 0 -1.4254365105990382e-05 -9.9455349219888803e-07 0 -1.5929779778750508e-05 -1.4928755741749772e-06 0 -1.4254365105990382e-05 -9.9455349219888803e-07 0 -1.1800468376561386e-05 5.1676900431911096e-07 0 -2.047240943817681e-05 -4.1077732307753201e-06 0 -1.9126608790383007e-05 -4.4006841304121466e-06 0 -1.4254365105990382e-05 -9.9455349219888803e-07 0 -2.047240943817681e-05 -4.1077732307753201e-06 0 -2.5722304286470616e-05 -8.015898049790196e-06 0 -1.9126608790383007e-05 -4.4006841304121466e-06 0 -1.6939752340818779e-05 -5.7249393574909822e-06 0 -1.9126608790383007e-05 -4.4006841304121466e-06 0 -2.3214227536409194e-05 -7.9108779344963034e-06 0 -1.6939752340818779e-05 -5.7249393574909822e-06 0 -2.3214227536409194e-05 -7.9108779344963034e-06 0 -2.3450490153055453e-05 -1.1127473795529418e-05 0 -2.5722304286470616e-05 -8.015898049790196e-06 0 -2.3214227536409194e-05 -7.9108779344963034e-06 0 -1.9126608790383007e-05 -4.4006841304121466e-06 0 -2.5722304286470616e-05 -8.015898049790196e-06 0 -3.1500896544164808e-05 -1.3427697359808426e-05 0 -2.3214227536409194e-05 -7.9108779344963034e-06 0 -1.6939752340818779e-05 -5.7249393574909822e-06 0 -1.602576057809782e-05 -9.9668919521487346e-06 0 -1.0883131433480362e-05 -5.5330822309171179e-06 0 -1.6939752340818779e-05 -5.7249393574909822e-06 0 -1.0883131433480362e-05 -5.5330822309171179e-06 0 -1.1329619463890281e-05 -2.5385908126352792e-06 0 -1.6939752340818779e-05 -5.7249393574909822e-06 0 -1.4283110388119837e-05 -2.4136149430444961e-06 0 -1.9126608790383007e-05 -4.4006841304121466e-06 0 -1.6939752340818779e-05 -5.7249393574909822e-06 0 -1.1329619463890281e-05 -2.5385908126352792e-06 0 -1.4283110388119837e-05 -2.4136149430444961e-06 0 -9.7315624946418399e-06 1.2275938554512387e-07 0 -1.4283110388119839e-05 -2.4136149430444961e-06 0 -1.1329619463890281e-05 -2.5385908126352792e-06 0 -1.4254365105990382e-05 -9.9455349219888803e-07 0 -1.9126608790383007e-05 -4.4006841304121466e-06 0 -1.4283110388119837e-05 -2.4136149430444961e-06 0 -1.4283110388119837e-05 -2.4136149430444961e-06 0 -9.7315624946418399e-06 1.2275938554512382e-07 0 -1.4254365105990382e-05 -9.9455349219888803e-07 0 -1.4254365105990382e-05 -9.9455349219888803e-07 0 -9.7315624946418399e-06 1.2275938554512387e-07 0 -1.0304806058688194e-05 8.9831515944693331e-07 0 -9.7315624946418399e-06 1.2275938554512387e-07 0 -5.9625278185607383e-06 1.3766791609884067e-06 0 -7.1754269673952476e-06 1.8863809895866254e-06 0 -9.7315624946418399e-06 1.2275938554512387e-07 0 -6.9008989953958754e-06 -2.8434876653362027e-07 0 -5.9625278185607383e-06 1.3766791609884067e-06 0 -3.5714353074608292e-06 1.3793668758325901e-06 0 -5.9625278185607375e-06 1.3766791609884069e-06 0 -6.9008989953958754e-06 -2.8434876653362027e-07 0 -7.4583086222169907e-06 -2.5926257389979119e-06 0 -3.7402616239594594e-06 -9.6845330149614788e-07 0 -6.9008989953958754e-06 -2.8434876653362027e-07 0 -3.5714353074608292e-06 1.3793668758325901e-06 0 -6.9008989953958754e-06 -2.8434876653362027e-07 0 -3.7402616239594594e-06 -9.6845330149614788e-07 0 -9.7315624946418399e-06 1.2275938554512387e-07 0 -1.1329619463890281e-05 -2.5385908126352792e-06 0 -6.9008989953958754e-06 -2.8434876653362027e-07 0 -9.8152830224506168e-07 9.5143572903613752e-07 0 8.0700641350371369e-07 2.0687931198533905e-06 0 -1.3637881766220141e-06 2.7618792639368388e-06 0 -3.5714353074608292e-06 1.3793668758325901e-06 0 -9.8152830224506168e-07 9.5143572903613752e-07 0 -1.3637881766220141e-06 2.7618792639368388e-06 0 -3.5714353074608292e-06 1.3793668758325901e-06 0 -3.740261623959459e-06 -9.684533014961481e-07 0 -9.8152830224506168e-07 9.5143572903613752e-07 0 -1.9896559711086746e-07 -2.2090212718040478e-06 0 1.9835995183605901e-06 6.3186222304862299e-07 0 -9.8152830224506168e-07 9.5143572903613752e-07 0 -1.9896559711086746e-07 -2.2090212718040478e-06 0 -9.815283022450621e-07 9.514357290361373e-07 0 -3.7402616239594594e-06 -9.6845330149614788e-07 0 -1.9896559711086746e-07 -2.2090212718040478e-06 0 -3.7402616239594594e-06 -9.6845330149614788e-07 0 -5.2725311423784429e-06 -4.3075311046255889e-06 0 -1.9896559711086746e-07 -2.2090212718040478e-06 0 -5.2725311423784429e-06 -4.3075311046255889e-06 0 -1.9114993200597001e-06 -6.7243036710822838e-06 0 -1.9896559711086746e-07 -2.2090212718040478e-06 0 -1.9114993200597001e-06 -6.7243036710822838e-06 0 3.0277998772282041e-06 -5.1297064436986107e-06 0 -7.4583086222169907e-06 -2.5926257389979119e-06 0 -6.9008989953958754e-06 -2.8434876653362027e-07 0 -1.1329619463890281e-05 -2.5385908126352792e-06 0 -7.4583086222169907e-06 -2.5926257389979119e-06 0 -1.132961946389028e-05 -2.5385908126352792e-06 0 -1.0883131433480362e-05 -5.5330822309171179e-06 0 -7.4583086222169907e-06 -2.5926257389979119e-06 0 -5.2725311423784429e-06 -4.3075311046255889e-06 0 -3.7402616239594594e-06 -9.6845330149614788e-07 0 -8.5126517531554742e-06 -8.7359164292981487e-06 0 -5.2725311423784429e-06 -4.3075311046255889e-06 0 -1.0883131433480362e-05 -5.5330822309171179e-06 0 -7.4583086222169907e-06 -2.5926257389979119e-06 0 -1.0883131433480362e-05 -5.5330822309171179e-06 0 -5.2725311423784429e-06 -4.3075311046255889e-06 0 -8.5126517531554742e-06 -8.7359164292981487e-06 0 -1.0883131433480362e-05 -5.5330822309171179e-06 0 -1.602576057809782e-05 -9.9668919521487346e-06 0 -8.5126517531554742e-06 -8.7359164292981487e-06 0 -1.3514133207031647e-05 -1.545639003274424e-05 0 -4.423721780243109e-06 -1.1886328896038416e-05 0 -8.5126517531554742e-06 -8.7359164292981487e-06 0 -1.602576057809782e-05 -9.9668919521487346e-06 0 -1.3514133207031647e-05 -1.545639003274424e-05 0 2.0034546675403125e-06 -9.9204630271128485e-06 0 3.0277998772282041e-06 -5.1297064436986116e-06 0 -1.9114993200597001e-06 -6.7243036710822838e-06 0 -8.5126517531554742e-06 -8.7359164292981487e-06 0 -1.9114993200597001e-06 -6.7243036710822829e-06 0 -5.2725311423784429e-06 -4.3075311046255889e-06 0 -8.5126517531554742e-06 -8.7359164292981487e-06 0 -4.423721780243109e-06 -1.1886328896038416e-05 0 -1.9114993200597001e-06 -6.7243036710822838e-06 0 2.0034546675403125e-06 -9.9204630271128485e-06 0 -1.9114993200597001e-06 -6.7243036710822838e-06 0 -4.423721780243109e-06 -1.1886328896038416e-05 0 2.0034546675403125e-06 -9.9204630271128485e-06 0 -4.423721780243109e-06 -1.1886328896038416e-05 0 -3.6496269398312137e-07 -1.6195924925756268e-05 0 -6.8978979883881744e-06 -1.9400580854745962e-05 0 -3.6496269398312116e-07 -1.6195924925756268e-05 0 -4.423721780243109e-06 -1.1886328896038416e-05 0 -6.8978979883881744e-06 -1.9400580854745962e-05 0 -1.0874937303286844e-05 -2.932180443406702e-05 0 -3.8922740688724739e-06 -2.5726365180023228e-05 0 -6.8978979883881744e-06 -1.9400580854745962e-05 0 -3.8922740688724739e-06 -2.5726365180023228e-05 0 -3.6496269398312137e-07 -1.6195924925756268e-05 0 3.2294696039186734e-06 -2.1216237041003845e-05 0 -3.6496269398312137e-07 -1.6195924925756268e-05 0 -3.8922740688724739e-06 -2.5726365180023228e-05 0 -6.8978979883881744e-06 -1.9400580854745962e-05 0 -1.3514133207031647e-05 -1.545639003274424e-05 0 -1.4848788823927725e-05 -2.3020855554302483e-05 0 -6.8978979883881744e-06 -1.9400580854745962e-05 0 -4.423721780243109e-06 -1.1886328896038416e-05 0 -1.3514133207031647e-05 -1.545639003274424e-05 0 -6.8978979883881744e-06 -1.9400580854745962e-05 0 -1.4848788823927725e-05 -2.3020855554302483e-05 0 -1.0874937303286844e-05 -2.932180443406702e-05 0 -1.3514133207031647e-05 -1.545639003274424e-05 0 -2.3206654205150496e-05 -2.3119115172880818e-05 0 -1.4848788823927725e-05 -2.3020855554302483e-05 0 -1.9807085741889634e-05 -2.9124969428819362e-05 0 -1.4848788823927725e-05 -2.3020855554302483e-05 0 -2.3206654205150496e-05 -2.3119115172880818e-05 0 -2.2906356105317496e-05 -1.616722124806191e-05 0 -2.3206654205150496e-05 -2.3119115172880818e-05 0 -1.3514133207031647e-05 -1.545639003274424e-05 0 -2.2906356105317496e-05 -1.616722124806191e-05 0 -3.1674355057143749e-05 -2.2965468576442721e-05 0 -2.3206654205150496e-05 -2.3119115172880818e-05 0 -3.295146179439247e-05 -3.3777828504711978e-05 0 -2.3206654205150496e-05 -2.3119115172880818e-05 0 -3.1674355057143749e-05 -2.2965468576442721e-05 0 -4.3564818867359186e-05 -3.0554592169783572e-05 0 -3.295146179439247e-05 -3.3777828504711978e-05 0 -3.1674355057143749e-05 -2.2965468576442721e-05 0 -3.7548532629263869e-05 -2.0958148958097513e-05 0 -4.3564818867359186e-05 -3.0554592169783572e-05 0 -3.1674355057143749e-05 -2.2965468576442721e-05 0 -3.7548532629263869e-05 -2.0958148958097513e-05 0 -3.1674355057143749e-05 -2.2965468576442721e-05 0 -2.9402605704970725e-05 -1.6708156003343019e-05 0 -2.2906356105317496e-05 -1.616722124806191e-05 0 -2.9402605704970725e-05 -1.6708156003343019e-05 0 -3.1674355057143749e-05 -2.2965468576442721e-05 0 -3.1500896544164808e-05 -1.3427697359808426e-05 0 -2.9402605704970725e-05 -1.6708156003343019e-05 0 -2.3450490153055453e-05 -1.1127473795529418e-05 0 -2.2906356105317496e-05 -1.616722124806191e-05 0 -2.3450490153055453e-05 -1.1127473795529418e-05 0 -2.9402605704970725e-05 -1.6708156003343019e-05 0 -3.1500896544164808e-05 -1.3427697359808426e-05 0 -3.7548532629263869e-05 -2.0958148958097513e-05 0 -2.9402605704970725e-05 -1.6708156003343019e-05 0 -3.1500896544164808e-05 -1.3427697359808426e-05 0 -2.345049015305545e-05 -1.1127473795529418e-05 0 -2.3214227536409194e-05 -7.9108779344963034e-06 0 -1.6939752340818779e-05 -5.7249393574909822e-06 0 -2.3450490153055453e-05 -1.1127473795529418e-05 0 -1.602576057809782e-05 -9.9668919521487346e-06 0 -2.2906356105317496e-05 -1.616722124806191e-05 0 -1.3514133207031646e-05 -1.5456390032744236e-05 0 -1.602576057809782e-05 -9.9668919521487346e-06 0 -2.2906356105317496e-05 -1.616722124806191e-05 0 -1.602576057809782e-05 -9.9668919521487346e-06 0 -2.3450490153055453e-05 -1.1127473795529418e-05 0 1.1837536090852664e-05 -3.1336138986089491e-06 0 1.0991564417149042e-05 -1.5669003657111893e-06 0 9.9076734840788342e-06 -4.8190105938136545e-06 0 9.2510314582804031e-06 -2.7345443391912196e-06 0 9.9076734840788342e-06 -4.8190105938136545e-06 0 1.0991564417149042e-05 -1.5669003657111893e-06 0 9.2510314582804031e-06 -2.7345443391912196e-06 0 7.8617203571158086e-06 -5.3255729133126794e-06 0 9.9076734840788342e-06 -4.8190105938136545e-06 0 1.1837536090852664e-05 -3.1336138986089491e-06 0 1.3247530843095262e-05 3.1345599717617013e-07 0 1.0991564417149042e-05 -1.5669003657111893e-06 0 1.5584867505035551e-05 2.7665933970828233e-06 0 1.3247530843095262e-05 3.1345599717617035e-07 0 1.4903354010729932e-05 -2.6075642360112646e-08 0 1.1837536090852664e-05 -3.1336138986089491e-06 0 1.4903354010729932e-05 -2.6075642360112646e-08 0 1.3247530843095262e-05 3.1345599717617035e-07 0 1.1837536090852664e-05 -3.1336138986089491e-06 0 1.3235193844539847e-05 -3.3934453281567249e-06 0 1.4903354010729932e-05 -2.6075642360112646e-08 0 1.1837536090852664e-05 -3.1336138986089491e-06 0 1.1674593308501406e-05 -6.5899336436319742e-06 0 1.3235193844539847e-05 -3.3934453281567245e-06 0 1.4735423426647539e-05 -4.1951966668801287e-06 0 1.4903354010729932e-05 -2.6075642360112646e-08 0 1.3235193844539847e-05 -3.3934453281567245e-06 0 1.4735423426647539e-05 -4.1951966668801287e-06 0 1.3235193844539847e-05 -3.3934453281567241e-06 0 1.1674593308501406e-05 -6.5899336436319751e-06 0 9.0719660852911314e-06 -1.0984875766339492e-05 0 1.1674593308501406e-05 -6.5899336436319751e-06 0 9.7291911450108856e-06 -7.6063082654781248e-06 0 1.1837536090852664e-05 -3.1336138986089491e-06 0 9.7291911450108856e-06 -7.606308265478124e-06 0 1.1674593308501406e-05 -6.5899336436319751e-06 0 1.1837536090852664e-05 -3.1336138986089491e-06 0 9.9076734840788342e-06 -4.8190105938136545e-06 0 9.7291911450108856e-06 -7.6063082654781248e-06 0 8.5627791775977416e-06 -8.1989973410586928e-06 0 9.7291911450108856e-06 -7.606308265478124e-06 0 9.9076734840788342e-06 -4.8190105938136545e-06 0 9.0719660852911314e-06 -1.0984875766339492e-05 0 9.7291911450108856e-06 -7.6063082654781248e-06 0 7.7078160620000163e-06 -1.1922185525851586e-05 0 9.390277350717818e-06 -1.776893078774258e-05 0 7.7078160620000163e-06 -1.1922185525851587e-05 0 8.1959225808335303e-06 -1.224853459404843e-05 0 8.5627791775977416e-06 -8.1989973410586928e-06 0 8.1959225808335303e-06 -1.224853459404843e-05 0 7.7078160620000163e-06 -1.1922185525851586e-05 0 8.5627791775977416e-06 -8.1989973410586928e-06 0 6.6376290477638287e-06 -8.140951199143219e-06 0 8.1959225808335303e-06 -1.224853459404843e-05 0 8.5627791775977416e-06 -8.1989973410586928e-06 0 7.7078160620000163e-06 -1.1922185525851586e-05 0 9.7291911450108856e-06 -7.6063082654781248e-06 0 9.390277350717818e-06 -1.776893078774258e-05 0 5.7841778361867082e-06 -1.3647242690912011e-05 0 3.2294696039186734e-06 -2.1216237041003845e-05 0 3.2294696039186734e-06 -2.1216237041003845e-05 0 5.7841778361867082e-06 -1.3647242690912011e-05 0 -3.6496269398312137e-07 -1.6195924925756268e-05 0 9.390277350717818e-06 -1.776893078774258e-05 0 8.1959225808335303e-06 -1.224853459404843e-05 0 5.7841778361867082e-06 -1.3647242690912011e-05 0 6.6376290477638287e-06 -8.140951199143219e-06 0 5.7841778361867082e-06 -1.3647242690912011e-05 0 8.1959225808335303e-06 -1.224853459404843e-05 0 2.0034546675403125e-06 -9.9204630271128485e-06 0 -3.6496269398312137e-07 -1.6195924925756268e-05 0 5.7841778361867082e-06 -1.3647242690912011e-05 0 2.0034546675403125e-06 -9.9204630271128485e-06 0 5.7841778361867073e-06 -1.3647242690912012e-05 0 6.6376290477638287e-06 -8.140951199143219e-06 0 2.0034546675403125e-06 -9.9204630271128485e-06 0 6.6376290477638287e-06 -8.140951199143219e-06 0 3.0277998772282041e-06 -5.1297064436986107e-06 0 5.9757566786565905e-06 -3.4673649792147387e-06 0 3.0277998772282041e-06 -5.1297064436986107e-06 0 6.6376290477638287e-06 -8.140951199143219e-06 0 8.5627791775977416e-06 -8.1989973410586928e-06 0 9.9076734840788342e-06 -4.8190105938136545e-06 0 7.8617203571158086e-06 -5.3255729133126794e-06 0 8.5627791775977416e-06 -8.1989973410586928e-06 0 7.8617203571158086e-06 -5.3255729133126794e-06 0 6.6376290477638287e-06 -8.140951199143219e-06 0 5.9757566786565905e-06 -3.4673649792147387e-06 0 6.6376290477638287e-06 -8.140951199143219e-06 0 7.8617203571158086e-06 -5.3255729133126794e-06 0 7.8617203571158086e-06 -5.3255729133126794e-06 0 7.7405721510106552e-06 -4.4177943289926802e-07 0 5.9757566786565905e-06 -3.4673649792147387e-06 0 9.2510314582804031e-06 -2.7345443391912196e-06 0 7.7405721510106552e-06 -4.4177943289926802e-07 0 7.8617203571158086e-06 -5.3255729133126794e-06 0 5.9757566786565905e-06 -3.4673649792147387e-06 0 7.7405721510106535e-06 -4.4177943289926749e-07 0 5.7730646828130985e-06 -8.2598899503969038e-07 0 7.7405721510106552e-06 -4.4177943289926802e-07 0 6.3438412996113453e-06 8.3062073943465749e-07 0 5.7730646828130985e-06 -8.2598899503969038e-07 0 -1.9896559711086746e-07 -2.2090212718040478e-06 0 3.0277998772282041e-06 -5.1297064436986107e-06 0 3.6643088899627831e-06 -1.5961093182553743e-06 0 5.9757566786565905e-06 -3.4673649792147387e-06 0 3.6643088899627836e-06 -1.5961093182553743e-06 0 3.0277998772282041e-06 -5.1297064436986107e-06 0 5.9757566786565905e-06 -3.4673649792147387e-06 0 5.7730646828130977e-06 -8.2598899503969017e-07 0 3.6643088899627831e-06 -1.5961093182553743e-06 0 4.4941837316205351e-06 7.2036101728791821e-07 0 3.6643088899627831e-06 -1.5961093182553743e-06 0 5.7730646828130985e-06 -8.2598899503969038e-07 0 -1.9896559711086746e-07 -2.2090212718040478e-06 0 3.6643088899627836e-06 -1.5961093182553741e-06 0 1.9835995183605901e-06 6.3186222304862299e-07 0 4.4941837316205351e-06 7.2036101728791821e-07 0 1.9835995183605901e-06 6.3186222304862288e-07 0 3.6643088899627831e-06 -1.5961093182553743e-06 0 4.4941837316205351e-06 7.2036101728791821e-07 0 3.0367446968404053e-06 2.412439084920349e-06 0 1.9835995183605901e-06 6.3186222304862299e-07 0 8.0700641350371369e-07 2.0687931198533905e-06 0 1.9835995183605901e-06 6.3186222304862299e-07 0 3.0367446968404053e-06 2.412439084920349e-06 0 8.0700641350371369e-07 2.0687931198533905e-06 0 -9.8152830224506168e-07 9.5143572903613752e-07 0 1.9835995183605901e-06 6.3186222304862299e-07 0 7.5449647527457327e-06 1.8058653925527461e-06 0 6.3438412996113453e-06 8.3062073943465728e-07 0 7.7405721510106552e-06 -4.4177943289926802e-07 0 4.4941837316205351e-06 7.2036101728791821e-07 0 5.7730646828130985e-06 -8.2598899503969038e-07 0 6.3438412996113453e-06 8.3062073943465749e-07 0 4.4941837316205351e-06 7.2036101728791821e-07 0 6.3438412996113453e-06 8.3062073943465749e-07 0 5.3875768254151842e-06 2.0450660556789464e-06 0 4.4941837316205351e-06 7.2036101728791821e-07 0 5.3875768254151842e-06 2.0450660556789464e-06 0 3.0367446968404053e-06 2.412439084920349e-06 0 7.5449647527457327e-06 1.8058653925527461e-06 0 5.3875768254151842e-06 2.0450660556789464e-06 0 6.3438412996113453e-06 8.3062073943465749e-07 0 7.5449647527457327e-06 1.8058653925527461e-06 0 5.5286203159508622e-06 2.8289579416094332e-06 0 5.3875768254151842e-06 2.0450660556789464e-06 0 7.5449647527457327e-06 1.8058653925527461e-06 0 9.8291376039752286e-06 1.9893780871226273e-06 0 7.6013422461528095e-06 2.5639076592685976e-06 0 9.8291376039752286e-06 1.9893780871226273e-06 0 9.9142047733072503e-06 2.536552056200766e-06 0 7.6013422461528095e-06 2.5639076592685976e-06 0 7.5449647527457327e-06 1.8058653925527461e-06 0 9.2849648179256035e-06 8.3748021144192931e-07 0 9.8291376039752286e-06 1.9893780871226273e-06 0 7.5449647527457327e-06 1.8058653925527461e-06 0 7.7405721510106552e-06 -4.4177943289926802e-07 0 9.2849648179256035e-06 8.3748021144192931e-07 0 7.7405721510106552e-06 -4.4177943289926802e-07 0 9.809616245783046e-06 -5.6055404120833042e-07 0 9.2849648179256035e-06 8.3748021144192931e-07 0 1.145769356089706e-05 9.7952888045574232e-07 0 9.2849648179256035e-06 8.3748021144192931e-07 0 9.809616245783046e-06 -5.6055404120833042e-07 0 1.145769356089706e-05 9.7952888045574232e-07 0 9.8291376039752286e-06 1.9893780871226273e-06 0 9.2849648179256035e-06 8.3748021144192931e-07 0 1.145769356089706e-05 9.7952888045574232e-07 0 9.809616245783046e-06 -5.6055404120833042e-07 0 1.0991564417149042e-05 -1.5669003657111893e-06 0 9.2510314582804031e-06 -2.7345443391912196e-06 0 1.0991564417149042e-05 -1.5669003657111895e-06 0 9.809616245783046e-06 -5.6055404120833042e-07 0 9.2510314582804031e-06 -2.7345443391912196e-06 0 9.809616245783046e-06 -5.6055404120833053e-07 0 7.7405721510106552e-06 -4.4177943289926802e-07 0 1.5584867505035551e-05 2.7665933970828233e-06 0 1.3511282583816534e-05 2.1022225559568619e-06 0 1.3247530843095262e-05 3.1345599717617035e-07 0 1.145769356089706e-05 9.7952888045574232e-07 0 1.3247530843095262e-05 3.1345599717617035e-07 0 1.3511282583816534e-05 2.1022225559568619e-06 0 1.145769356089706e-05 9.7952888045574232e-07 0 1.0991564417149042e-05 -1.5669003657111893e-06 0 1.3247530843095262e-05 3.1345599717617035e-07 0 1.145769356089706e-05 9.7952888045574232e-07 0 1.2084255373890667e-05 2.3631396285175376e-06 0 9.8291376039752286e-06 1.9893780871226273e-06 0 1.3511282583816534e-05 2.1022225559568619e-06 0 1.4910473937078247e-05 3.4563604129616848e-06 0 1.2084255373890667e-05 2.3631396285175376e-06 0 1.145769356089706e-05 9.7952888045574232e-07 0 1.3511282583816534e-05 2.1022225559568619e-06 0 1.2084255373890667e-05 2.3631396285175376e-06 0 1.2383421302314778e-05 2.7993302729034629e-06 0 9.9142047733072503e-06 2.536552056200766e-06 0 1.2084255373890667e-05 2.3631396285175376e-06 0 9.8291376039752286e-06 1.9893780871226273e-06 0 1.2084255373890667e-05 2.3631396285175376e-06 0 9.9142047733072503e-06 2.536552056200766e-06 0 1.2383421302314778e-05 2.7993302729034629e-06 0 1.0187863277727495e-05 2.5187924201618417e-06 0 9.9142047733072503e-06 2.536552056200766e-06 0 8.1879325291209509e-06 2.6099308153484146e-06 0 1.0187863277727495e-05 2.5187924201618413e-06 0 7.9000454648085712e-06 2.3258917834489296e-06 0 8.1879325291209509e-06 2.6099308153484146e-06 0 7.9000454648085712e-06 2.3258917834489296e-06 0 6.4440165240873662e-06 2.7553826032046072e-06 0 8.1879325291209509e-06 2.6099308153484146e-06 0 7.6013422461528095e-06 2.5639076592685976e-06 0 9.9142047733072503e-06 2.536552056200766e-06 0 8.1879325291209509e-06 2.6099308153484146e-06 0 9.9142047733072503e-06 2.536552056200766e-06 0 1.0187863277727495e-05 2.5187924201618417e-06 0 7.5449647527457327e-06 1.8058653925527461e-06 0 7.6013422461528095e-06 2.5639076592685972e-06 0 5.5286203159508631e-06 2.8289579416094332e-06 0 4.524518045832606e-06 2.9967278716082408e-06 0 5.5286203159508631e-06 2.8289579416094332e-06 0 6.4440165240873662e-06 2.7553826032046072e-06 0 5.5286203159508631e-06 2.8289579416094332e-06 0 7.6013422461528095e-06 2.5639076592685976e-06 0 6.4440165240873662e-06 2.7553826032046072e-06 0 8.1879325291209509e-06 2.6099308153484146e-06 0 6.4440165240873662e-06 2.7553826032046072e-06 0 7.6013422461528095e-06 2.5639076592685976e-06 0 5.9449217830769762e-06 2.3040779139999905e-06 0 4.4846752505060813e-06 2.5343887371791868e-06 0 6.4440165240873662e-06 2.7553826032046072e-06 0 4.524518045832606e-06 2.9967278716082408e-06 0 6.4440165240873662e-06 2.7553826032046072e-06 0 4.4846752505060813e-06 2.5343887371791868e-06 0 4.524518045832606e-06 2.9967278716082408e-06 0 4.4846752505060813e-06 2.5343887371791868e-06 0 2.9909414060155194e-06 2.6140684625004172e-06 0 5.9449217830769762e-06 2.3040779139999905e-06 0 4.1292307240898281e-06 1.8447024472295224e-06 0 4.4846752505060813e-06 2.5343887371791868e-06 0 5.007768932035722e-06 1.3452333446969941e-06 0 4.1292307240898281e-06 1.8447024472295224e-06 0 5.9449217830769762e-06 2.3040779139999905e-06 0 5.007768932035722e-06 1.3452333446969941e-06 0 5.9449217830769762e-06 2.3040779139999905e-06 0 7.0933515317822258e-06 1.7567223544851329e-06 0 5.9449217830769762e-06 2.3040779139999905e-06 0 7.9000454648085712e-06 2.3258917834489296e-06 0 7.0933515317822258e-06 1.7567223544851329e-06 0 5.9449217830769762e-06 2.3040779139999905e-06 0 6.4440165240873662e-06 2.7553826032046072e-06 0 7.9000454648085712e-06 2.3258917834489296e-06 0 8.0700641350371369e-07 2.0687931198533905e-06 0 3.0367446968404053e-06 2.4124390849203486e-06 0 1.0989977299895034e-06 3.0876893605577458e-06 0 2.9268608395430403e-06 3.211856162374398e-06 0 1.0989977299895034e-06 3.0876893605577458e-06 0 3.0367446968404053e-06 2.412439084920349e-06 0 2.9268608395430403e-06 3.211856162374398e-06 0 1.2833249710439668e-06 3.4590219906335906e-06 0 1.0989977299895034e-06 3.0876893605577458e-06 0 2.9268608395430403e-06 3.211856162374398e-06 0 4.2762786405858652e-06 2.7643480882590378e-06 0 4.0133297769720861e-06 3.1395309044447394e-06 0 2.9268608395430403e-06 3.211856162374398e-06 0 3.0367446968404053e-06 2.412439084920349e-06 0 4.2762786405858652e-06 2.7643480882590378e-06 0 3.0367446968404053e-06 2.412439084920349e-06 0 5.3875768254151842e-06 2.0450660556789464e-06 0 4.2762786405858652e-06 2.7643480882590378e-06 0 5.5286203159508631e-06 2.8289579416094332e-06 0 4.2762786405858652e-06 2.7643480882590378e-06 0 5.3875768254151842e-06 2.0450660556789464e-06 0 5.5286203159508631e-06 2.8289579416094332e-06 0 4.0133297769720861e-06 3.1395309044447394e-06 0 4.2762786405858652e-06 2.7643480882590378e-06 0 4.524518045832606e-06 2.9967278716082408e-06 0 4.0133297769720861e-06 3.1395309044447394e-06 0 5.5286203159508631e-06 2.8289579416094332e-06 0 4.524518045832606e-06 2.9967278716082408e-06 0 2.5731661898163524e-06 3.2739996538214697e-06 0 4.0133297769720861e-06 3.1395309044447394e-06 0 4.524518045832606e-06 2.9967278716082408e-06 0 2.9909414060155194e-06 2.6140684625004172e-06 0 2.5731661898163524e-06 3.2739996538214697e-06 0 2.9268608395430403e-06 3.211856162374398e-06 0 4.0133297769720853e-06 3.1395309044447394e-06 0 2.5731661898163524e-06 3.2739996538214697e-06 0 2.9268608395430403e-06 3.211856162374398e-06 0 2.5731661898163524e-06 3.2739996538214702e-06 0 1.2833249710439668e-06 3.4590219906335906e-06 0 6.3551907045166743e-07 3.3270771890706595e-06 0 1.2833249710439668e-06 3.4590219906335906e-06 0 2.5731661898163524e-06 3.2739996538214697e-06 0 6.3551907045166743e-07 3.3270771890706595e-06 0 -1.6752944814324029e-07 3.4549631531694994e-06 0 1.2833249710439668e-06 3.4590219906335906e-06 0 -5.3943112132614453e-07 3.4246831687647076e-06 0 1.0989977299895034e-06 3.0876893605577458e-06 0 1.2833249710439668e-06 3.4590219906335906e-06 0 -5.3943112132614453e-07 3.4246831687647076e-06 0 1.2833249710439668e-06 3.4590219906335906e-06 0 -1.6752944814324029e-07 3.4549631531694994e-06 0 2.5856699939849516e-07 1.8994115307430229e-06 0 -6.5744556173704568e-08 3.007779344915158e-06 0 1.1109216685553468e-06 2.8547643411780915e-06 0 6.3551907045166743e-07 3.3270771890706595e-06 0 -6.5744556173704582e-08 3.007779344915158e-06 0 -1.6752944814324029e-07 3.4549631531694994e-06 0 6.3551907045166743e-07 3.3270771890706595e-06 0 1.1109216685553468e-06 2.8547643411780915e-06 0 -6.5744556173704568e-08 3.007779344915158e-06 0 6.3551907045166743e-07 3.3270771890706595e-06 0 2.5731661898163524e-06 3.2739996538214697e-06 0 1.1109216685553468e-06 2.8547643411780915e-06 0 2.5856699939849516e-07 1.8994115307430229e-06 0 1.1109216685553468e-06 2.8547643411780915e-06 0 6.9462458538518751e-07 1.6480415808841196e-06 0 1.7363026458711638e-06 2.5078656134320252e-06 0 6.9462458538518751e-07 1.6480415808841196e-06 0 1.1109216685553468e-06 2.8547643411780915e-06 0 1.7363026458711638e-06 2.5078656134320252e-06 0 1.1109216685553468e-06 2.8547643411780911e-06 0 2.5731661898163524e-06 3.2739996538214697e-06 0 1.7363026458711638e-06 2.5078656134320252e-06 0 2.5731661898163524e-06 3.2739996538214697e-06 0 2.9909414060155194e-06 2.6140684625004172e-06 0 1.7363026458711638e-06 2.5078656134320252e-06 0 2.9909414060155194e-06 2.6140684625004172e-06 0 1.2012167657147666e-06 1.5515380104484509e-06 0 1.7363026458711638e-06 2.5078656134320252e-06 0 1.2012167657147666e-06 1.5515380104484507e-06 0 6.9462458538518751e-07 1.6480415808841196e-06 0 8.1299305207242538e-10 7.5429822172604687e-10 0 6.9462458538518751e-07 1.6480415808841196e-06 0 1.2012167657147666e-06 1.5515380104484509e-06 0 8.1299305207242538e-10 7.5429822172604687e-10 0 4.8135230215127851e-10 7.4933115391994481e-10 0 6.9462458538518751e-07 1.6480415808841196e-06 0 4.8135230215127851e-10 7.4933115391994481e-10 0 2.5856699939849516e-07 1.8994115307430229e-06 0 6.9462458538518751e-07 1.6480415808841196e-06 0 4.8135230215127851e-10 7.4933115391994481e-10 0 -2.4747869060248591e-11 8.5343837192306679e-10 0 2.5856699939849516e-07 1.8994115307430229e-06 0 -2.4747869060248591e-11 8.5343837192306679e-10 0 -2.1829552118208693e-07 1.7390789590080799e-06 0 2.5856699939849516e-07 1.8994115307430229e-06 0 2.4928455693461664e-06 1.7099550869801459e-06 0 4.1292307240898281e-06 1.8447024472295222e-06 0 2.5640240155903535e-06 1.0052650405842822e-06 0 5.007768932035722e-06 1.3452333446969941e-06 0 2.5640240155903535e-06 1.0052650405842822e-06 0 4.1292307240898281e-06 1.8447024472295224e-06 0 4.1292307240898281e-06 1.8447024472295224e-06 0 2.4928455693461664e-06 1.7099550869801459e-06 0 4.4846752505060813e-06 2.5343887371791868e-06 0 2.4928455693461664e-06 1.7099550869801459e-06 0 2.9909414060155194e-06 2.6140684625004172e-06 0 4.4846752505060813e-06 2.5343887371791868e-06 0 2.4928455693461664e-06 1.7099550869801459e-06 0 1.2012167657147666e-06 1.5515380104484509e-06 0 2.9909414060155194e-06 2.6140684625004172e-06 0 2.4928455693461664e-06 1.7099550869801459e-06 0 1.0303126844014065e-06 9.506242560119447e-07 0 1.2012167657147666e-06 1.5515380104484509e-06 0 1.2789179113882377e-09 5.0166166317069822e-10 0 8.1299305207242538e-10 7.5429822172604687e-10 0 1.2012167657147666e-06 1.5515380104484509e-06 0 1.2789179113882377e-09 5.0166166317069822e-10 0 1.2012167657147666e-06 1.5515380104484509e-06 0 1.0303126844014068e-06 9.5062425601194492e-07 0 1.5087999123819299e-09 4.2318109593657194e-10 0 1.2789179113882377e-09 5.0166166317069822e-10 0 1.0303126844014068e-06 9.5062425601194492e-07 0 1.5087999123819299e-09 4.2318109593657194e-10 0 1.0303126844014068e-06 9.5062425601194502e-07 0 1.0896445685029343e-06 7.1121802662491806e-07 0 1.6253635146461012e-09 3.5347807822608045e-10 0 1.0896445685029343e-06 7.1121802662491806e-07 0 2.5640240155903535e-06 1.0052650405842822e-06 0 2.4928455693461664e-06 1.7099550869801459e-06 0 2.5640240155903535e-06 1.0052650405842822e-06 0 1.0896445685029343e-06 7.1121802662491806e-07 0 2.4928455693461664e-06 1.7099550869801459e-06 0 1.0896445685029343e-06 7.1121802662491806e-07 0 1.0303126844014068e-06 9.5062425601194492e-07 0 1.6253635146461012e-09 3.5347807822608045e-10 0 1.5087999123819299e-09 4.2318109593657194e-10 0 1.0896445685029343e-06 7.1121802662491806e-07 0 1.6253635146461012e-09 3.5347807822608045e-10 0 2.5640240155903535e-06 1.0052650405842822e-06 0 1.6701467979512819e-06 2.9515228791825881e-07 0 1.7525256334837271e-09 -1.078621695785882e-10 0 1.6253635146461924e-09 3.5347807822609658e-10 0 1.6701467979512819e-06 2.9515228791825881e-07 0 1.7525256334837271e-09 -1.078621695785882e-10 0 1.6701467979512819e-06 2.9515228791825881e-07 0 1.2742041560223772e-06 -1.1709403219600275e-07 0 3.1616720336792809e-06 -2.195588122092082e-08 0 1.2742041560223772e-06 -1.1709403219600275e-07 0 1.6701467979512819e-06 2.9515228791825881e-07 0 2.5640240155903535e-06 1.0052650405842822e-06 0 3.4599261750763531e-06 5.7123065464791991e-07 0 1.6701467979512819e-06 2.9515228791825881e-07 0 5.007768932035722e-06 1.3452333446969941e-06 0 3.4599261750763527e-06 5.7123065464791991e-07 0 2.5640240155903535e-06 1.0052650405842822e-06 0 3.1616720336792809e-06 -2.195588122092082e-08 0 1.6701467979512819e-06 2.9515228791825881e-07 0 3.4599261750763527e-06 5.7123065464791991e-07 0 3.1616720336792809e-06 -2.195588122092082e-08 0 3.4599261750763527e-06 5.7123065464791991e-07 0 5.0105393729403445e-06 2.1648228590075182e-07 0 3.4599261750763527e-06 5.7123065464791991e-07 0 5.007768932035722e-06 1.3452333446969941e-06 0 5.0105393729403445e-06 2.1648228590075182e-07 0 3.1616720336792809e-06 -2.195588122092082e-08 0 5.0105393729403445e-06 2.1648228590075182e-07 0 4.2564600276454744e-06 -6.8686888358973508e-07 0 3.1328650234321172e-06 -1.4206134447680646e-06 0 1.8263006412462343e-06 -6.403367477389106e-07 0 4.2564600276454744e-06 -6.8686888358973508e-07 0 3.1616720336792809e-06 -2.195588122092082e-08 0 4.2564600276454744e-06 -6.8686888358973508e-07 0 1.8263006412462343e-06 -6.403367477389106e-07 0 3.1616720336792809e-06 -2.195588122092082e-08 0 1.8263006412462343e-06 -6.403367477389106e-07 0 1.2742041560223772e-06 -1.1709403219600275e-07 0 1.783926783136826e-09 2.0962961120083077e-11 0 1.7525256334834938e-09 -1.0786216957856674e-10 0 1.2742041560223772e-06 -1.1709403219600275e-07 0 1.3894274194410899e-09 -5.5334278119592258e-10 0 1.783926783136826e-09 2.0962961120083077e-11 0 1.8263006412462343e-06 -6.403367477389106e-07 0 1.783926783136826e-09 2.0962961120083077e-11 0 1.2742041560223772e-06 -1.1709403219600281e-07 0 1.8263006412462343e-06 -6.403367477389106e-07 0 1.0258703701862398e-09 -7.0272227835657674e-10 0 1.3894274194410899e-09 -5.5334278119592258e-10 0 1.4141077052360834e-06 -1.2458911231057071e-06 0 3.1328650234321172e-06 -1.4206134447680646e-06 0 1.4141077052360836e-06 -1.2458911231057071e-06 0 1.8263006412462343e-06 -6.403367477389106e-07 0 1.3894274194410899e-09 -5.5334278119592258e-10 0 1.8263006412462343e-06 -6.403367477389106e-07 0 1.4141077052360834e-06 -1.2458911231057071e-06 0 4.4841429871260043e-10 -1.0428340857187427e-09 0 1.0258703701862398e-09 -7.0272227835657674e-10 0 9.1614774754336432e-07 -1.9653467306594553e-06 0 1.0258703701862398e-09 -7.0272227835657674e-10 0 1.4141077052360834e-06 -1.2458911231057071e-06 0 9.1614774754336432e-07 -1.9653467306594553e-06 0 4.4841429871260043e-10 -1.0428340857187427e-09 0 9.1614774754336432e-07 -1.9653467306594553e-06 0 2.0985152533129617e-07 -2.1325072816544523e-06 0 9.1614774754336432e-07 -1.9653467306594553e-06 0 3.0355564118261766e-06 -2.4829949552780989e-06 0 1.1568875724757173e-06 -3.3239908313864467e-06 0 2.7156000886123377e-06 -3.235742434642041e-06 0 1.1568875724757173e-06 -3.3239908313864467e-06 0 3.0355564118261766e-06 -2.4829949552780989e-06 0 9.1614774754336432e-07 -1.9653467306594553e-06 0 1.4141077052360834e-06 -1.2458911231057071e-06 0 3.0355564118261766e-06 -2.4829949552780989e-06 0 2.7156000886123377e-06 -3.235742434642041e-06 0 2.219818117793729e-06 -3.7177059801143826e-06 0 1.1568875724757173e-06 -3.3239908313864467e-06 0 3.1328650234321172e-06 -1.4206134447680646e-06 0 3.0355564118261766e-06 -2.4829949552780989e-06 0 1.4141077052360834e-06 -1.2458911231057071e-06 0 3.1328650234321172e-06 -1.4206134447680646e-06 0 4.9180232517082262e-06 -1.3456235471864218e-06 0 3.0355564118261766e-06 -2.4829949552780989e-06 0 3.1328650234321172e-06 -1.4206134447680646e-06 0 4.2564600276454753e-06 -6.8686888358973508e-07 0 4.9180232517082262e-06 -1.3456235471864218e-06 0 6.5723558592126434e-06 -1.6900342269444104e-06 0 3.0355564118261766e-06 -2.4829949552780989e-06 0 4.9180232517082262e-06 -1.3456235471864218e-06 0 7.1344652113518449e-06 -2.7236507115457992e-07 0 6.5723558592126434e-06 -1.6900342269444104e-06 0 4.9180232517082262e-06 -1.3456235471864218e-06 0 7.1344652113518449e-06 -2.7236507115457992e-07 0 9.3383583999556545e-06 3.7476611015322505e-08 0 6.5723558592126434e-06 -1.6900342269444104e-06 0 6.5723558592126434e-06 -1.6900342269444104e-06 0 4.5514973551541356e-06 -2.8284461154094688e-06 0 3.0355564118261766e-06 -2.4829949552780989e-06 0 2.7156000886123377e-06 -3.235742434642041e-06 0 4.5514973551541356e-06 -2.8284461154094688e-06 0 2.219818117793729e-06 -3.7177059801143826e-06 0 2.7156000886123377e-06 -3.235742434642041e-06 0 3.0355564118261766e-06 -2.4829949552780989e-06 0 4.5514973551541356e-06 -2.8284461154094688e-06 0 6.5723558592126434e-06 -1.6900342269444104e-06 0 6.2376667777054502e-06 -2.3511991433529222e-06 0 4.5514973551541356e-06 -2.8284461154094688e-06 0 3.1088827921711339e-06 -3.6889827629992322e-06 0 2.219818117793729e-06 -3.7177059801143826e-06 0 4.5514973551541356e-06 -2.8284461154094688e-06 0 3.1088827921711339e-06 -3.6889827629992322e-06 0 4.5514973551541356e-06 -2.8284461154094688e-06 0 6.2376667777054502e-06 -2.3511991433529222e-06 0 3.1088827921711339e-06 -3.6889827629992322e-06 0 6.2376667777054502e-06 -2.3511991433529222e-06 0 7.0519427029854765e-06 -2.0117077414352176e-06 0 9.6413811269698003e-06 -6.732177286736776e-07 0 7.0519427029854765e-06 -2.0117077414352176e-06 0 6.2376667777054502e-06 -2.3511991433529222e-06 0 9.6413811269698003e-06 -6.732177286736776e-07 0 1.0673362662632017e-05 1.0655490496771039e-07 0 7.0519427029854765e-06 -2.0117077414352176e-06 0 7.0943453815245135e-06 -1.1380871338926948e-06 0 2.6665220406785629e-06 -3.1227204321848719e-06 0 7.0519427029854765e-06 -2.0117077414352176e-06 0 7.0943453815245135e-06 -1.1380871338926948e-06 0 7.0519427029854765e-06 -2.0117077414352176e-06 0 1.0673362662632019e-05 1.0655490496771004e-07 0 9.6413811269698003e-06 -6.732177286736776e-07 0 6.5723558592126434e-06 -1.6900342269444104e-06 0 9.3383583999556545e-06 3.7476611015322505e-08 0 9.6413811269698003e-06 -6.732177286736776e-07 0 6.2376667777054502e-06 -2.3511991433529222e-06 0 6.5723558592126434e-06 -1.6900342269444104e-06 0 9.6413811269698003e-06 -6.732177286736776e-07 0 9.3383583999556545e-06 3.7476611015322505e-08 0 1.2100971276578147e-05 1.1483973032142938e-06 0 9.6413811269698003e-06 -6.732177286736776e-07 0 1.2100971276578147e-05 1.1483973032142938e-06 0 1.3904937391207528e-05 1.9095200050456069e-06 0 1.1066990100803487e-05 1.4530140250257664e-06 0 1.2100971276578147e-05 1.1483973032142938e-06 0 9.3383583999556545e-06 3.7476611015322505e-08 0 1.3510985870139971e-05 2.3022163204837059e-06 0 1.2100971276578147e-05 1.1483973032142938e-06 0 1.1066990100803487e-05 1.4530140250257664e-06 0 1.1066990100803487e-05 1.4530140250257664e-06 0 9.3383583999556545e-06 3.7476611015322505e-08 0 8.6583283456730189e-06 7.4616136806582853e-07 0 9.1747468171880154e-06 1.7807246713379166e-06 0 1.1066990100803487e-05 1.4530140250257662e-06 0 8.6583283456730189e-06 7.4616136806582853e-07 0 1.3510985870139971e-05 2.3022163204837059e-06 0 1.1066990100803487e-05 1.4530140250257664e-06 0 1.2019017633694362e-05 2.4110010109772333e-06 0 9.1747468171880154e-06 1.7807246713379166e-06 0 1.2019017633694362e-05 2.4110010109772333e-06 0 1.1066990100803487e-05 1.4530140250257664e-06 0 9.1747468171880154e-06 1.7807246713379166e-06 0 1.0187863277727495e-05 2.5187924201618417e-06 0 1.2019017633694362e-05 2.4110010109772333e-06 0 9.1747468171880154e-06 1.7807246713379166e-06 0 7.0933515317822258e-06 1.7567223544851329e-06 0 7.9000454648085712e-06 2.3258917834489296e-06 0 9.1747468171880154e-06 1.7807246713379166e-06 0 7.9000454648085712e-06 2.3258917834489296e-06 0 1.0187863277727495e-05 2.5187924201618417e-06 0 9.1747468171880154e-06 1.7807246713379166e-06 0 8.6583283456730189e-06 7.4616136806582853e-07 0 6.684840704505235e-06 8.3334290945489834e-07 0 9.1747468171880154e-06 1.7807246713379166e-06 0 6.684840704505235e-06 8.3334290945489834e-07 0 7.0933515317822258e-06 1.7567223544851329e-06 0 5.007768932035722e-06 1.3452333446969941e-06 0 7.0933515317822258e-06 1.7567223544851329e-06 0 6.684840704505235e-06 8.3334290945489834e-07 0 5.0105393729403445e-06 2.1648228590075182e-07 0 5.007768932035722e-06 1.3452333446969941e-06 0 6.684840704505235e-06 8.3334290945489834e-07 0 7.1344652113518449e-06 -2.7236507115457992e-07 0 5.0105393729403445e-06 2.1648228590075182e-07 0 6.684840704505235e-06 8.3334290945489834e-07 0 7.1344652113518449e-06 -2.7236507115457992e-07 0 4.2564600276454744e-06 -6.8686888358973508e-07 0 5.0105393729403445e-06 2.1648228590075182e-07 0 7.1344652113518449e-06 -2.7236507115457992e-07 0 4.9180232517082262e-06 -1.3456235471864218e-06 0 4.2564600276454744e-06 -6.8686888358973508e-07 0 8.6583283456730189e-06 7.4616136806582853e-07 0 9.3383583999556545e-06 3.7476611015322505e-08 0 7.1344652113518449e-06 -2.7236507115457992e-07 0 7.1344652113518449e-06 -2.7236507115457992e-07 0 6.684840704505235e-06 8.3334290945489845e-07 0 8.6583283456730189e-06 7.4616136806582853e-07 0 -1.0778147278063369e-05 -1.8183023162129601e-06 0 -6.2037098140770078e-06 -1.3917906825836451e-06 0 -6.0193901017027984e-06 -2.6191656527168937e-06 0 -3.6556004020865496e-06 -3.0731392268210803e-06 0 -6.0193901017027984e-06 -2.6191656527168937e-06 0 -2.7535033338322748e-06 -1.5666835884778756e-06 0 -2.6473707075954036e-06 -3.9026565892959763e-07 0 -2.7535033338322748e-06 -1.5666835884778756e-06 0 -6.2037098140770078e-06 -1.3917906825836451e-06 0 -6.2037098140770078e-06 -1.3917906825836451e-06 0 -2.7535033338322748e-06 -1.5666835884778756e-06 0 -6.0193901017027984e-06 -2.6191656527168937e-06 0 -2.6473707075954036e-06 -3.9026565892959763e-07 0 -1.205959480561745e-06 -4.8614291562432948e-07 0 -2.7535033338322748e-06 -1.5666835884778756e-06 0 -2.0493557091461368e-09 8.3813003476162685e-10 0 -1.205959480561745e-06 -4.8614291562432948e-07 0 -2.6473707075954036e-06 -3.9026565892959763e-07 0 -2.0493557091461368e-09 8.3813003476162685e-10 0 -2.2464379544276998e-09 -8.6937997862327095e-10 0 -1.205959480561745e-06 -4.8614291562432948e-07 0 -2.2464379544276998e-09 -8.6937997862327095e-10 0 -2.7535033338322748e-06 -1.5666835884778756e-06 0 -1.205959480561745e-06 -4.8614291562432948e-07 0 -2.2464379544276998e-09 -8.6937997862327095e-10 0 -1.645078806513206e-06 -1.987312724977504e-06 0 -2.7535033338322748e-06 -1.5666835884778756e-06 0 -3.6556004020865496e-06 -3.0731392268210803e-06 0 -2.7535033338322748e-06 -1.5666835884778756e-06 0 -1.6450788065132057e-06 -1.987312724977504e-06 0 -2.2464379544276998e-09 -8.6937997862327095e-10 0 -2.001036868704166e-09 -5.405413348549903e-10 0 -1.6450788065132057e-06 -1.987312724977504e-06 0 -2.0010368687045391e-09 -5.4054133485544164e-10 0 -8.7412985275115713e-10 -1.4568626414970989e-09 0 -1.6450788065132057e-06 -1.987312724977504e-06 0 -3.6556004020865496e-06 -3.0731392268210803e-06 0 -1.6450788065132057e-06 -1.987312724977504e-06 0 -1.613102122965907e-06 -3.0561796399189969e-06 0 -3.6556004020865496e-06 -3.0731392268210803e-06 0 -1.6131021229659072e-06 -3.0561796399189969e-06 0 -3.3189265678351207e-06 -4.038922372974197e-06 0 -3.6556004020865496e-06 -3.0731392268210803e-06 0 -5.644685177574713e-06 -3.9748208083580456e-06 0 -6.0193901017027984e-06 -2.6191656527168937e-06 0 -8.607375340539742e-06 -3.4646760966600209e-06 0 -6.0193901017027984e-06 -2.6191656527168937e-06 0 -5.644685177574713e-06 -3.9748208083580456e-06 0 -3.6354973532474943e-06 -4.648949943997356e-06 0 -5.6446851775747121e-06 -3.9748208083580448e-06 0 -3.3189265678351207e-06 -4.038922372974197e-06 0 -3.6556004020865496e-06 -3.0731392268210803e-06 0 -3.3189265678351207e-06 -4.038922372974197e-06 0 -5.644685177574713e-06 -3.9748208083580456e-06 0 -3.6354973532474943e-06 -4.648949943997356e-06 0 -3.3189265678351207e-06 -4.038922372974197e-06 0 -1.8456978250739225e-06 -4.2127386491425085e-06 0 -3.2983476086210372e-07 -3.5252921432541246e-06 0 -1.8456978250739225e-06 -4.2127386491425085e-06 0 -1.613102122965907e-06 -3.0561796399189969e-06 0 -1.613102122965907e-06 -3.0561796399189969e-06 0 -1.8456978250739223e-06 -4.2127386491425085e-06 0 -3.3189265678351207e-06 -4.038922372974197e-06 0 -8.7412985275115713e-10 -1.4568626414970989e-09 0 -3.7923536803002804e-07 -1.9896034935865104e-06 0 -1.613102122965907e-06 -3.0561796399189969e-06 0 -8.7412985275115713e-10 -1.4568626414970989e-09 0 -1.613102122965907e-06 -3.0561796399189973e-06 0 -1.6450788065132057e-06 -1.987312724977504e-06 0 -8.7412985275115713e-10 -1.4568626414970989e-09 0 -2.8414444188113893e-10 -9.5293107139214223e-10 0 -3.7923536803002804e-07 -1.9896034935865104e-06 0 -3.2983476086210372e-07 -3.5252921432541246e-06 0 -1.6131021229659074e-06 -3.0561796399189969e-06 0 -3.7923536803002804e-07 -1.9896034935865104e-06 0 -3.2983476086210372e-07 -3.5252921432541246e-06 0 -3.7923536803002804e-07 -1.9896034935865104e-06 0 2.0985152533129617e-07 -2.1325072816544523e-06 0 -2.8414444188113893e-10 -9.5293107139214223e-10 0 2.0985152533129617e-07 -2.1325072816544523e-06 0 -3.7923536803002804e-07 -1.9896034935865104e-06 0 -2.8414444188113893e-10 -9.5293107139214223e-10 0 4.4841429871260043e-10 -1.0428340857187427e-09 0 2.0985152533129617e-07 -2.1325072816544523e-06 0 9.1614774754336432e-07 -1.9653467306594553e-06 0 1.1568875724757173e-06 -3.3239908313864467e-06 0 2.0985152533129617e-07 -2.1325072816544523e-06 0 -3.2983476086210372e-07 -3.5252921432541246e-06 0 2.0985152533129617e-07 -2.1325072816544523e-06 0 1.1568875724757173e-06 -3.3239908313864467e-06 0 -3.2983476086210372e-07 -3.5252921432541246e-06 0 -8.9221459240899353e-09 -4.4190117961286266e-06 0 -1.8456978250739225e-06 -4.2127386491425085e-06 0 -3.2983476086210372e-07 -3.5252921432541246e-06 0 1.1568875724757173e-06 -3.3239908313864467e-06 0 -8.9221459240899353e-09 -4.4190117961286266e-06 0 -8.9221459240899353e-09 -4.4190117961286266e-06 0 1.1568875724757173e-06 -3.3239908313864467e-06 0 2.219818117793729e-06 -3.7177059801143826e-06 0 3.1088827921711339e-06 -3.6889827629992322e-06 0 -8.9221459240899353e-09 -4.4190117961286266e-06 0 2.219818117793729e-06 -3.7177059801143826e-06 0 3.1088827921711339e-06 -3.6889827629992322e-06 0 -1.3950413841528839e-06 -4.5482386331932986e-06 0 -8.9221459240899353e-09 -4.4190117961286266e-06 0 3.1088827921711339e-06 -3.6889827629992322e-06 0 7.0519427029854765e-06 -2.0117077414352176e-06 0 2.6665220406785629e-06 -3.1227204321848719e-06 0 -1.6119477499037258e-06 -3.649607986403973e-06 0 2.6665220406785629e-06 -3.1227204321848719e-06 0 -8.047522920008347e-07 -1.9995849329530703e-06 0 -1.6119477499037258e-06 -3.649607986403973e-06 0 -1.3950413841528839e-06 -4.5482386331932986e-06 0 2.6665220406785629e-06 -3.1227204321848719e-06 0 3.1088827921711339e-06 -3.6889827629992322e-06 0 2.6665220406785629e-06 -3.1227204321848719e-06 0 -1.3950413841528839e-06 -4.5482386331932986e-06 0 -1.6119477499037258e-06 -3.649607986403973e-06 0 -6.1234196794429411e-06 -4.3259689524368401e-06 0 -1.3950413841528839e-06 -4.5482386331932986e-06 0 -1.6119477499037258e-06 -3.649607986403973e-06 0 -8.047522920008347e-07 -1.9995849329530703e-06 0 -6.2042135706498383e-06 -2.9827469555477796e-06 0 -1.6119477499037258e-06 -3.649607986403973e-06 0 -6.2042135706498383e-06 -2.9827469555477796e-06 0 -6.1234196794429411e-06 -4.3259689524368401e-06 0 -3.6354973532474943e-06 -4.648949943997356e-06 0 -1.3950413841528839e-06 -4.5482386331932986e-06 0 -6.1234196794429411e-06 -4.3259689524368401e-06 0 -3.6354973532474943e-06 -4.648949943997356e-06 0 -6.1234196794429411e-06 -4.3259689524368401e-06 0 -7.0491434355057982e-06 -4.2524906342978744e-06 0 -3.6354973532474943e-06 -4.648949943997356e-06 0 -8.9221459240899353e-09 -4.4190117961286266e-06 0 -1.3950413841528839e-06 -4.5482386331932986e-06 0 -3.6354973532474943e-06 -4.648949943997356e-06 0 -1.8456978250739225e-06 -4.2127386491425085e-06 0 -8.9221459240899353e-09 -4.4190117961286266e-06 0 -3.6354973532474943e-06 -4.648949943997356e-06 0 -7.0491434355057982e-06 -4.2524906342978744e-06 0 -5.644685177574713e-06 -3.9748208083580456e-06 0 -8.607375340539742e-06 -3.4646760966600209e-06 0 -5.644685177574713e-06 -3.9748208083580456e-06 0 -7.0491434355057982e-06 -4.2524906342978744e-06 0 -1.0877569308652305e-05 -3.4991397245038848e-06 0 -8.6073753405397403e-06 -3.4646760966600209e-06 0 -7.0491434355057982e-06 -4.2524906342978744e-06 0 -1.0877569308652305e-05 -3.4991397245038848e-06 0 -7.0491434355057982e-06 -4.2524906342978744e-06 0 -6.1234196794429411e-06 -4.3259689524368401e-06 0 -1.0877569308652305e-05 -3.4991397245038848e-06 0 -6.1234196794429411e-06 -4.3259689524368401e-06 0 -1.2834341363440036e-05 -2.3127589522087168e-06 0 -6.1234196794429411e-06 -4.3259689524368401e-06 0 -6.2042135706498383e-06 -2.98274695554778e-06 0 -1.2834341363440036e-05 -2.3127589522087168e-06 0 -1.0877569308652305e-05 -3.4991397245038848e-06 0 -1.2834341363440034e-05 -2.3127589522087168e-06 0 -1.6792912450417125e-05 -1.6537961068844911e-06 0 -1.0877569308652305e-05 -3.4991397245038848e-06 0 -1.6792912450417125e-05 -1.6537961068844911e-06 0 -1.2907940843190235e-05 -2.6162449101265583e-06 0 -2.1286536932845251e-05 8.9979321062074278e-07 0 -1.6792912450417125e-05 -1.6537961068844911e-06 0 -1.2834341363440036e-05 -2.3127589522087168e-06 0 -2.3088435930516369e-05 1.2337745040815032e-06 0 -1.6374994223770392e-05 -9.8910515066844857e-07 0 -1.6792912450417125e-05 -1.6537961068844911e-06 0 -1.6374994223770392e-05 -9.8910515066844857e-07 0 -1.2907940843190235e-05 -2.6162449101265583e-06 0 -1.6792912450417125e-05 -1.6537961068844911e-06 0 -1.6374994223770392e-05 -9.8910515066844857e-07 0 -1.0778147278063369e-05 -1.8183023162129601e-06 0 -1.2907940843190235e-05 -2.6162449101265583e-06 0 -1.0877569308652305e-05 -3.4991397245038848e-06 0 -1.2907940843190235e-05 -2.6162449101265583e-06 0 -8.607375340539742e-06 -3.4646760966600209e-06 0 -1.0778147278063369e-05 -1.8183023162129601e-06 0 -8.607375340539742e-06 -3.4646760966600209e-06 0 -1.2907940843190235e-05 -2.6162449101265583e-06 0 -1.0778147278063369e-05 -1.8183023162129601e-06 0 -6.0193901017027984e-06 -2.6191656527168941e-06 0 -8.607375340539742e-06 -3.4646760966600209e-06 0 -3.999079118268898e-05 1.2549432876092781e-05 0 -2.8011313952372475e-05 6.2463632755442355e-06 0 -3.5155224566539197e-05 1.2421425397460996e-05 0 -5.0602057299358862e-05 2.2599334062014062e-05 0 -3.999079118268898e-05 1.2549432876092781e-05 0 -3.5155224566539197e-05 1.2421425397460996e-05 0 -2.4261901838508474e-05 9.374283025217551e-06 0 -3.5155224566539197e-05 1.2421425397460996e-05 0 -2.8011313952372475e-05 6.2463632755442355e-06 0 -2.4261901838508474e-05 9.374283025217551e-06 0 -3.5157041704079984e-05 1.8509835578762555e-05 0 -3.5155224566539197e-05 1.2421425397460996e-05 0 -3.999079118268898e-05 1.2549432876092781e-05 0 -3.0845496061301845e-05 5.5209747016406845e-06 0 -2.8011313952372475e-05 6.2463632755442355e-06 0 -3.0845496061301845e-05 5.5209747016406845e-06 0 -2.3088435930516369e-05 1.2337745040815032e-06 0 -2.1286536932845251e-05 8.9979321062074278e-07 0 -2.3088435930516369e-05 1.2337745040815032e-06 0 -1.6792912450417125e-05 -1.6537961068844911e-06 0 -2.1286536932845251e-05 8.9979321062074278e-07 0 -3.0845496061301845e-05 5.5209747016406845e-06 0 -2.1286536932845251e-05 8.9979321062074289e-07 0 -2.8011313952372475e-05 6.2463632755442355e-06 0 -2.1286536932845251e-05 8.9979321062074278e-07 0 -1.6099950645160146e-05 2.1339007015980856e-06 0 -2.8011313952372475e-05 6.2463632755442355e-06 0 -1.0317550713570092e-05 -1.0820163377526142e-06 0 -1.6099950645160146e-05 2.1339007015980865e-06 0 -1.2834341363440036e-05 -2.3127589522087168e-06 0 -2.1286536932845251e-05 8.9979321062074278e-07 0 -1.2834341363440036e-05 -2.3127589522087168e-06 0 -1.6099950645160146e-05 2.1339007015980865e-06 0 -1.0317550713570092e-05 -1.0820163377526142e-06 0 -1.2834341363440036e-05 -2.3127589522087168e-06 0 -6.2042135706498383e-06 -2.9827469555477796e-06 0 -2.4261901838508474e-05 9.374283025217551e-06 0 -1.6099950645160146e-05 2.1339007015980865e-06 0 -1.5103460122788469e-05 8.2787242140708602e-06 0 -2.4261901838508474e-05 9.374283025217551e-06 0 -2.8011313952372475e-05 6.2463632755442355e-06 0 -1.6099950645160146e-05 2.1339007015980865e-06 0 -2.4261901838508474e-05 9.374283025217551e-06 0 -1.5103460122788469e-05 8.2787242140708585e-06 0 -2.2075536801393729e-05 1.6530416202431944e-05 0 -1.5103460122788469e-05 8.2787242140708602e-06 0 -6.2461001117735201e-06 3.9192164920723677e-06 0 -6.631007293479916e-06 1.3297867088088835e-05 0 -6.2461001117735201e-06 3.9192164920723677e-06 0 1.0536755434039736e-06 6.3198157350652902e-06 0 -6.631007293479916e-06 1.3297867088088835e-05 0 -6.2461001117735201e-06 3.9192164920723677e-06 0 1.1966298727202967e-07 1.1391170762048506e-06 0 1.0536755434039736e-06 6.3198157350652902e-06 0 -6.2461001117735201e-06 3.9192164920723677e-06 0 -1.5103460122788469e-05 8.2787242140708602e-06 0 -1.6099950645160146e-05 2.1339007015980865e-06 0 -6.2461001117735201e-06 3.9192164920723677e-06 0 -1.6099950645160146e-05 2.1339007015980865e-06 0 -5.8615307986808983e-06 -7.075151067670114e-08 0 -1.0317550713570092e-05 -1.0820163377526142e-06 0 -5.8615307986808983e-06 -7.075151067670114e-08 0 -1.6099950645160146e-05 2.1339007015980865e-06 0 -1.0317550713570092e-05 -1.0820163377526142e-06 0 -6.2042135706498383e-06 -2.9827469555477796e-06 0 -5.8615307986808983e-06 -7.075151067670114e-08 0 -8.047522920008347e-07 -1.9995849329530703e-06 0 -5.8615307986808983e-06 -7.0751510676701087e-08 0 -6.2042135706498383e-06 -2.9827469555477796e-06 0 -8.047522920008347e-07 -1.9995849329530703e-06 0 1.1966298727202858e-07 1.1391170762048504e-06 0 -5.8615307986808983e-06 -7.075151067670114e-08 0 -6.2461001117735201e-06 3.9192164920723677e-06 0 -5.8615307986808974e-06 -7.0751510676701378e-08 0 1.1966298727202967e-07 1.1391170762048506e-06 0 -8.047522920008347e-07 -1.9995849329530703e-06 0 4.4529414604600704e-06 -6.2312042848317301e-07 0 1.1966298727202967e-07 1.1391170762048506e-06 0 6.6266364478505202e-06 3.3700196455481344e-06 0 1.1966298727202967e-07 1.1391170762048506e-06 0 4.4529414604600696e-06 -6.2312042848317301e-07 0 -8.047522920008347e-07 -1.9995849329530703e-06 0 2.6665220406785629e-06 -3.1227204321848719e-06 0 4.4529414604600696e-06 -6.2312042848317301e-07 0 7.0943453815245135e-06 -1.1380871338926948e-06 0 9.7104800957974815e-06 1.2322348261814952e-06 0 4.4529414604600696e-06 -6.2312042848317301e-07 0 7.0943453815245135e-06 -1.1380871338926948e-06 0 4.4529414604600696e-06 -6.2312042848317311e-07 0 2.6665220406785629e-06 -3.1227204321848719e-06 0 6.6266364478505202e-06 3.3700196455481344e-06 0 4.4529414604600687e-06 -6.2312042848317343e-07 0 9.7104800957974815e-06 1.2322348261814952e-06 0 6.6266364478505202e-06 3.3700196455481344e-06 0 9.7104800957974815e-06 1.2322348261814952e-06 0 1.4096264128580932e-05 5.8769923472725363e-06 0 6.6266364478505202e-06 3.3700196455481344e-06 0 1.0536755434039736e-06 6.3198157350652902e-06 0 1.1966298727202967e-07 1.1391170762048506e-06 0 6.6266364478505202e-06 3.3700196455481344e-06 0 8.2569831059004747e-06 9.9639862683122362e-06 0 1.0536755434039736e-06 6.3198157350652902e-06 0 6.6266364478505202e-06 3.3700196455481344e-06 0 1.4096264128580932e-05 5.8769923472725363e-06 0 8.2569831059004764e-06 9.9639862683122362e-06 0 1.89569487066602e-05 1.1722589719623124e-05 0 1.3832853227303474e-05 1.6632011799843298e-05 0 8.2569831059004764e-06 9.9639862683122362e-06 0 1.89569487066602e-05 1.1722589719623124e-05 0 8.2569831059004764e-06 9.9639862683122362e-06 0 1.4096264128580932e-05 5.8769923472725363e-06 0 -6.631007293479916e-06 1.3297867088088835e-05 0 8.2569831059004747e-06 9.9639862683122379e-06 0 3.5898817801802475e-06 1.8710141283700988e-05 0 -6.631007293479916e-06 1.3297867088088835e-05 0 1.0536755434039736e-06 6.3198157350652902e-06 0 8.2569831059004764e-06 9.9639862683122362e-06 0 8.2569831059004764e-06 9.9639862683122362e-06 0 1.3832853227303474e-05 1.6632011799843298e-05 0 3.5898817801802475e-06 1.8710141283700988e-05 0 9.9207210998943771e-06 2.8532345253828674e-05 0 1.3832853227303476e-05 1.6632011799843298e-05 0 2.3788453385843124e-05 2.0283970624223074e-05 0 9.9207210998943771e-06 2.8532345253828674e-05 0 2.3788453385843124e-05 2.0283970624223074e-05 0 2.1483620480553274e-05 4.1823018760642138e-05 0 9.9207210998943771e-06 2.8532345253828674e-05 0 2.1483620480553274e-05 4.1823018760642138e-05 0 8.9854010205538319e-06 4.5958687216791349e-05 0 9.9207210998943771e-06 2.8532345253828674e-05 0 8.9854010205538285e-06 4.5958687216791349e-05 0 -4.8920835340994992e-06 4.8722449955648477e-05 0 9.9207210998943771e-06 2.8532345253828674e-05 0 -9.1836660163242309e-06 3.0011292049501774e-05 0 3.5898817801802475e-06 1.8710141283700988e-05 0 9.9207210998943771e-06 2.8532345253828674e-05 0 3.5898817801802491e-06 1.8710141283700985e-05 0 1.3832853227303474e-05 1.6632011799843298e-05 0 9.9207210998943771e-06 2.8532345253828674e-05 0 -4.8920835340994992e-06 4.8722449955648477e-05 0 -9.1836660163242309e-06 3.0011292049501774e-05 0 -2.4351355544697766e-05 5.0106793558503168e-05 0 -9.1836660163242309e-06 3.0011292049501774e-05 0 -4.8920835340994992e-06 4.8722449955648477e-05 0 -2.4351355544697766e-05 5.0106793558503168e-05 0 -2.0733230479878011e-05 2.6832873643317174e-05 0 -9.1836660163242309e-06 3.0011292049501774e-05 0 -6.631007293479916e-06 1.3297867088088835e-05 0 -9.1836660163242258e-06 3.0011292049501774e-05 0 -2.0733230479878014e-05 2.6832873643317174e-05 0 -6.631007293479916e-06 1.3297867088088835e-05 0 -2.0733230479878014e-05 2.6832873643317174e-05 0 -2.2075536801393729e-05 1.6530416202431944e-05 0 -6.631007293479916e-06 1.3297867088088835e-05 0 3.589881780180247e-06 1.8710141283700992e-05 0 -9.1836660163242309e-06 3.0011292049501774e-05 0 -6.631007293479916e-06 1.3297867088088835e-05 0 -2.2075536801393729e-05 1.6530416202431944e-05 0 -1.5103460122788469e-05 8.2787242140708602e-06 0 -2.4261901838508474e-05 9.374283025217551e-06 0 -2.2075536801393729e-05 1.6530416202431944e-05 0 -3.5157041704079984e-05 1.8509835578762555e-05 0 -3.3283099974562787e-05 2.8062250261644599e-05 0 -3.5157041704079984e-05 1.8509835578762555e-05 0 -2.2075536801393729e-05 1.6530416202431944e-05 0 -3.3283099974562787e-05 2.8062250261644599e-05 0 -2.2075536801393729e-05 1.6530416202431944e-05 0 -2.0733230479878014e-05 2.6832873643317174e-05 0 -3.3283099974562787e-05 2.8062250261644599e-05 0 -2.0733230479878014e-05 2.6832873643317174e-05 0 -3.5534856370778946e-05 4.095902408806562e-05 0 -2.4351355544697766e-05 5.0106793558503168e-05 0 -3.5534856370778946e-05 4.095902408806562e-05 0 -2.0733230479878014e-05 2.6832873643317174e-05 0 -5.1086553548162011e-05 6.2655744267658926e-05 0 -4.9915914366088188e-05 4.2045364866423311e-05 0 -3.5534856370778946e-05 4.095902408806562e-05 0 -2.4351355544697766e-05 5.0106793558503168e-05 0 -5.1086553548162011e-05 6.2655744267658926e-05 0 -3.5534856370778946e-05 4.095902408806562e-05 0 -3.3283099974562787e-05 2.8062250261644599e-05 0 -3.5534856370778946e-05 4.095902408806562e-05 0 -4.9915914366088188e-05 4.2045364866423311e-05 0 -3.3283099974562787e-05 2.8062250261644599e-05 0 -4.9915914366088188e-05 4.2045364866423311e-05 0 -4.628915175834608e-05 2.8811634003206386e-05 0 -7.331435115308027e-05 5.6868422327280181e-05 0 -4.9915914366088188e-05 4.2045364866423311e-05 0 -5.1086553548162011e-05 6.2655744267658926e-05 0 -7.331435115308027e-05 5.6868422327280181e-05 0 -6.2068026526473444e-05 3.7390394659969608e-05 0 -4.9915914366088188e-05 4.2045364866423311e-05 0 -6.2068026526473444e-05 3.7390394659969608e-05 0 -4.628915175834608e-05 2.8811634003206386e-05 0 -4.9915914366088188e-05 4.2045364866423311e-05 0 -6.2068026526473444e-05 3.7390394659969608e-05 0 -5.0602057299358862e-05 2.2599334062014062e-05 0 -4.628915175834608e-05 2.8811634003206386e-05 0 -5.0602057299358862e-05 2.2599334062014062e-05 0 -3.5157041704079977e-05 1.8509835578762555e-05 0 -4.628915175834608e-05 2.8811634003206386e-05 0 -3.3283099974562787e-05 2.8062250261644599e-05 0 -4.628915175834608e-05 2.8811634003206386e-05 0 -3.5157041704079984e-05 1.8509835578762555e-05 0 -5.0602057299358862e-05 2.2599334062014062e-05 0 -3.5155224566539197e-05 1.2421425397460996e-05 0 -3.5157041704079984e-05 1.8509835578762555e-05 0 1.6716950683430555e-05 4.3938669157735019e-06 0 1.8895724512706117e-05 5.7966260132341596e-06 0 1.674019966553915e-05 4.1414642802137616e-06 0 2.0038418610819155e-05 6.5426058326166127e-06 0 1.674019966553915e-05 4.1414642802137616e-06 0 1.8895724512706117e-05 5.7966260132341596e-06 0 2.0038418610819155e-05 6.5426058326166127e-06 0 1.8895724512706117e-05 5.7966260132341596e-06 0 2.2087672075527789e-05 8.2381344389701116e-06 0 1.6716950683430555e-05 4.3938669157735019e-06 0 1.7843004989373361e-05 4.8533133256545681e-06 0 1.8895724512706117e-05 5.7966260132341596e-06 0 1.5584867505035551e-05 2.7665933970828233e-06 0 1.7843004989373361e-05 4.8533133256545681e-06 0 1.4910473937078247e-05 3.4563604129616848e-06 0 1.6716950683430555e-05 4.3938669157735019e-06 0 1.4910473937078247e-05 3.4563604129616848e-06 0 1.7843004989373361e-05 4.8533133256545681e-06 0 1.5584867505035551e-05 2.7665933970828233e-06 0 1.4910473937078247e-05 3.4563604129616848e-06 0 1.3511282583816534e-05 2.1022225559568619e-06 0 1.6716950683430555e-05 4.3938669157735019e-06 0 1.4468316377490344e-05 3.2882705376954633e-06 0 1.4910473937078247e-05 3.4563604129616848e-06 0 1.2383421302314778e-05 2.7993302729034629e-06 0 1.4910473937078247e-05 3.4563604129616848e-06 0 1.4468316377490344e-05 3.2882705376954633e-06 0 1.2084255373890667e-05 2.3631396285175376e-06 0 1.4910473937078247e-05 3.4563604129616848e-06 0 1.2383421302314778e-05 2.7993302729034629e-06 0 1.2383421302314778e-05 2.7993302729034629e-06 0 1.2019017633694362e-05 2.4110010109772333e-06 0 1.0187863277727495e-05 2.5187924201618417e-06 0 1.2383421302314778e-05 2.7993302729034629e-06 0 1.4468316377490344e-05 3.2882705376954633e-06 0 1.2019017633694362e-05 2.4110010109772333e-06 0 1.3510985870139971e-05 2.3022163204837059e-06 0 1.2019017633694362e-05 2.4110010109772333e-06 0 1.4468316377490344e-05 3.2882705376954633e-06 0 1.6716950683430555e-05 4.3938669157735019e-06 0 1.674019966553915e-05 4.1414642802137616e-06 0 1.4468316377490344e-05 3.2882705376954633e-06 0 1.3510985870139971e-05 2.3022163204837059e-06 0 1.4468316377490344e-05 3.2882705376954633e-06 0 1.674019966553915e-05 4.1414642802137616e-06 0 1.3510985870139971e-05 2.3022163204837059e-06 0 1.674019966553915e-05 4.1414642802137616e-06 0 1.3904937391207528e-05 1.9095200050456069e-06 0 1.3510985870139971e-05 2.3022163204837059e-06 0 1.3904937391207526e-05 1.9095200050456065e-06 0 1.2100971276578147e-05 1.1483973032142938e-06 0 9.6413811269698003e-06 -6.732177286736776e-07 0 1.3904937391207528e-05 1.9095200050456069e-06 0 1.0673362662632019e-05 1.0655490496771004e-07 0 1.4394934752464829e-05 2.9999233576420906e-06 0 1.3904937391207528e-05 1.9095200050456069e-06 0 1.6989540246493913e-05 4.2612422619329041e-06 0 1.4394934752464829e-05 2.9999233576420906e-06 0 1.0673362662632019e-05 1.0655490496771014e-07 0 1.3904937391207528e-05 1.9095200050456069e-06 0 1.3904937391207528e-05 1.9095200050456069e-06 0 1.674019966553915e-05 4.1414642802137616e-06 0 1.6989540246493913e-05 4.2612422619329041e-06 0 7.0943453815245135e-06 -1.1380871338926948e-06 0 1.0673362662632019e-05 1.0655490496771004e-07 0 9.7104800957974815e-06 1.2322348261814952e-06 0 1.4394934752464829e-05 2.9999233576420906e-06 0 9.7104800957974815e-06 1.232234826181495e-06 0 1.0673362662632019e-05 1.0655490496771004e-07 0 1.4394934752464829e-05 2.9999233576420906e-06 0 1.4096264128580932e-05 5.8769923472725363e-06 0 9.7104800957974815e-06 1.2322348261814952e-06 0 1.4394934752464829e-05 2.9999233576420906e-06 0 1.9717172199439998e-05 7.2242568996115172e-06 0 1.4096264128580932e-05 5.8769923472725363e-06 0 1.89569487066602e-05 1.1722589719623124e-05 0 1.4096264128580932e-05 5.8769923472725363e-06 0 1.9717172199439998e-05 7.2242568996115172e-06 0 2.0038418610819155e-05 6.5426058326166127e-06 0 1.6989540246493913e-05 4.2612422619329041e-06 0 1.674019966553915e-05 4.1414642802137616e-06 0 1.4394934752464829e-05 2.9999233576420906e-06 0 1.6989540246493913e-05 4.2612422619329041e-06 0 1.9717172199439998e-05 7.2242568996115172e-06 0 2.0038418610819155e-05 6.5426058326166127e-06 0 1.9717172199439998e-05 7.2242568996115172e-06 0 1.6989540246493913e-05 4.2612422619329041e-06 0 2.0038418610819155e-05 6.5426058326166127e-06 0 2.3408653705569832e-05 9.7948248746389255e-06 0 1.9717172199439998e-05 7.2242568996115172e-06 0 2.0038418610819155e-05 6.5426058326166127e-06 0 2.2087672075527789e-05 8.2381344389701116e-06 0 2.3408653705569832e-05 9.7948248746389255e-06 0 1.9717172199439998e-05 7.2242568996115172e-06 0 2.3408653705569832e-05 9.7948248746389255e-06 0 2.7377371358031117e-05 1.4359533858452451e-05 0 2.6115739470142589e-05 1.1538042099312613e-05 0 2.7377371358031117e-05 1.4359533858452451e-05 0 2.3408653705569832e-05 9.7948248746389255e-06 0 2.6115739470142589e-05 1.1538042099312613e-05 0 2.2087672075527789e-05 8.2381344389701116e-06 0 2.2786434786072415e-05 8.1189434486389817e-06 0 2.6115739470142589e-05 1.1538042099312613e-05 0 2.3408653705569829e-05 9.7948248746389238e-06 0 2.2087672075527789e-05 8.2381344389701116e-06 0 1.89569487066602e-05 1.1722589719623124e-05 0 1.9717172199439998e-05 7.2242568996115172e-06 0 2.7377371358031117e-05 1.4359533858452451e-05 0 1.89569487066602e-05 1.1722589719623124e-05 0 2.7377371358031117e-05 1.4359533858452451e-05 0 2.3788453385843124e-05 2.0283970624223074e-05 0 1.89569487066602e-05 1.1722589719623124e-05 0 2.3788453385843124e-05 2.0283970624223074e-05 0 1.3832853227303474e-05 1.6632011799843298e-05 0 3.9479445291345036e-05 2.4168295001844523e-05 0 2.378845338584312e-05 2.0283970624223074e-05 0 2.7377371358031117e-05 1.4359533858452451e-05 0 3.9479445291345036e-05 2.4168295001844523e-05 0 2.1483620480553274e-05 4.1823018760642138e-05 0 2.3788453385843124e-05 2.0283970624223074e-05 0 3.9479445291345036e-05 2.4168295001844523e-05 0 2.7377371358031117e-05 1.4359533858452451e-05 0 2.9671415909494657e-05 1.5453562267996508e-05 0 2.6115739470142589e-05 1.1538042099312613e-05 0 2.4260315016107612e-05 8.4919004506431501e-06 0 2.9671415909494657e-05 1.5453562267996508e-05 0 2.6115739470142589e-05 1.1538042099312613e-05 0 2.2786434786072415e-05 8.1189434486389817e-06 0 2.4260315016107612e-05 8.4919004506431501e-06 0 2.6115739470142589e-05 1.1538042099312613e-05 0 2.9671415909494657e-05 1.5453562267996508e-05 0 2.7377371358031117e-05 1.4359533858452451e-05 0 2.573979611332574e-05 4.5818091193099256e-06 0 2.9671415909494657e-05 1.5453562267996508e-05 0 2.4260315016107612e-05 8.4919004506431501e-06 0 2.573979611332574e-05 4.5818091193099256e-06 0 2.4260315016107612e-05 8.4919004506431501e-06 0 2.2532762130397813e-05 -7.1051895945928569e-07 0 2.0382883666014628e-05 4.0285837044371478e-06 0 2.2532762130397813e-05 -7.1051895945928569e-07 0 2.4260315016107612e-05 8.4919004506431501e-06 0 2.0382883666014628e-05 4.0285837044371478e-06 0 2.4260315016107612e-05 8.4919004506431501e-06 0 2.2786434786072415e-05 8.1189434486389817e-06 0 2.0323599354902722e-05 6.5228036715364928e-06 0 2.2786434786072415e-05 8.1189434486389817e-06 0 2.2087672075527789e-05 8.2381344389701116e-06 0 2.2786434786072415e-05 8.1189434486389817e-06 0 2.0323599354902722e-05 6.5228036715364928e-06 0 2.0382883666014628e-05 4.0285837044371478e-06 0 2.0323599354902722e-05 6.5228036715364928e-06 0 1.7944393396997063e-05 3.4138891617350319e-06 0 2.0382883666014628e-05 4.0285837044371478e-06 0 2.0323599354902722e-05 6.5228036715364928e-06 0 1.7843004989373361e-05 4.8533133256545681e-06 0 1.7944393396997063e-05 3.4138891617350319e-06 0 2.0323599354902722e-05 6.5228036715364928e-06 0 1.8895724512706117e-05 5.7966260132341596e-06 0 1.7843004989373361e-05 4.8533133256545681e-06 0 2.0323599354902722e-05 6.5228036715364928e-06 0 2.2087672075527789e-05 8.2381344389701116e-06 0 1.8895724512706117e-05 5.7966260132341596e-06 0 1.5584867505035551e-05 2.7665933970828233e-06 0 1.7944393396997063e-05 3.4138891617350319e-06 0 1.7843004989373361e-05 4.8533133256545681e-06 0 1.5584867505035551e-05 2.7665933970828233e-06 0 1.4903354010729932e-05 -2.6075642360112646e-08 0 1.7944393396997063e-05 3.4138891617350319e-06 0 2.0382883666014628e-05 4.0285837044371478e-06 0 1.7069116864251981e-05 -7.259172233184843e-07 0 1.9416457811560954e-05 -6.0840777365170539e-06 0 1.4735423426647539e-05 -4.1951966668801287e-06 0 1.7069116864251981e-05 -7.259172233184843e-07 0 1.4903354010729932e-05 -2.6075642360112646e-08 0 1.4903354010729932e-05 -2.6075642360112646e-08 0 1.7069116864251981e-05 -7.259172233184843e-07 0 1.7944393396997063e-05 3.4138891617350319e-06 0 2.0382883666014628e-05 4.0285837044371478e-06 0 1.7944393396997063e-05 3.4138891617350319e-06 0 1.7069116864251981e-05 -7.259172233184843e-07 0 1.4735423426647539e-05 -4.1951966668801287e-06 0 1.6468841869595722e-05 -7.9628811580576093e-06 0 1.7069116864251981e-05 -7.259172233184843e-07 0 1.9416457811560954e-05 -6.0840777365170539e-06 0 1.7069116864251981e-05 -7.259172233184843e-07 0 1.6468841869595722e-05 -7.9628811580576093e-06 0 1.9416457811560954e-05 -6.0840777365170539e-06 0 1.6468841869595722e-05 -7.9628811580576093e-06 0 2.0397495390249809e-05 -1.2965393207534435e-05 0 2.3634514089679526e-05 -1.237165982611605e-05 0 1.9416457811560951e-05 -6.0840777365170548e-06 0 2.0397495390249809e-05 -1.2965393207534435e-05 0 1.7188610089974375e-05 -1.3709283812222532e-05 0 2.0397495390249809e-05 -1.2965393207534435e-05 0 1.6468841869595722e-05 -7.9628811580576093e-06 0 1.7188610089974375e-05 -1.3709283812222532e-05 0 2.2686516080266832e-05 -2.0179321361141217e-05 0 2.0397495390249809e-05 -1.2965393207534435e-05 0 2.3634514089679526e-05 -1.237165982611605e-05 0 2.0397495390249806e-05 -1.2965393207534435e-05 0 2.2686516080266835e-05 -2.0179321361141217e-05 0 1.7188610089974375e-05 -1.3709283812222532e-05 0 1.757675261549771e-05 -1.915435070422466e-05 0 2.2686516080266835e-05 -2.0179321361141217e-05 0 3.495471312237548e-05 -2.4563186897391239e-05 0 3.1113599788541342e-05 -1.7625824002085638e-05 0 2.9397964139271024e-05 -2.2648744669608231e-05 0 2.3634514089679526e-05 -1.237165982611605e-05 0 2.9397964139271024e-05 -2.2648744669608231e-05 0 3.1113599788541342e-05 -1.7625824002085638e-05 0 2.3634514089679526e-05 -1.237165982611605e-05 0 2.2686516080266835e-05 -2.0179321361141217e-05 0 2.9397964139271024e-05 -2.2648744669608231e-05 0 2.3634514089679526e-05 -1.237165982611605e-05 0 3.1113599788541342e-05 -1.7625824002085638e-05 0 2.6789246899429026e-05 -5.9110200706196148e-06 0 2.0382883666014628e-05 4.0285837044371478e-06 0 1.9416457811560958e-05 -6.0840777365170522e-06 0 2.2532762130397813e-05 -7.1051895945928569e-07 0 2.3634514089679526e-05 -1.237165982611605e-05 0 2.6789246899429026e-05 -5.9110200706196122e-06 0 2.2532762130397813e-05 -7.1051895945928569e-07 0 2.3634514089679526e-05 -1.237165982611605e-05 0 2.2532762130397813e-05 -7.1051895945928569e-07 0 1.9416457811560954e-05 -6.0840777365170539e-06 0 2.573979611332574e-05 4.5818091193099256e-06 0 2.2532762130397813e-05 -7.1051895945928569e-07 0 2.6789246899429026e-05 -5.9110200706196148e-06 0 2.573979611332574e-05 4.5818091193099256e-06 0 3.0319123529259215e-05 4.1744012127162519e-06 0 2.9671415909494657e-05 1.5453562267996508e-05 0 2.573979611332574e-05 4.5818091193099256e-06 0 2.6789246899429026e-05 -5.9110200706196148e-06 0 3.0319123529259215e-05 4.174401212716251e-06 0 3.9479445291345036e-05 2.4168295001844523e-05 0 2.9671415909494657e-05 1.5453562267996512e-05 0 3.0319123529259215e-05 4.174401212716251e-06 0 4.3081826213960064e-05 -5.877656250194826e-06 0 3.0319123529259215e-05 4.174401212716251e-06 0 3.5294273777334331e-05 -1.2937055133751131e-05 0 3.5294273777334331e-05 -1.2937055133751131e-05 0 3.0319123529259215e-05 4.174401212716251e-06 0 2.6789246899429026e-05 -5.9110200706196148e-06 0 2.1483620480553274e-05 4.1823018760642138e-05 0 3.9479445291345036e-05 2.4168295001844523e-05 0 3.1288750730691211e-05 7.2829659639491104e-05 0 3.9479445291345036e-05 2.4168295001844523e-05 0 3.0319123529259215e-05 4.174401212716251e-06 0 4.3081826213960064e-05 -5.877656250194826e-06 0 2.0888394090967468e-05 2.0803383412261877e-05 0 5.6237748034147784e-05 3.5537009173463606e-05 0 3.9479445291345036e-05 2.4168295001844523e-05 0 5.6688426307525952e-05 7.1438463672116099e-05 0 3.1288750730691211e-05 7.2829659639491104e-05 0 6.5691865555678555e-05 0.00010555982956842948 0 2.9583508539066619e-05 0.00010181451613705891 0 3.1288750730691211e-05 7.2829659639491104e-05 0 5.6237748034147784e-05 3.5537009173463606e-05 0 5.3759543752537528e-05 4.3012611864483024e-05 0 4.3081826213960064e-05 -5.877656250194826e-06 0 3.5294273777334331e-05 -1.2937055133751131e-05 0 4.3974514340452895e-05 -1.7168743992242585e-05 0 5.6688426307525952e-05 7.1438463672116099e-05 0 6.5691865555678555e-05 0.00010555982956842948 0 3.1288750730691211e-05 7.2829659639491104e-05 0 5.3759543752537528e-05 4.3012611864483024e-05 0 5.9858732628420755e-05 5.7244081128290347e-05 0 4.3974514340452895e-05 -1.7168743992242585e-05 0 3.9382140925534361e-05 -2.2079513731305953e-05 0 4.5415001806842204e-05 -2.4081608959647037e-05 0 6.5691865555678555e-05 0.00010555982956842948 0 4.9593828398240851e-05 0.00012651931579932136 0 2.9583508539066619e-05 0.00010181451613705891 0 3.5294273777334331e-05 -1.2937055133751131e-05 0 2.6789246899429026e-05 -5.9110200706196148e-06 0 3.1113599788541342e-05 -1.7625824002085638e-05 0 4.3974514340452895e-05 -1.7168743992242585e-05 0 3.5294273777334331e-05 -1.2937055133751131e-05 0 3.9382140925534361e-05 -2.2079513731305953e-05 0 3.5294273777334331e-05 -1.2937055133751131e-05 0 3.1113599788541342e-05 -1.7625824002085638e-05 0 3.9382140925534361e-05 -2.2079513731305953e-05 0 3.495471312237548e-05 -2.4563186897391239e-05 0 3.9382140925534361e-05 -2.2079513731305953e-05 0 3.1113599788541342e-05 -1.7625824002085638e-05 0 3.495471312237548e-05 -2.4563186897391239e-05 0 4.1199568756378382e-05 -2.8874736784524496e-05 0 3.9382140925534361e-05 -2.2079513731305953e-05 0 4.5415001806842204e-05 -2.4081608959647037e-05 0 3.9382140925534361e-05 -2.2079513731305953e-05 0 4.1199568756378382e-05 -2.8874736784524496e-05 0 4.5415001806842204e-05 -2.4081608959647037e-05 0 4.1199568756378382e-05 -2.8874736784524496e-05 0 4.7871986043674726e-05 -2.9374652581909504e-05 0 3.495471312237548e-05 -2.4563186897391239e-05 0 3.5169731246859988e-05 -2.9240158049789745e-05 0 4.1199568756378382e-05 -2.8874736784524496e-05 0 2.8251886870340222e-05 0.00013627156063890152 0 4.9593828398240851e-05 0.00012651931579932136 0 5.4936202895215627e-05 0.00014777535933179449 0 7.3211743926349573e-05 0.00013759814842069897 0 5.4936202895215627e-05 0.00014777535933179449 0 4.9593828398240851e-05 0.00012651931579932136 0 6.5691865555678555e-05 0.00010555982956842948 0 7.3211743926349573e-05 0.00013759814842069897 0 4.9593828398240851e-05 0.00012651931579932136 0 5.9858732628420755e-05 5.7244081128290347e-05 0 6.3726953504568561e-05 7.0383491842548575e-05 0 7.3211743926349573e-05 0.00013759814842069897 0 7.9804476370743223e-05 0.00017054852539526703 0 5.4936202895215627e-05 0.00014777535933179449 0 7.980447637074321e-05 0.00017054852539526703 0 4.4681506953843326e-05 0.00016648291846780658 0 5.4936202895215627e-05 0.00014777535933179449 0 7.980447637074321e-05 0.00017054852539526703 0 5.6509241683430509e-05 0.0001893236977060716 0 4.4681506953843326e-05 0.00016648291846780658 0 7.980447637074321e-05 0.00017054852539526703 0 8.59439212638745e-05 0.00020451233996976407 0 5.6509241683430509e-05 0.0001893236977060716 0 4.7871986043674726e-05 -2.9374652581909504e-05 0 4.5627855997152821e-05 -3.3864871869802727e-05 0 5.0905632182270116e-05 -3.4171812452363072e-05 0 6.3726953504568561e-05 7.0383491842548575e-05 0 6.8183552241576721e-05 8.5172137691487746e-05 0 8.59439212638745e-05 0.00020451233996976407 0 5.1046734635051046e-05 0.00021315097060126335 0 5.6509241683430509e-05 0.0001893236977060716 0 4.0033785203466782e-05 -3.38565885155985e-05 0 4.5627855997152821e-05 -3.3864871869802727e-05 0 4.1199568756378382e-05 -2.8874736784524496e-05 0 4.0033785203466782e-05 -3.38565885155985e-05 0 4.1199568756378382e-05 -2.8874736784524496e-05 0 3.5169731246859988e-05 -2.9240158049789745e-05 0 4.7871986043674726e-05 -2.9374652581909504e-05 0 4.1199568756378382e-05 -2.8874736784524496e-05 0 4.5627855997152821e-05 -3.3864871869802727e-05 0 4.0033785203466782e-05 -3.38565885155985e-05 0 4.171320408814276e-05 -3.8099748085323372e-05 0 4.5627855997152821e-05 -3.3864871869802727e-05 0 4.8559724858654776e-05 -3.9325590336444395e-05 0 4.5627855997152821e-05 -3.3864871869802727e-05 0 4.171320408814276e-05 -3.8099748085323372e-05 0 4.0033785203466782e-05 -3.38565885155985e-05 0 3.3536739667107029e-05 -3.4483803024454924e-05 0 4.171320408814276e-05 -3.8099748085323372e-05 0 3.8581241656599742e-05 -4.1248323201912847e-05 0 4.171320408814276e-05 -3.8099748085323372e-05 0 3.3536739667107029e-05 -3.4483803024454924e-05 0 4.0033785203466782e-05 -3.38565885155985e-05 0 3.5169731246859988e-05 -2.9240158049789745e-05 0 3.3536739667107029e-05 -3.4483803024454924e-05 0 2.9847847058835811e-05 -2.8509513185852965e-05 0 2.5323893269880287e-05 -2.8166853608314134e-05 0 3.3536739667107029e-05 -3.4483803024454924e-05 0 2.9847847058835811e-05 -2.8509513185852965e-05 0 3.3536739667107029e-05 -3.4483803024454924e-05 0 3.5169731246859988e-05 -2.9240158049789745e-05 0 2.630928850610661e-05 -3.338399156800559e-05 0 3.181808234581845e-05 -4.0968430216399463e-05 0 3.3536739667107029e-05 -3.4483803024454924e-05 0 2.630928850610661e-05 -3.338399156800559e-05 0 2.3832533771958255e-05 -3.61517844196844e-05 0 3.181808234581845e-05 -4.0968430216399463e-05 0 2.630928850610661e-05 -3.338399156800559e-05 0 2.5323893269880287e-05 -2.8166853608314134e-05 0 2.1016461154105232e-05 -2.9870199894918777e-05 0 2.630928850610661e-05 -3.338399156800559e-05 0 3.3536739667107029e-05 -3.4483803024454924e-05 0 2.5323893269880287e-05 -2.8166853608314134e-05 0 2.9847847058835811e-05 -2.8509513185852965e-05 0 2.2686516080266835e-05 -2.0179321361141217e-05 0 2.5323893269880287e-05 -2.8166853608314134e-05 0 2.0639847911969848e-05 -2.4542121429115091e-05 0 2.1016461154105232e-05 -2.9870199894918777e-05 0 2.5323893269880287e-05 -2.8166853608314134e-05 0 2.0639847911969848e-05 -2.4542121429115091e-05 0 2.5323893269880287e-05 -2.8166853608314134e-05 0 2.2686516080266835e-05 -2.0179321361141217e-05 0 2.0639847911969848e-05 -2.4542121429115091e-05 0 2.2686516080266835e-05 -2.0179321361141217e-05 0 1.757675261549771e-05 -1.915435070422466e-05 0 2.9847847058835811e-05 -2.8509513185852965e-05 0 2.9397964139271024e-05 -2.2648744669608231e-05 0 2.2686516080266835e-05 -2.0179321361141217e-05 0 3.495471312237548e-05 -2.4563186897391239e-05 0 2.9397964139271024e-05 -2.2648744669608231e-05 0 3.5169731246859988e-05 -2.9240158049789745e-05 0 2.9847847058835811e-05 -2.8509513185852965e-05 0 3.5169731246859988e-05 -2.9240158049789745e-05 0 2.9397964139271024e-05 -2.2648744669608231e-05 0 -9.2848949352079713e-05 0.00010921975783614587 0 -6.844904616063492e-05 9.1855484882530321e-05 0 -6.8032002572316412e-05 0.00011961744036180602 0 -0.00010016384594981089 0.0001405220392577167 0 -9.2848949352079713e-05 0.00010921975783614587 0 -6.8032002572316412e-05 0.00011961744036180602 0 -4.8209428830460269e-05 9.1902989594814678e-05 0 -6.8032002572316412e-05 0.00011961744036180602 0 -6.844904616063492e-05 9.1855484882530321e-05 0 -9.2848949352079713e-05 0.00010921975783614587 0 -8.3268027713448374e-05 8.0869470290696863e-05 0 -6.844904616063492e-05 9.1855484882530321e-05 0 -8.3268027713448374e-05 8.0869470290696863e-05 0 -7.331435115308027e-05 5.6868422327280181e-05 0 -5.1086553548162011e-05 6.2655744267658926e-05 0 -4.8209428830460269e-05 9.1902989594814678e-05 0 -6.844904616063492e-05 9.1855484882530321e-05 0 -5.1086553548162011e-05 6.2655744267658926e-05 0 -8.3268027713448374e-05 8.0869470290696863e-05 0 -5.1086553548162011e-05 6.2655744267658926e-05 0 -6.844904616063492e-05 9.1855484882530321e-05 0 -4.8209428830460269e-05 9.1902989594814678e-05 0 -5.1086553548162011e-05 6.2655744267658926e-05 0 -3.2965838669381277e-05 7.4518146427624698e-05 0 -2.4351355544697766e-05 5.0106793558503168e-05 0 -3.2965838669381277e-05 7.4518146427624698e-05 0 -5.1086553548162011e-05 6.2655744267658926e-05 0 -1.5010071920173669e-05 7.8571220597560865e-05 0 -3.1130074274573974e-05 9.4400201850222752e-05 0 -3.2965838669381277e-05 7.4518146427624698e-05 0 -4.8209428830460269e-05 9.1902989594814678e-05 0 -3.2965838669381277e-05 7.4518146427624698e-05 0 -3.1130074274573974e-05 9.4400201850222752e-05 0 -4.8209428830460269e-05 9.1902989594814678e-05 0 -3.1130074274573967e-05 9.4400201850222752e-05 0 -4.1371805202605893e-05 0.00011710639616713919 0 -4.8209428830460269e-05 9.1902989594814678e-05 0 -4.1371805202605893e-05 0.00011710639616713919 0 -6.8032002572316412e-05 0.00011961744036180602 0 -1.779080998663092e-05 0.00011296651958218376 0 -4.1371805202605893e-05 0.00011710639616713919 0 -3.1130074274573974e-05 9.4400201850222752e-05 0 -1.779080998663092e-05 0.00011296651958218376 0 5.4013294530874039e-06 0.00010579514385184546 0 -9.6617688646164351e-07 0.00013735874611685376 0 -1.779080998663092e-05 0.00011296651958218376 0 -1.5010071920173669e-05 7.8571220597560865e-05 0 5.4013294530874039e-06 0.00010579514385184546 0 8.8848826788254424e-06 6.9891108983314247e-05 0 5.4013294530874022e-06 0.00010579514385184546 0 -1.5010071920173669e-05 7.8571220597560865e-05 0 -1.779080998663092e-05 0.00011296651958218376 0 -3.1130074274573974e-05 9.4400201850222752e-05 0 -1.5010071920173669e-05 7.8571220597560865e-05 0 -2.4351355544697766e-05 5.0106793558503168e-05 0 -1.5010071920173669e-05 7.8571220597560865e-05 0 -3.2965838669381277e-05 7.4518146427624698e-05 0 -2.4351355544697766e-05 5.0106793558503168e-05 0 -4.8920835340995e-06 4.8722449955648477e-05 0 -1.5010071920173669e-05 7.8571220597560865e-05 0 8.8848826788254424e-06 6.9891108983314247e-05 0 -1.5010071920173669e-05 7.8571220597560865e-05 0 -4.8920835340994992e-06 4.8722449955648477e-05 0 8.8848826788254424e-06 6.9891108983314247e-05 0 -4.8920835340995017e-06 4.8722449955648484e-05 0 8.9854010205538319e-06 4.5958687216791349e-05 0 8.8848826788254424e-06 6.9891108983314247e-05 0 8.9854010205538302e-06 4.5958687216791356e-05 0 2.1483620480553274e-05 4.1823018760642138e-05 0 8.8848826788254424e-06 6.9891108983314247e-05 0 2.1483620480553274e-05 4.1823018760642138e-05 0 3.1288750730691211e-05 7.2829659639491104e-05 0 8.8848826788254424e-06 6.9891108983314247e-05 0 3.1288750730691211e-05 7.2829659639491104e-05 0 2.9583508539066619e-05 0.00010181451613705891 0 8.8848826788254424e-06 6.9891108983314247e-05 0 2.9583508539066619e-05 0.00010181451613705891 0 5.4013294530874039e-06 0.00010579514385184546 0 2.8251886870340222e-05 0.00013627156063890152 0 5.4013294530874039e-06 0.00010579514385184546 0 2.9583508539066619e-05 0.00010181451613705891 0 2.8251886870340222e-05 0.00013627156063890152 0 2.9583508539066619e-05 0.00010181451613705891 0 4.9593828398240851e-05 0.00012651931579932136 0 2.8251886870340222e-05 0.00013627156063890152 0 -9.6617688646164584e-07 0.00013735874611685373 0 5.4013294530874039e-06 0.00010579514385184546 0 2.8251886870340222e-05 0.00013627156063890152 0 1.6711798878465746e-05 0.0001584091136188904 0 -9.6617688646164351e-07 0.00013735874611685376 0 2.8251886870340222e-05 0.00013627156063890152 0 4.4681506953843326e-05 0.00016648291846780658 0 1.6711798878465746e-05 0.0001584091136188904 0 2.8251886870340222e-05 0.00013627156063890152 0 5.4936202895215627e-05 0.00014777535933179449 0 4.4681506953843326e-05 0.00016648291846780658 0 4.4681506953843326e-05 0.00016648291846780658 0 5.6509241683430509e-05 0.0001893236977060716 0 2.2070484393506789e-05 0.00018980529364098544 0 5.6509241683430509e-05 0.0001893236977060716 0 5.1046734635051046e-05 0.00021315097060126335 0 2.2070484393506789e-05 0.00018980529364098544 0 2.2070484393506789e-05 0.00018980529364098544 0 1.6711798878465746e-05 0.0001584091136188904 0 4.4681506953843326e-05 0.00016648291846780658 0 2.2070484393506789e-05 0.00018980529364098544 0 -9.6234397895802899e-06 0.0001626654382242087 0 1.6711798878465746e-05 0.0001584091136188904 0 2.2070484393506789e-05 0.00018980529364098544 0 -1.4021661936470084e-05 0.00019251244266037208 0 -9.6234397895802899e-06 0.0001626654382242087 0 2.2070484393506789e-05 0.00018980529364098544 0 -5.6792779326967396e-06 0.0002217440449177278 0 -1.4021661936470084e-05 0.00019251244266037208 0 -3.851999890169024e-05 0.00018987349035819065 0 -9.6234397895802915e-06 0.00016266543822420867 0 -1.4021661936470084e-05 0.00019251244266037208 0 -3.851999890169024e-05 0.00018987349035819065 0 -3.013381954199447e-05 0.00014689587016606645 0 -9.6234397895802899e-06 0.0001626654382242087 0 -9.6234397895802899e-06 0.0001626654382242087 0 -3.013381954199447e-05 0.00014689587016606645 0 -9.6617688646164351e-07 0.00013735874611685376 0 -9.6234397895802899e-06 0.0001626654382242087 0 -9.6617688646164351e-07 0.00013735874611685376 0 1.6711798878465746e-05 0.0001584091136188904 0 -1.779080998663092e-05 0.00011296651958218376 0 -9.6617688646164351e-07 0.00013735874611685376 0 -3.013381954199447e-05 0.00014689587016606645 0 -1.779080998663092e-05 0.00011296651958218376 0 -3.013381954199447e-05 0.00014689587016606645 0 -4.1371805202605893e-05 0.00011710639616713919 0 -5.3782170934457277e-05 0.00014142998380794287 0 -4.1371805202605893e-05 0.00011710639616713919 0 -3.013381954199447e-05 0.00014689587016606645 0 -5.3782170934457277e-05 0.00014142998380794287 0 -6.8032002572316412e-05 0.00011961744036180602 0 -4.1371805202605893e-05 0.00011710639616713919 0 -5.3782170934457277e-05 0.00014142998380794287 0 -5.4577883201683273e-05 0.00016524368021479362 0 -7.7436481787929046e-05 0.00015928739061255476 0 -5.3782170934457277e-05 0.00014142998380794287 0 -3.013381954199447e-05 0.00014689587016606645 0 -5.4577883201683273e-05 0.00016524368021479362 0 -3.851999890169024e-05 0.00018987349035819065 0 -5.457788320168328e-05 0.00016524368021479362 0 -3.013381954199447e-05 0.00014689587016606645 0 -3.851999890169024e-05 0.00018987349035819065 0 -1.4021661936470084e-05 0.00019251244266037208 0 -3.5159133353600352e-05 0.00022182510119528678 0 -3.851999890169024e-05 0.00018987349035819065 0 -5.8219456439005928e-05 0.00021358341134027577 0 -7.4175769403395976e-05 0.00019062431574404389 0 -3.851999890169024e-05 0.00018987349035819065 0 -7.4175769403395976e-05 0.00019062431574404389 0 -5.4577883201683273e-05 0.00016524368021479362 0 -7.4175769403395976e-05 0.00019062431574404389 0 -7.7436481787929046e-05 0.00015928739061255476 0 -5.4577883201683273e-05 0.00016524368021479362 0 -0.0001101184637129255 0.00020983623971186928 0 -0.00010603531746823413 0.00017443592628094324 0 -7.4175769403395976e-05 0.00019062431574404389 0 -0.0001101184637129255 0.00020983623971186928 0 -7.4175769403395976e-05 0.00019062431574404389 0 -8.2745918506466315e-05 0.00022404178246979704 0 -0.00010603531746823414 0.00017443592628094324 0 -7.7436481787929046e-05 0.00015928739061255476 0 -7.4175769403395976e-05 0.00019062431574404389 0 -0.00010603531746823414 0.00017443592628094324 0 -0.00010016384594981089 0.0001405220392577167 0 -7.7436481787929046e-05 0.00015928739061255476 0 -5.3782170934457277e-05 0.00014142998380794287 0 -7.7436481787929046e-05 0.00015928739061255476 0 -6.8032002572316412e-05 0.00011961744036180602 0 -0.00010016384594981089 0.0001405220392577167 0 -6.8032002572316412e-05 0.00011961744036180602 0 -7.7436481787929046e-05 0.00015928739061255476 0 -0.00011506899223195502 0.00028393983451331059 0 -6.7884869761059794e-05 0.00028449131093380409 0 -8.1594199763218125e-05 0.00032094497594823784 0 -0.00011506899223195502 0.00028393983451331059 0 -8.7122933184742476e-05 0.00025687386158561521 0 -6.7884869761059794e-05 0.00028449131093380409 0 -6.0985882890536125e-05 0.00024287673306417257 0 -6.7884869761059794e-05 0.00028449131093380409 0 -8.7122933184742476e-05 0.00025687386158561521 0 -0.00011506899223195502 0.00028393983451331059 0 -0.0001131607402152674 0.00024642225963611046 0 -8.7122933184742476e-05 0.00025687386158561521 0 -0.0001131607402152674 0.00024642225963611046 0 -8.2745918506466315e-05 0.00022404178246979704 0 -8.7122933184742476e-05 0.00025687386158561521 0 -0.0001131607402152674 0.00024642225963611046 0 -0.0001101184637129255 0.00020983623971186928 0 -8.2745918506466315e-05 0.00022404178246979704 0 -7.4175769403395976e-05 0.00019062431574404389 0 -5.8219456439005928e-05 0.00021358341134027577 0 -8.2745918506466315e-05 0.00022404178246979704 0 -6.0985882890536125e-05 0.00024287673306417257 0 -8.7122933184742476e-05 0.00025687386158561521 0 -8.2745918506466315e-05 0.00022404178246979704 0 -6.0985882890536125e-05 0.00024287673306417257 0 -5.8219456439005921e-05 0.00021358341134027574 0 -3.5159133353600352e-05 0.00022182510119528678 0 -6.0985882890536125e-05 0.00024287673306417257 0 -8.2745918506466315e-05 0.00022404178246979704 0 -5.8219456439005928e-05 0.00021358341134027577 0 -3.851999890169024e-05 0.00018987349035819065 0 -3.5159133353600352e-05 0.00022182510119528678 0 -5.8219456439005928e-05 0.00021358341134027577 0 -6.0985882890536125e-05 0.00024287673306417257 0 -3.5159133353600352e-05 0.00022182510119528678 0 -3.4544418319011205e-05 0.00025364223874426302 0 -6.7884869761059794e-05 0.00028449131093380409 0 -3.4544418319011205e-05 0.00025364223874426302 0 -3.1956963620975118e-05 0.00028740069722263661 0 -6.0985882890536125e-05 0.00024287673306417257 0 -3.4544418319011205e-05 0.00025364223874426302 0 -6.7884869761059794e-05 0.00028449131093380409 0 -4.5149630360431283e-05 0.00032447659419952631 0 -6.7884869761059794e-05 0.00028449131093380409 0 -3.1956963620975118e-05 0.00028740069722263661 0 -8.0827972328495216e-06 0.00026510969356981147 0 -4.2801902457055177e-06 0.00030610853236417171 0 -3.1956963620975118e-05 0.00028740069722263661 0 -8.0827972328495216e-06 0.00026510969356981147 0 2.1608732557058915e-05 0.00027987075997841927 0 -4.2801902457055227e-06 0.00030610853236417171 0 -8.0827972328495216e-06 0.00026510969356981147 0 1.3706244568749998e-05 0.00024484180389210055 0 2.1608732557058915e-05 0.00027987075997841927 0 -8.0827972328495216e-06 0.00026510969356981147 0 -3.1956963620975118e-05 0.00028740069722263661 0 -3.4544418319011205e-05 0.00025364223874426302 0 -5.6792779326967396e-06 0.0002217440449177278 0 -3.4544418319011205e-05 0.00025364223874426302 0 -3.5159133353600352e-05 0.00022182510119528678 0 -8.0827972328495216e-06 0.00026510969356981147 0 -3.4544418319011205e-05 0.00025364223874426302 0 -5.6792779326967396e-06 0.0002217440449177278 0 -5.6792779326967396e-06 0.0002217440449177278 0 -3.5159133353600352e-05 0.00022182510119528678 0 -1.4021661936470084e-05 0.00019251244266037208 0 -5.6792779326967396e-06 0.0002217440449177278 0 2.4380097531293582e-05 0.00022304549731946789 0 1.3706244568749999e-05 0.00024484180389210055 0 -8.0827972328495216e-06 0.00026510969356981147 0 -5.6792779326967439e-06 0.0002217440449177278 0 1.3706244568749999e-05 0.00024484180389210055 0 4.1250797951688808e-05 0.00024515344825379076 0 1.3706244568749999e-05 0.00024484180389210055 0 2.4380097531293578e-05 0.00022304549731946789 0 2.2070484393506789e-05 0.00018980529364098544 0 5.1046734635051046e-05 0.00021315097060126335 0 2.4380097531293578e-05 0.00022304549731946789 0 2.2070484393506789e-05 0.00018980529364098544 0 2.4380097531293578e-05 0.00022304549731946789 0 -5.6792779326967396e-06 0.0002217440449177278 0 4.1250797951688808e-05 0.00024515344825379076 0 2.4380097531293578e-05 0.00022304549731946789 0 5.1046734635051046e-05 0.00021315097060126335 0 4.1250797951688808e-05 0.00024515344825379076 0 5.1046734635051046e-05 0.00021315097060126335 0 6.794513682009406e-05 0.00023182793982457834 0 4.1250797951688808e-05 0.00024515344825379076 0 5.5635327657167822e-05 0.00028418772328635841 0 2.1608732557058915e-05 0.00027987075997841927 0 4.1250797951688808e-05 0.00024515344825379076 0 6.9194706513831314e-05 0.00025582578346259346 0 5.5635327657167822e-05 0.00028418772328635841 0 4.1250797951688808e-05 0.00024515344825379076 0 2.1608732557058915e-05 0.00027987075997841927 0 1.3706244568749999e-05 0.00024484180389210055 0 3.3939553089435493e-05 0.00032214603751155472 0 2.1608732557058915e-05 0.00027987075997841927 0 5.5635327657167822e-05 0.00028418772328635841 0 3.3939553089435493e-05 0.00032214603751155472 0 5.5635327657167828e-05 0.00028418772328635841 0 7.0761417756565041e-05 0.00031752164258931875 0 3.3939553089435493e-05 0.00032214603751155472 0 6.7545456793515141e-05 0.00035236347501820697 0 3.1034369355273351e-05 0.0003621201136586952 0 3.3939553089435493e-05 0.00032214603751155472 0 7.0761417756565054e-05 0.00031752164258931875 0 6.7545456793515155e-05 0.00035236347501820697 0 6.7545456793515155e-05 0.00035236347501820697 0 5.5610620621653269e-05 0.0003773809895127993 0 3.1034369355273351e-05 0.0003621201136586952 0 6.7545456793515155e-05 0.00035236347501820697 0 8.877653083126743e-05 0.00037255656673273129 0 5.5610620621653269e-05 0.0003773809895127993 0 7.8963034777651363e-05 0.00039716968419112005 0 5.5610620621653269e-05 0.0003773809895127993 0 8.877653083126743e-05 0.00037255656673273129 0 7.8963034777651363e-05 0.00039716968419112005 0 3.7368549556276691e-05 0.0003987988678000708 0 5.5610620621653269e-05 0.0003773809895127993 0 3.7368549556276691e-05 0.0003987988678000708 0 3.1034369355273351e-05 0.0003621201136586952 0 5.5610620621653269e-05 0.0003773809895127993 0 -2.2117149589512737e-06 0.00039883677581834171 0 -3.8226999617074367e-05 0.00036300284265960937 0 -4.5640056465836466e-06 0.00034944363895850357 0 -2.2117149589512737e-06 0.00039883677581834171 0 -4.5640056465836466e-06 0.00034944363895850357 0 3.1034369355273351e-05 0.0003621201136586952 0 3.7368549556276691e-05 0.0003987988678000708 0 -2.2117149589512737e-06 0.00039883677581834171 0 3.1034369355273351e-05 0.0003621201136586952 0 -4.5149630360431283e-05 0.00032447659419952631 0 -4.2801902457055227e-06 0.00030610853236417171 0 -4.5640056465836466e-06 0.00034944363895850357 0 3.3939553089435493e-05 0.00032214603751155472 0 3.1034369355273351e-05 0.0003621201136586952 0 -4.5640056465836466e-06 0.00034944363895850357 0 3.3939553089435493e-05 0.00032214603751155472 0 -4.5640056465836466e-06 0.00034944363895850357 0 -4.2801902457055227e-06 0.00030610853236417171 0 3.3939553089435493e-05 0.00032214603751155472 0 -4.2801902457055227e-06 0.00030610853236417171 0 2.1608732557058915e-05 0.00027987075997841927 0 -4.5149630360431283e-05 0.00032447659419952631 0 -3.1956963620975118e-05 0.00028740069722263661 0 -4.2801902457055227e-06 0.00030610853236417171 0 -4.5149630360431283e-05 0.00032447659419952631 0 -8.1594199763218125e-05 0.00032094497594823784 0 -6.7884869761059794e-05 0.00028449131093380409 0 -4.5149630360431283e-05 0.00032447659419952631 0 -3.822699961707436e-05 0.00036300284265960937 0 -7.4188794221879969e-05 0.00035548937075015964 0 -4.5149630360431283e-05 0.00032447659419952631 0 -7.4188794221879969e-05 0.00035548937075015964 0 -8.1594199763218125e-05 0.00032094497594823784 0 -4.5149630360431283e-05 0.00032447659419952631 0 -4.5640056465836398e-06 0.00034944363895850352 0 -3.822699961707436e-05 0.00036300284265960937 0 -2.2117149589512737e-06 0.00039883677581834171 0 -4.031938461256647e-05 0.00039860777556721054 0 -3.822699961707436e-05 0.00036300284265960937 0 -4.031938461256647e-05 0.00039860777556721054 0 -7.832745623049087e-05 0.00039841988490518619 0 -5.9699965135728131e-05 0.00037878281553998947 0 -4.031938461256647e-05 0.00039860777556721054 0 -5.9699965135728131e-05 0.00037878281553998947 0 -3.822699961707436e-05 0.00036300284265960937 0 -7.4188794221879969e-05 0.00035548937075015964 0 -3.822699961707436e-05 0.00036300284265960937 0 -5.9699965135728131e-05 0.00037878281553998947 0 -7.4188794221879969e-05 0.00035548937075015964 0 -5.9699965135728131e-05 0.00037878281553998947 0 -9.1112184828442201e-05 0.00037685338277221011 0 -7.832745623049087e-05 0.00039841988490518619 0 -9.1112184828442201e-05 0.00037685338277221011 0 -5.9699965135728131e-05 0.00037878281553998947 0 -0.00011622125253085915 0.00039859754039823559 0 -9.1112184828442201e-05 0.00037685338277221011 0 -7.832745623049087e-05 0.00039841988490518619 0 -0.00011622125253085915 0.00039859754039823559 0 -0.00011637215525368952 0.00036048198463360415 0 -9.1112184828442201e-05 0.00037685338277221011 0 -0.00011637215525368952 0.00036048198463360415 0 -7.4188794221879969e-05 0.00035548937075015964 0 -9.1112184828442201e-05 0.00037685338277221011 0 -0.00011637215525368952 0.00036048198463360415 0 -0.0001160541644289215 0.00032223622671323781 0 -8.1594199763218125e-05 0.00032094497594823784 0 -0.00011637215525368952 0.00036048198463360415 0 -8.1594199763218125e-05 0.00032094497594823784 0 -7.4188794221879969e-05 0.00035548937075015964 0 -0.0001160541644289215 0.00032223622671323781 0 -0.00011506899223195502 0.00028393983451331059 0 -8.1594199763218125e-05 0.00032094497594823784 0 4.0820136372537468e-05 -5.3750560232648628e-05 0 4.1244201602522775e-05 -4.664376977209718e-05 0 3.5531129125744408e-05 -4.8332399563474637e-05 0 4.8445727391692832e-05 -4.8228209644340434e-05 0 4.1244201602522775e-05 -4.664376977209718e-05 0 4.7811473834708788e-05 -5.3379391167415372e-05 0 4.8445727391692832e-05 -4.8228209644340434e-05 0 4.5124627371800977e-05 -4.3678899638310473e-05 0 4.1244201602522775e-05 -4.664376977209718e-05 0 4.0820136372537468e-05 -5.3750560232648628e-05 0 4.7811473834708788e-05 -5.3379391167415372e-05 0 4.1244201602522775e-05 -4.664376977209718e-05 0 4.0820136372537468e-05 -5.3750560232648628e-05 0 3.5531129125744408e-05 -4.8332399563474637e-05 0 3.3036128539998639e-05 -5.3605848689035748e-05 0 3.5531129125744408e-05 -4.8332399563474637e-05 0 2.9673561175803084e-05 -4.6309588837190738e-05 0 3.3036128539998639e-05 -5.3605848689035748e-05 0 2.7910160645388541e-05 -5.0456186990965151e-05 0 3.3036128539998639e-05 -5.3605848689035748e-05 0 2.9673561175803084e-05 -4.6309588837190738e-05 0 3.5531129125744408e-05 -4.8332399563474637e-05 0 3.181808234581845e-05 -4.0968430216399463e-05 0 2.9673561175803084e-05 -4.6309588837190738e-05 0 2.6510210975919547e-05 -4.1519259903697481e-05 0 2.9673561175803084e-05 -4.6309588837190738e-05 0 3.181808234581845e-05 -4.0968430216399463e-05 0 2.6510210975919547e-05 -4.1519259903697481e-05 0 3.181808234581845e-05 -4.0968430216399463e-05 0 2.3832533771958255e-05 -3.61517844196844e-05 0 3.8581241656599742e-05 -4.1248323201912847e-05 0 3.3536739667107029e-05 -3.4483803024454924e-05 0 3.181808234581845e-05 -4.0968430216399463e-05 0 4.1244201602522775e-05 -4.664376977209718e-05 0 3.8581241656599742e-05 -4.1248323201912847e-05 0 3.181808234581845e-05 -4.0968430216399463e-05 0 3.5531129125744408e-05 -4.8332399563474637e-05 0 4.1244201602522775e-05 -4.664376977209718e-05 0 3.181808234581845e-05 -4.0968430216399463e-05 0 3.8581241656599742e-05 -4.1248323201912847e-05 0 4.1244201602522775e-05 -4.664376977209718e-05 0 4.5124627371800977e-05 -4.3678899638310473e-05 0 3.8581241656599742e-05 -4.1248323201912847e-05 0 4.5124627371800977e-05 -4.3678899638310473e-05 0 4.171320408814276e-05 -3.8099748085323372e-05 0 4.8559724858654776e-05 -3.9325590336444395e-05 0 4.171320408814276e-05 -3.8099748085323372e-05 0 4.5124627371800977e-05 -4.3678899638310473e-05 0 5.0905632182270116e-05 -3.4171812452363072e-05 0 4.5627855997152821e-05 -3.3864871869802727e-05 0 4.8559724858654776e-05 -3.9325590336444395e-05 0 5.4875275362078909e-05 -3.904464736139605e-05 0 4.8559724858654776e-05 -3.9325590336444395e-05 0 5.2858556553637142e-05 -4.4604052358972831e-05 0 4.8559724858654776e-05 -3.9325590336444395e-05 0 4.5124627371800977e-05 -4.3678899638310473e-05 0 5.2858556553637142e-05 -4.4604052358972831e-05 0 8.59439212638745e-05 0.00020451233996976407 0 6.794513682009406e-05 0.00023182793982457834 0 5.1046734635051046e-05 0.00021315097060126335 0 8.59439212638745e-05 0.00020451233996976407 0 9.1900146934558607e-05 0.00023938640115447776 0 6.794513682009406e-05 0.00023182793982457834 0 5.0905632182270116e-05 -3.4171812452363072e-05 0 4.8559724858654776e-05 -3.9325590336444395e-05 0 5.4875275362078909e-05 -3.904464736139605e-05 0 6.8183552241576721e-05 8.5172137691487746e-05 0 7.3177731340446557e-05 0.00010039345017881537 0 4.1250797951688808e-05 0.00024515344825379076 0 6.794513682009406e-05 0.00023182793982457834 0 6.9194706513831314e-05 0.00025582578346259346 0 9.1900146934558607e-05 0.00023938640115447776 0 6.9194706513831314e-05 0.00025582578346259346 0 6.794513682009406e-05 0.00023182793982457834 0 9.7945025166138702e-05 0.00027571593457795674 0 5.5635327657167822e-05 0.00028418772328635841 0 6.9194706513831314e-05 0.00025582578346259346 0 7.3177731340446557e-05 0.00010039345017881537 0 7.7523810146376779e-05 0.00011509740973118768 0 5.4875275362078909e-05 -3.904464736139605e-05 0 5.2858556553637142e-05 -4.4604052358972831e-05 0 5.9879161372960703e-05 -4.4527523106358674e-05 0 9.1900146934558607e-05 0.00023938640115447776 0 9.7945025166138702e-05 0.00027571593457795674 0 6.9194706513831314e-05 0.00025582578346259346 0 7.7523810146376779e-05 0.00011509740973118768 0 8.7283591173523828e-05 0.0001318234246485682 0 9.7945025166138702e-05 0.00027571593457795674 0 7.0761417756565041e-05 0.00031752164258931875 0 5.5635327657167822e-05 0.00028418772328635841 0 4.8445727391692832e-05 -4.8228209644340434e-05 0 5.2858556553637142e-05 -4.4604052358972831e-05 0 4.5124627371800977e-05 -4.3678899638310473e-05 0 5.9879161372960703e-05 -4.4527523106358674e-05 0 5.2858556553637142e-05 -4.4604052358972831e-05 0 5.6058585096276975e-05 -5.2125511496946957e-05 0 4.8445727391692832e-05 -4.8228209644340434e-05 0 4.7811473834708788e-05 -5.3379391167415372e-05 0 5.6058585096276975e-05 -5.2125511496946957e-05 0 4.8445727391692832e-05 -4.8228209644340434e-05 0 5.6058585096276975e-05 -5.2125511496946957e-05 0 5.2858556553637142e-05 -4.4604052358972831e-05 0 5.4855885125680292e-05 -5.9772041000052491e-05 0 6.2885182033540278e-05 -5.8014405813386039e-05 0 5.6058585096276975e-05 -5.2125511496946957e-05 0 5.4855885125680292e-05 -5.9772041000052491e-05 0 5.6058585096276975e-05 -5.2125511496946957e-05 0 4.7811473834708788e-05 -5.3379391167415372e-05 0 5.9879161372960703e-05 -4.4527523106358674e-05 0 5.6058585096276975e-05 -5.2125511496946957e-05 0 6.6196859865847945e-05 -5.1101493042336319e-05 0 6.6196859865847945e-05 -5.1101493042336319e-05 0 5.6058585096276975e-05 -5.2125511496946957e-05 0 6.2885182033540278e-05 -5.8014405813386039e-05 0 5.4855885125680292e-05 -5.9772041000052491e-05 0 6.5398098961881644e-05 -6.6055034190041169e-05 0 6.2885182033540278e-05 -5.8014405813386039e-05 0 9.7945025166138702e-05 0.00027571593457795674 0 0.00010424052149800097 0.00031282695045226284 0 7.0761417756565041e-05 0.00031752164258931875 0 8.7283591173523828e-05 0.0001318234246485682 0 8.0764675741255772e-05 0.00014448215514487251 0 6.6196859865847945e-05 -5.1101493042336319e-05 0 6.2885182033540278e-05 -5.8014405813386039e-05 0 7.422906065381217e-05 -5.9782655944684973e-05 0 0.00010424052149800097 0.00031282695045226284 0 0.00011148934396510578 0.00035146367342042418 0 7.0761417756565041e-05 0.00031752164258931875 0 0.00011148934396510578 0.00035146367342042418 0 6.7545456793515141e-05 0.00035236347501820691 0 7.0761417756565041e-05 0.00031752164258931875 0 0.00011148934396510578 0.00035146367342042418 0 8.877653083126743e-05 0.00037255656673273129 0 6.7545456793515155e-05 0.00035236347501820697 0 8.0764675741255772e-05 0.00014448215514487251 0 0.00014228521286544304 0.00016120298596125691 0 0.00012084998088062437 0.00039165483721246918 0 8.877653083126743e-05 0.00037255656673273129 0 0.00011148934396510578 0.00035146367342042418 0 0.00012084998088062437 0.00039165483721246918 0 7.8963034777651363e-05 0.00039716968419112005 0 8.877653083126743e-05 0.00037255656673273129 0 5.4855885125680292e-05 -5.9772041000052491e-05 0 5.1979454982312986e-05 -6.8074878432023558e-05 0 6.5398098961881644e-05 -6.6055034190041169e-05 0 7.422906065381217e-05 -5.9782655944684973e-05 0 6.2885182033540278e-05 -5.8014405813386039e-05 0 6.5398098961881644e-05 -6.6055034190041169e-05 0 8.3378524707142292e-05 -7.1734160196341748e-05 0 7.422906065381217e-05 -5.9782655944684973e-05 0 6.5398098961881644e-05 -6.6055034190041169e-05 0 8.3378524707142292e-05 -7.1734160196341748e-05 0 6.5398098961881644e-05 -6.6055034190041169e-05 0 6.8909088881487904e-05 -7.6584549821337924e-05 0 6.8909088881487904e-05 -7.6584549821337924e-05 0 6.5398098961881644e-05 -6.6055034190041169e-05 0 5.1979454982312986e-05 -6.8074878432023558e-05 0 4.4304241137591931e-05 -7.4860933534485593e-05 0 5.1979454982312986e-05 -6.8074878432023558e-05 0 4.2521833508811662e-05 -6.3888557403457398e-05 0 5.5736220192547799e-05 -7.7094442885022266e-05 0 6.8909088881487904e-05 -7.6584549821337924e-05 0 5.1979454982312986e-05 -6.8074878432023558e-05 0 4.4304241137591931e-05 -7.4860933534485593e-05 0 5.5736220192547799e-05 -7.7094442885022266e-05 0 5.1979454982312986e-05 -6.8074878432023558e-05 0 5.4855885125680292e-05 -5.9772041000052491e-05 0 4.5988881930761345e-05 -5.9764296668906461e-05 0 5.1979454982312986e-05 -6.8074878432023558e-05 0 4.2521833508811662e-05 -6.3888557403457398e-05 0 5.1979454982312986e-05 -6.8074878432023558e-05 0 4.5988881930761345e-05 -5.9764296668906461e-05 0 4.0820136372537468e-05 -5.3750560232648628e-05 0 3.7194959598574589e-05 -5.9298820669400499e-05 0 4.5988881930761345e-05 -5.9764296668906461e-05 0 4.0820136372537468e-05 -5.3750560232648628e-05 0 4.5988881930761352e-05 -5.9764296668906461e-05 0 4.7811473834708788e-05 -5.3379391167415372e-05 0 5.4855885125680292e-05 -5.9772041000052491e-05 0 4.7811473834708788e-05 -5.3379391167415372e-05 0 4.5988881930761345e-05 -5.9764296668906461e-05 0 3.1886472016832168e-05 -5.9850338782166625e-05 0 3.7194959598574589e-05 -5.9298820669400499e-05 0 3.3036128539998639e-05 -5.3605848689035748e-05 0 4.0820136372537468e-05 -5.3750560232648628e-05 0 3.3036128539998639e-05 -5.3605848689035748e-05 0 3.7194959598574589e-05 -5.9298820669400499e-05 0 4.2521833508811662e-05 -6.3888557403457398e-05 0 3.7194959598574589e-05 -5.9298820669400499e-05 0 3.6456659025050743e-05 -6.5959480300190892e-05 0 4.2521833508811662e-05 -6.3888557403457398e-05 0 4.5988881930761345e-05 -5.9764296668906461e-05 0 3.7194959598574589e-05 -5.9298820669400499e-05 0 3.1886472016832168e-05 -5.9850338782166625e-05 0 3.6456659025050743e-05 -6.5959480300190892e-05 0 3.7194959598574589e-05 -5.9298820669400499e-05 0 4.4304241137591931e-05 -7.4860933534485593e-05 0 4.2521833508811662e-05 -6.3888557403457398e-05 0 3.6456659025050743e-05 -6.5959480300190892e-05 0 3.5948100497223264e-05 -7.1593729054638129e-05 0 4.4304241137591931e-05 -7.4860933534485593e-05 0 3.6456659025050743e-05 -6.5959480300190892e-05 0 3.5948100497223264e-05 -7.1593729054638129e-05 0 3.6456659025050743e-05 -6.5959480300190892e-05 0 3.1724136531096612e-05 -6.540970605236078e-05 0 2.991825598009492e-05 -6.8028355338929539e-05 0 3.5948100497223264e-05 -7.1593729054638129e-05 0 3.1724136531096612e-05 -6.540970605236078e-05 0 2.991825598009492e-05 -6.8028355338929539e-05 0 3.1724136531096612e-05 -6.540970605236078e-05 0 2.6561945490009407e-05 -6.1399595006424312e-05 0 3.1886472016832168e-05 -5.9850338782166625e-05 0 2.6561945490009404e-05 -6.1399595006424312e-05 0 3.1724136531096612e-05 -6.540970605236078e-05 0 3.1886472016832168e-05 -5.9850338782166625e-05 0 3.1724136531096612e-05 -6.540970605236078e-05 0 3.6456659025050743e-05 -6.5959480300190892e-05 0 2.5208648348503845e-05 -6.4222037641531693e-05 0 2.6809659250328827e-05 -6.5225053899191628e-05 0 2.3933753641428916e-05 -6.2438530463971957e-05 0 2.6809659250328827e-05 -6.5225053899191628e-05 0 2.991825598009492e-05 -6.8028355338929539e-05 0 2.3933753641428916e-05 -6.2438530463971957e-05 0 2.991825598009492e-05 -6.8028355338929539e-05 0 2.6561945490009411e-05 -6.1399595006424312e-05 0 2.3933753641428916e-05 -6.2438530463971957e-05 0 1.9612451410802772e-05 -5.8755489033572829e-05 0 2.3933753641428916e-05 -6.2438530463971957e-05 0 2.2378899634735944e-05 -5.739283620278257e-05 0 2.6561945490009407e-05 -6.1399595006424312e-05 0 2.2378899634735944e-05 -5.739283620278257e-05 0 2.3933753641428916e-05 -6.2438530463971957e-05 0 2.2378899634735944e-05 -5.739283620278257e-05 0 2.6348937470766993e-05 -5.5331025225511163e-05 0 2.1622160112670058e-05 -5.2388768200893665e-05 0 2.1622160112670058e-05 -5.2388768200893665e-05 0 1.8187592414420715e-05 -5.317724173681585e-05 0 2.2378899634735944e-05 -5.739283620278257e-05 0 1.9612451410802772e-05 -5.8755489033572829e-05 0 2.2378899634735944e-05 -5.739283620278257e-05 0 1.8187592414420715e-05 -5.317724173681585e-05 0 3.1886472016832168e-05 -5.9850338782166625e-05 0 2.6348937470766993e-05 -5.5331025225511163e-05 0 2.6561945490009407e-05 -6.1399595006424312e-05 0 2.6561945490009407e-05 -6.1399595006424312e-05 0 2.6348937470766993e-05 -5.5331025225511163e-05 0 2.2378899634735944e-05 -5.739283620278257e-05 0 3.1886472016832168e-05 -5.9850338782166625e-05 0 3.3036128539998639e-05 -5.3605848689035748e-05 0 2.6348937470766993e-05 -5.5331025225511163e-05 0 2.7910160645388541e-05 -5.0456186990965151e-05 0 2.6348937470766993e-05 -5.5331025225511163e-05 0 3.3036128539998639e-05 -5.3605848689035748e-05 0 2.7910160645388541e-05 -5.0456186990965151e-05 0 2.9673561175803084e-05 -4.6309588837190738e-05 0 2.5104255236383372e-05 -4.6002661344417168e-05 0 2.7910160645388541e-05 -5.0456186990965151e-05 0 2.5104255236383372e-05 -4.6002661344417168e-05 0 2.417602846997433e-05 -5.0541454559890253e-05 0 2.1098705436795503e-05 -4.6631823257263082e-05 0 2.417602846997433e-05 -5.0541454559890253e-05 0 2.5104255236383372e-05 -4.6002661344417168e-05 0 2.7910160645388541e-05 -5.0456186990965151e-05 0 2.417602846997433e-05 -5.0541454559890253e-05 0 2.6348937470766993e-05 -5.5331025225511163e-05 0 2.1622160112670058e-05 -5.2388768200893665e-05 0 2.417602846997433e-05 -5.0541454559890253e-05 0 2.1098705436795503e-05 -4.6631823257263082e-05 0 2.1622160112670058e-05 -5.2388768200893665e-05 0 2.6348937470766993e-05 -5.5331025225511163e-05 0 2.417602846997433e-05 -5.0541454559890253e-05 0 2.1622160112670058e-05 -5.2388768200893665e-05 0 1.706000547497176e-05 -4.591236050993882e-05 0 1.8187592414420715e-05 -5.317724173681585e-05 0 1.4975306249150589e-05 -4.9387179913637069e-05 0 1.8187592414420715e-05 -5.317724173681585e-05 0 1.7060005474971756e-05 -4.591236050993882e-05 0 2.1622160112670058e-05 -5.2388768200893665e-05 0 2.1098705436795503e-05 -4.6631823257263082e-05 0 1.7060005474971756e-05 -4.591236050993882e-05 0 1.6280366457356254e-05 -4.0462613549077016e-05 0 2.1098705436795503e-05 -4.6631823257263089e-05 0 2.1734238954898649e-05 -4.1323690069361202e-05 0 1.6280366457356254e-05 -4.0462613549077016e-05 0 1.7060005474971756e-05 -4.591236050993882e-05 0 2.1098705436795503e-05 -4.6631823257263082e-05 0 1.6280366457356254e-05 -4.0462613549077016e-05 0 1.1095215927335604e-05 -4.2447428616439882e-05 0 1.7060005474971756e-05 -4.591236050993882e-05 0 1.6280366457356254e-05 -4.0462613549077016e-05 0 2.1734238954898649e-05 -4.1323690069361202e-05 0 1.9259905743610389e-05 -3.5134645445968482e-05 0 1.9259905743610389e-05 -3.5134645445968482e-05 0 2.1734238954898649e-05 -4.1323690069361202e-05 0 2.3832533771958255e-05 -3.61517844196844e-05 0 2.6510210975919547e-05 -4.1519259903697481e-05 0 2.3832533771958255e-05 -3.61517844196844e-05 0 2.1734238954898649e-05 -4.1323690069361202e-05 0 2.6510210975919547e-05 -4.1519259903697481e-05 0 2.1734238954898649e-05 -4.1323690069361202e-05 0 2.5104255236383372e-05 -4.6002661344417168e-05 0 2.6510210975919547e-05 -4.1519259903697481e-05 0 2.5104255236383372e-05 -4.6002661344417168e-05 0 2.9673561175803084e-05 -4.6309588837190738e-05 0 2.1098705436795503e-05 -4.6631823257263082e-05 0 2.5104255236383372e-05 -4.6002661344417168e-05 0 2.1734238954898649e-05 -4.1323690069361202e-05 0 3.4979237604062509e-05 -0.00012072772637264955 0 1.9565761118790914e-05 -0.00011126273128447141 0 2.3083418111742547e-05 -0.000128074092276268 0 1.8204948055478836e-05 -7.1055993189553742e-05 0 2.0739262792133516e-05 -8.394219356472896e-05 0 3.1905509083225438e-05 -0.00010219453013524516 0 1.9565761118790914e-05 -0.00011126273128447141 0 3.4979237604062509e-05 -0.00012072772637264955 0 4.6900310974243733e-06 -3.989570419455872e-05 0 6.6784311929306918e-06 -4.7120998101457409e-05 0 1.1095215927335604e-05 -4.2447428616439882e-05 0 4.6900310974243733e-06 -3.989570419455872e-05 0 1.1095215927335604e-05 -4.2447428616439882e-05 0 8.2882674269655982e-06 -3.5610475512311418e-05 0 1.6280366457356254e-05 -4.0462613549077016e-05 0 1.227280028162864e-05 -3.7190311561820717e-05 0 1.1095215927335604e-05 -4.2447428616439882e-05 0 1.1095215927335604e-05 -4.2447428616439882e-05 0 1.227280028162864e-05 -3.7190311561820717e-05 0 8.2882674269655982e-06 -3.5610475512311418e-05 0 1.4975306249150589e-05 -4.9387179913637069e-05 0 1.7060005474971756e-05 -4.591236050993882e-05 0 1.1095215927335604e-05 -4.2447428616439882e-05 0 6.6784311929306918e-06 -4.7120998101457409e-05 0 1.1038861014155439e-05 -4.9089269689911202e-05 0 1.1095215927335604e-05 -4.2447428616439882e-05 0 1.4975306249150589e-05 -4.9387179913637069e-05 0 1.1095215927335604e-05 -4.2447428616439882e-05 0 1.1038861014155439e-05 -4.9089269689911202e-05 0 1.4975306249150589e-05 -4.9387179913637069e-05 0 1.1038861014155439e-05 -4.9089269689911202e-05 0 1.4788220473791562e-05 -5.4863587110802337e-05 0 1.4975306249150589e-05 -4.9387179913637069e-05 0 1.4788220473791562e-05 -5.4863587110802337e-05 0 1.8187592414420715e-05 -5.317724173681585e-05 0 9.5544302091197867e-06 -5.3917633485551727e-05 0 1.4788220473791563e-05 -5.4863587110802337e-05 0 1.1038861014155439e-05 -4.9089269689911202e-05 0 9.5544302091197867e-06 -5.3917633485551727e-05 0 1.3547687833818549e-05 -5.982022569010508e-05 0 1.4788220473791562e-05 -5.4863587110802337e-05 0 3.8161355959926149e-05 -0.00014019645172861465 0 2.3083418111742547e-05 -0.000128074092276268 0 1.5220085885125665e-05 -0.00014356593374638968 0 3.8161355959926149e-05 -0.00014019645172861465 0 1.5220085885125661e-05 -0.00014356593374638968 0 2.4383641499170475e-05 -0.00016224581668546919 0 2.3539718757160678e-05 -9.6947958368780445e-05 0 2.7934486684141376e-05 -0.0001102378156545223 0 6.6784311929306918e-06 -4.7120998101457409e-05 0 9.5544302091197867e-06 -5.3917633485551727e-05 0 1.1038861014155439e-05 -4.9089269689911202e-05 0 3.4979237604062509e-05 -0.00012072772637264955 0 2.3083418111742547e-05 -0.000128074092276268 0 3.8161355959926149e-05 -0.00014019645172861465 0 2.0739262792133516e-05 -8.394219356472896e-05 0 2.3539718757160678e-05 -9.6947958368780445e-05 0 3.8161355959926149e-05 -0.00014019645172861465 0 2.4383641499170475e-05 -0.00016224581668546919 0 4.1734739017771157e-05 -0.00016010538420212651 0 2.7934486684141376e-05 -0.0001102378156545223 0 3.0136490143084662e-05 -0.00012199818730533415 0 1.3547687833818549e-05 -5.982022569010508e-05 0 1.8870533534046089e-05 -6.4200599365208183e-05 0 1.7426098995646891e-05 -6.001282671869574e-05 0 4.1734739017771157e-05 -0.00016010538420212651 0 2.4383641499170475e-05 -0.00016224581668546919 0 4.5977019405909189e-05 -0.00018080452329656283 0 4.5977019405909189e-05 -0.00018080452329656283 0 2.4383641499170472e-05 -0.00016224581668546919 0 2.3654607465835657e-05 -0.00018116139837368744 0 1.9612451410802772e-05 -5.8755489033572829e-05 0 1.8187592414420715e-05 -5.317724173681585e-05 0 1.4788220473791562e-05 -5.4863587110802337e-05 0 1.9612451410802772e-05 -5.8755489033572829e-05 0 1.4788220473791562e-05 -5.4863587110802337e-05 0 1.7426098995646891e-05 -6.001282671869574e-05 0 1.3547687833818549e-05 -5.982022569010508e-05 0 1.7426098995646891e-05 -6.001282671869574e-05 0 1.4788220473791562e-05 -5.4863587110802337e-05 0 1.9612451410802772e-05 -5.8755489033572829e-05 0 1.7426098995646891e-05 -6.001282671869574e-05 0 2.1137314797931135e-05 -6.2454737048398288e-05 0 1.9612451410802772e-05 -5.8755489033572829e-05 0 2.1137314797931135e-05 -6.2454737048398288e-05 0 2.3933753641428916e-05 -6.2438530463971957e-05 0 1.8870533534046089e-05 -6.4200599365208183e-05 0 2.1137314797931135e-05 -6.2454737048398288e-05 0 1.7426098995646891e-05 -6.001282671869574e-05 0 2.5039129915962765e-05 -6.6235765359801948e-05 0 2.1137314797931135e-05 -6.2454737048398288e-05 0 1.8870533534046089e-05 -6.4200599365208183e-05 0 2.5039129915962765e-05 -6.6235765359801948e-05 0 2.5208648348503845e-05 -6.4222037641531693e-05 0 2.1137314797931135e-05 -6.2454737048398288e-05 0 2.5208648348503845e-05 -6.4222037641531693e-05 0 2.3933753641428916e-05 -6.2438530463971957e-05 0 2.1137314797931135e-05 -6.2454737048398288e-05 0 4.5977019405909189e-05 -0.00018080452329656283 0 2.3654607465835654e-05 -0.00018116139837368744 0 3.492076422614018e-05 -0.00019186608906772781 0 3.0136490143084662e-05 -0.00012199818730533415 0 4.5485986903688907e-05 -0.00013454991894757022 0 5.1969814512189476e-05 -0.00020180289884565126 0 4.5977019405909189e-05 -0.00018080452329656283 0 3.492076422614018e-05 -0.00019186608906772781 0 5.1969814512189476e-05 -0.00020180289884565126 0 3.492076422614018e-05 -0.00019186608906772781 0 3.048022488328682e-05 -0.00020460691787167783 0 3.048022488328682e-05 -0.00020460691787167783 0 3.492076422614018e-05 -0.00019186608906772781 0 1.800313192724312e-05 -0.00019418474290220408 0 8.901192480345466e-06 -0.00020519437900883242 0 3.048022488328682e-05 -0.00020460691787167783 0 1.800313192724312e-05 -0.00019418474290220408 0 2.3654607465835657e-05 -0.00018116139837368744 0 5.2213560747008497e-06 -0.00018610832038722772 0 1.800313192724312e-05 -0.00019418474290220408 0 2.3654607465835657e-05 -0.00018116139837368744 0 1.800313192724312e-05 -0.00019418474290220408 0 3.492076422614018e-05 -0.00019186608906772781 0 8.901192480345466e-06 -0.00020519437900883242 0 1.8003131927243124e-05 -0.00019418474290220411 0 5.2213560747008497e-06 -0.00018610832038722772 0 -1.1442989032930298e-05 -0.00020494309257909919 0 5.2213560747008497e-06 -0.00018610832038722772 0 -1.2947709706118895e-05 -0.00017927714806672288 0 -1.1442989032930298e-05 -0.00020494309257909919 0 -1.2947709706118895e-05 -0.00017927714806672288 0 -3.002268878165887e-05 -0.00018621270844974136 0 -1.1442989032930298e-05 -0.00020494309257909919 0 8.901192480345466e-06 -0.00020519437900883242 0 5.2213560747008497e-06 -0.00018610832038722772 0 6.2501743812418948e-06 -0.00016547057021803875 0 -1.2947709706118895e-05 -0.00017927714806672288 0 5.2213560747008497e-06 -0.00018610832038722772 0 6.2501743812418948e-06 -0.00016547057021803875 0 -1.5294623662069707e-05 -0.00015646739876559886 0 -1.2947709706118895e-05 -0.00017927714806672288 0 -3.3684765710345679e-05 -0.00016561693516913548 0 -1.2947709706118895e-05 -0.00017927714806672288 0 -1.5294623662069707e-05 -0.00015646739876559886 0 6.2501743812418948e-06 -0.00016547057021803875 0 -2.3259445968162937e-06 -0.00014610763588697088 0 -1.5294623662069707e-05 -0.00015646739876559886 0 6.2501743812418948e-06 -0.00016547057021803875 0 2.4383641499170475e-05 -0.00016224581668546919 0 1.5220085885125665e-05 -0.00014356593374638968 0 6.2501743812418948e-06 -0.00016547057021803875 0 2.3654607465835657e-05 -0.00018116139837368744 0 2.4383641499170475e-05 -0.00016224581668546919 0 6.2501743812418948e-06 -0.00016547057021803875 0 5.221356074700848e-06 -0.00018610832038722772 0 2.3654607465835657e-05 -0.00018116139837368744 0 -7.0233985668884975e-05 -0.00018490506548490338 0 -5.7177139362355726e-05 -0.00019337422680154687 0 -4.8439505443907636e-05 -0.00018226893724387173 0 -7.0141709535571984e-05 -0.00020463853340586417 0 -5.7177139362355733e-05 -0.00019337422680154687 0 -7.0233985668884975e-05 -0.00018490506548490338 0 -7.0141709535571984e-05 -0.00020463853340586417 0 -5.0559095602938626e-05 -0.00020452901594774487 0 -5.7177139362355726e-05 -0.00019337422680154687 0 -5.0559095602938626e-05 -0.00020452901594774487 0 -4.0984669708243559e-05 -0.00019437590571910697 0 -5.7177139362355726e-05 -0.00019337422680154687 0 -4.8439505443907636e-05 -0.00018226893724387173 0 -5.7177139362355726e-05 -0.00019337422680154687 0 -4.0984669708243559e-05 -0.00019437590571910697 0 -4.8439505443907636e-05 -0.00018226893724387173 0 -4.0984669708243559e-05 -0.00019437590571910697 0 -3.002268878165887e-05 -0.00018621270844974136 0 -3.0969269450319886e-05 -0.00020467337021328144 0 -3.002268878165887e-05 -0.00018621270844974136 0 -4.0984669708243559e-05 -0.00019437590571910697 0 -5.0559095602938626e-05 -0.00020452901594774487 0 -3.0969269450319886e-05 -0.00020467337021328144 0 -4.0984669708243559e-05 -0.00019437590571910697 0 -3.0969269450319886e-05 -0.00020467337021328144 0 -1.1442989032930298e-05 -0.00020494309257909919 0 -3.002268878165887e-05 -0.00018621270844974136 0 -3.3684765710345679e-05 -0.00016561693516913548 0 -3.002268878165887e-05 -0.00018621270844974136 0 -1.2947709706118895e-05 -0.00017927714806672288 0 -3.3684765710345679e-05 -0.00016561693516913548 0 -1.5294623662069707e-05 -0.00015646739876559886 0 -2.9457228859264503e-05 -0.00014308573824478636 0 -3.3684765710345679e-05 -0.00016561693516913548 0 -4.6576093156565038e-05 -0.0001464716521952156 0 -5.2484848522693536e-05 -0.00016467983377571263 0 -3.3684765710345679e-05 -0.00016561693516913548 0 -4.8439505443907636e-05 -0.00018226893724387173 0 -3.002268878165887e-05 -0.00018621270844974136 0 -3.3684765710345679e-05 -0.00016561693516913548 0 -5.2484848522693536e-05 -0.00016467983377571263 0 -4.8439505443907636e-05 -0.00018226893724387173 0 -7.0233985668884975e-05 -0.00018490506548490338 0 -4.8439505443907636e-05 -0.00018226893724387173 0 -5.2484848522693536e-05 -0.00016467983377571263 0 -6.930439728641595e-05 -0.00014498201622005819 0 -7.000523280139454e-05 -0.00016499466055759553 0 -5.2484848522693536e-05 -0.00016467983377571263 0 -7.000523280139454e-05 -0.00016499466055759553 0 -7.0233985668884975e-05 -0.00018490506548490338 0 -5.2484848522693536e-05 -0.00016467983377571263 0 -6.7915934750056129e-05 -0.00012545926607621905 0 -6.930439728641595e-05 -0.00014498201622005819 0 -5.4997362623286727e-05 -0.00013223944458092189 0 -6.930439728641595e-05 -0.00014498201622005819 0 -5.2484848522693536e-05 -0.00016467983377571263 0 -4.6576093156565038e-05 -0.0001464716521952156 0 -4.0807439557902078e-05 -0.00012526857453628145 0 -5.4997362623286727e-05 -0.00013223944458092189 0 -4.6576093156565038e-05 -0.0001464716521952156 0 -6.930439728641595e-05 -0.00014498201622005819 0 -4.6576093156565038e-05 -0.0001464716521952156 0 -5.4997362623286727e-05 -0.00013223944458092189 0 -4.0807439557902078e-05 -0.00012526857453628145 0 -4.6576093156565032e-05 -0.0001464716521952156 0 -2.9457228859264503e-05 -0.00014308573824478636 0 -3.3684765710345679e-05 -0.00016561693516913548 0 -2.9457228859264503e-05 -0.00014308573824478636 0 -4.6576093156565038e-05 -0.0001464716521952156 0 -4.0807439557902078e-05 -0.00012526857453628145 0 -2.9457228859264503e-05 -0.00014308573824478636 0 -2.6814178417075518e-05 -0.00012457808433865035 0 -1.5153989525773992e-05 -0.00013476519156101864 0 -2.6814178417075521e-05 -0.00012457808433865035 0 -2.9457228859264503e-05 -0.00014308573824478636 0 -4.0807439557902078e-05 -0.00012526857453628145 0 -2.6814178417075518e-05 -0.00012457808433865035 0 -3.2685644087342058e-05 -0.00011236010187105426 0 -3.0128010705799162e-05 -9.5802508352223559e-05 0 -3.2685644087342058e-05 -0.00011236010187105426 0 -1.7805998961005577e-05 -0.00011294551237872991 0 -1.7805998961005577e-05 -0.00011294551237872991 0 -3.2685644087342058e-05 -0.00011236010187105426 0 -2.6814178417075518e-05 -0.00012457808433865035 0 -4.0807439557902078e-05 -0.00012526857453628145 0 -3.2685644087342058e-05 -0.00011236010187105426 0 -4.7016619726370344e-05 -0.00010663775462634782 0 -4.0807439557902078e-05 -0.00012526857453628145 0 -5.5473704937631078e-05 -0.00011882668908765448 0 -5.4997362623286727e-05 -0.00013223944458092189 0 -4.0807439557902078e-05 -0.00012526857453628145 0 -4.7016619726370344e-05 -0.00010663775462634782 0 -5.5473704937631078e-05 -0.00011882668908765448 0 -6.5704579150370531e-05 -0.00010641664200379902 0 -5.5473704937631078e-05 -0.00011882668908765449 0 -4.7016619726370344e-05 -0.00010663775462634782 0 -6.5704579150370531e-05 -0.00010641664200379902 0 -6.7915934750056129e-05 -0.00012545926607621905 0 -5.5473704937631078e-05 -0.00011882668908765448 0 -6.7915934750056129e-05 -0.00012545926607621905 0 -5.4997362623286727e-05 -0.00013223944458092189 0 -5.5473704937631078e-05 -0.00011882668908765448 0 9.9082061844983424e-06 -0.00012195621859346838 0 -2.4331161138026403e-06 -0.00012880189501997982 0 1.5220085885125665e-05 -0.00014356593374638968 0 1.5220085885125665e-05 -0.00014356593374638968 0 -2.4331161138026403e-06 -0.00012880189501997982 0 -2.3259445968162937e-06 -0.00014610763588697088 0 9.9082061844983424e-06 -0.00012195621859346838 0 1.5220085885125663e-05 -0.00014356593374638968 0 2.3083418111742547e-05 -0.000128074092276268 0 6.2501743812418948e-06 -0.00016547057021803875 0 1.5220085885125665e-05 -0.00014356593374638968 0 -2.3259445968162937e-06 -0.00014610763588697088 0 -1.5153989525773992e-05 -0.00013476519156101864 0 -1.5294623662069707e-05 -0.00015646739876559886 0 -2.3259445968162937e-06 -0.00014610763588697088 0 -1.5153989525773992e-05 -0.00013476519156101864 0 -2.9457228859264503e-05 -0.00014308573824478636 0 -1.5294623662069707e-05 -0.00015646739876559886 0 -1.5153989525773992e-05 -0.00013476519156101864 0 -2.3259445968162937e-06 -0.00014610763588697088 0 -2.4331161138026403e-06 -0.00012880189501997982 0 -1.7805998961005577e-05 -0.00011294551237872991 0 -2.4331161138026403e-06 -0.00012880189501997982 0 -3.2555656817783125e-06 -0.0001104990653253642 0 -1.5153989525773992e-05 -0.00013476519156101864 0 -2.4331161138026403e-06 -0.00012880189501997982 0 -1.7805998961005577e-05 -0.00011294551237872991 0 -1.5153989525773992e-05 -0.00013476519156101864 0 -1.7805998961005577e-05 -0.00011294551237872991 0 -2.6814178417075518e-05 -0.00012457808433865035 0 -1.7805998961005577e-05 -0.00011294551237872991 0 -3.255565681778312e-06 -0.0001104990653253642 0 -1.2452348333516583e-05 -9.5828496444610021e-05 0 9.9082061844983424e-06 -0.00012195621859346838 0 7.7837445079847591e-06 -0.00010663678285766036 0 -3.2555656817783125e-06 -0.0001104990653253642 0 9.9082061844983424e-06 -0.00012195621859346838 0 -3.2555656817783125e-06 -0.0001104990653253642 0 -2.4331161138026403e-06 -0.00012880189501997982 0 9.9082061844983424e-06 -0.00012195621859346838 0 2.3083418111742547e-05 -0.000128074092276268 0 1.9565761118790914e-05 -0.00011126273128447141 0 9.9082061844983424e-06 -0.00012195621859346838 0 1.9565761118790914e-05 -0.00011126273128447141 0 7.7837445079847591e-06 -0.00010663678285766036 0 1.4421469857124475e-05 -9.4564081965073276e-05 0 7.7837445079847591e-06 -0.00010663678285766036 0 1.9565761118790914e-05 -0.00011126273128447141 0 -1.4517262161756192e-06 -9.5139163675863714e-05 0 7.7837445079847591e-06 -0.00010663678285766036 0 1.4421469857124475e-05 -9.4564081965073276e-05 0 -1.4517262161756192e-06 -9.5139163675863714e-05 0 1.4421469857124475e-05 -9.4564081965073263e-05 0 5.5331202571360103e-06 -8.3720183019915119e-05 0 1.4421469857124475e-05 -9.4564081965073276e-05 0 1.5120985202662115e-05 -7.8201209592621069e-05 0 5.5331202571360103e-06 -8.3720183019915119e-05 0 -1.4517262161756192e-06 -9.5139163675863714e-05 0 5.5331202571360103e-06 -8.3720183019915119e-05 0 -4.8425843945786912e-06 -8.1291404053386633e-05 0 -1.4517262161756192e-06 -9.5139163675863714e-05 0 -3.2555656817783125e-06 -0.0001104990653253642 0 7.7837445079847591e-06 -0.00010663678285766036 0 -1.4517262161756192e-06 -9.5139163675863714e-05 0 -1.2452348333516583e-05 -9.5828496444610021e-05 0 -3.2555656817783125e-06 -0.0001104990653253642 0 -3.0128010705799162e-05 -9.5802508352223559e-05 0 -1.7805998961005577e-05 -0.00011294551237872991 0 -1.2452348333516583e-05 -9.5828496444610021e-05 0 -3.0128010705799162e-05 -9.5802508352223559e-05 0 -1.2452348333516583e-05 -9.5828496444610021e-05 0 -1.748582282652333e-05 -8.0524238096477257e-05 0 -1.4517262161756192e-06 -9.5139163675863714e-05 0 -4.8425843945786912e-06 -8.1291404053386633e-05 0 -1.2452348333516583e-05 -9.5828496444610021e-05 0 -1.748582282652333e-05 -8.0524238096477257e-05 0 -1.2452348333516583e-05 -9.5828496444610021e-05 0 -4.8425843945786912e-06 -8.1291404053386633e-05 0 -1.748582282652333e-05 -8.0524238096477257e-05 0 -4.8425843945786912e-06 -8.1291404053386633e-05 0 -6.0272505175990597e-06 -6.5249592264348877e-05 0 -1.6220046841410769e-05 -6.0133721686544416e-05 0 -2.5559251172404836e-05 -7.0216024300935918e-05 0 -1.748582282652333e-05 -8.0524238096477257e-05 0 -1.6220046841410769e-05 -6.0133721686544416e-05 0 -1.748582282652333e-05 -8.0524238096477257e-05 0 -6.0272505175990597e-06 -6.5249592264348877e-05 0 4.6340692562053535e-06 -6.9778420721567714e-05 0 4.1061649279996337e-06 -5.1312449642677515e-05 0 -6.0272505175990597e-06 -6.5249592264348877e-05 0 4.6340692562053535e-06 -6.9778420721567714e-05 0 1.3940449300386005e-05 -6.0490722519598667e-05 0 4.1061649279996337e-06 -5.1312449642677515e-05 0 4.6340692562053535e-06 -6.9778420721567714e-05 0 5.5331202571360112e-06 -8.3720183019915132e-05 0 1.5120985202662115e-05 -7.8201209592621069e-05 0 4.6340692562053535e-06 -6.9778420721567714e-05 0 -6.0272505175990614e-06 -6.5249592264348863e-05 0 -4.8425843945786912e-06 -8.1291404053386633e-05 0 4.6340692562053535e-06 -6.9778420721567714e-05 0 -4.8425843945786912e-06 -8.1291404053386633e-05 0 5.5331202571360103e-06 -8.3720183019915119e-05 0 -6.2626039403833528e-05 -8.8385777396610181e-05 0 -5.4790764416683444e-05 -9.7398452176321483e-05 0 -4.4023714239791322e-05 -8.7630345341754677e-05 0 -6.2626039403833528e-05 -8.8385777396610181e-05 0 -4.4023714239791322e-05 -8.7630345341754677e-05 0 -4.8582228879805608e-05 -7.5126682690835312e-05 0 -6.5704579150370531e-05 -0.00010641664200379902 0 -4.7016619726370344e-05 -0.00010663775462634782 0 -5.4790764416683444e-05 -9.7398452176321497e-05 0 -6.2626039403833528e-05 -8.8385777396610181e-05 0 -6.5704579150370531e-05 -0.00010641664200379902 0 -5.4790764416683444e-05 -9.7398452176321497e-05 0 -4.7016619726370344e-05 -0.00010663775462634782 0 -4.4023714239791322e-05 -8.7630345341754677e-05 0 -5.4790764416683444e-05 -9.7398452176321497e-05 0 -3.0128010705799162e-05 -9.5802508352223559e-05 0 -3.017054239330519e-05 -8.0824050473937906e-05 0 -4.4023714239791322e-05 -8.7630345341754677e-05 0 -3.0128010705799162e-05 -9.5802508352223559e-05 0 -4.4023714239791316e-05 -8.7630345341754677e-05 0 -4.7016619726370344e-05 -0.00010663775462634782 0 -3.0128010705799162e-05 -9.5802508352223559e-05 0 -4.7016619726370344e-05 -0.00010663775462634782 0 -3.2685644087342058e-05 -0.00011236010187105426 0 -3.0128010705799162e-05 -9.5802508352223559e-05 0 -1.748582282652333e-05 -8.0524238096477244e-05 0 -3.017054239330519e-05 -8.0824050473937906e-05 0 -3.6934716338792113e-05 -7.1138743187745105e-05 0 -3.017054239330519e-05 -8.0824050473937906e-05 0 -2.5559251172404836e-05 -7.0216024300935918e-05 0 -1.748582282652333e-05 -8.0524238096477257e-05 0 -2.5559251172404836e-05 -7.0216024300935918e-05 0 -3.017054239330519e-05 -8.0824050473937906e-05 0 -1.6220046841410769e-05 -6.0133721686544416e-05 0 -2.7354407734920933e-05 -5.9500292819591162e-05 0 -2.5559251172404836e-05 -7.0216024300935918e-05 0 -3.6934716338792113e-05 -7.1138743187745105e-05 0 -2.5559251172404836e-05 -7.0216024300935918e-05 0 -2.7354407734920933e-05 -5.9500292819591162e-05 0 -3.6934716338792113e-05 -7.1138743187745105e-05 0 -2.7354407734920933e-05 -5.9500292819591162e-05 0 -4.2552420780628198e-05 -6.0541586895700585e-05 0 -3.6934716338792113e-05 -7.1138743187745105e-05 0 -4.4023714239791322e-05 -8.7630345341754677e-05 0 -3.017054239330519e-05 -8.0824050473937906e-05 0 -3.6934716338792113e-05 -7.1138743187745105e-05 0 -4.8582228879805608e-05 -7.5126682690835312e-05 0 -4.4023714239791322e-05 -8.7630345341754677e-05 0 -3.6934716338792113e-05 -7.1138743187745105e-05 0 -4.2552420780628198e-05 -6.0541586895700585e-05 0 -4.8582228879805608e-05 -7.5126682690835312e-05 0 -5.8888418033595339e-05 -7.1489836611652032e-05 0 -4.8582228879805608e-05 -7.5126682690835312e-05 0 -4.2552420780628198e-05 -6.0541586895700585e-05 0 -5.8888418033595339e-05 -7.1489836611652032e-05 0 -6.2626039403833528e-05 -8.8385777396610181e-05 0 -4.8582228879805608e-05 -7.5126682690835312e-05 0 -4.9022743502913437e-05 -4.2263222061526995e-05 0 -5.446230336470311e-05 -5.6057077666725321e-05 0 -4.2088110098102707e-05 -4.7451466777994787e-05 0 -5.446230336470311e-05 -5.6057077666725321e-05 0 -5.8888418033595339e-05 -7.1489836611652032e-05 0 -4.2552420780628198e-05 -6.0541586895700585e-05 0 -5.446230336470311e-05 -5.6057077666725321e-05 0 -4.2552420780628198e-05 -6.0541586895700585e-05 0 -4.2088110098102707e-05 -4.7451466777994787e-05 0 -3.2023062360513334e-05 -4.7080326138624519e-05 0 -4.2088110098102707e-05 -4.7451466777994787e-05 0 -4.2552420780628198e-05 -6.0541586895700585e-05 0 -3.2023062360513334e-05 -4.7080326138624519e-05 0 -4.2552420780628198e-05 -6.0541586895700585e-05 0 -2.7354407734920933e-05 -5.9500292819591162e-05 0 -1.6220046841410769e-05 -6.0133721686544416e-05 0 -2.3338745728585544e-05 -4.883604669878187e-05 0 -2.7354407734920933e-05 -5.9500292819591162e-05 0 -3.2023062360513334e-05 -4.7080326138624519e-05 0 -2.7354407734920933e-05 -5.9500292819591162e-05 0 -2.3338745728585544e-05 -4.883604669878187e-05 0 -1.5170068995237057e-05 -4.1405159376554442e-05 0 -2.4421761732779913e-05 -3.9272431440541753e-05 0 -2.3338745728585544e-05 -4.883604669878187e-05 0 -3.2023062360513334e-05 -4.7080326138624519e-05 0 -2.3338745728585544e-05 -4.883604669878187e-05 0 -2.4421761732779913e-05 -3.9272431440541753e-05 0 -1.9807085741889634e-05 -2.9124969428819362e-05 0 -3.295146179439247e-05 -3.3777828504711978e-05 0 -2.4421761732779913e-05 -3.9272431440541753e-05 0 -1.9807085741889634e-05 -2.9124969428819362e-05 0 -2.3206654205150499e-05 -2.3119115172880818e-05 0 -3.295146179439247e-05 -3.3777828504711978e-05 0 -3.2023062360513334e-05 -4.7080326138624519e-05 0 -2.4421761732779913e-05 -3.9272431440541753e-05 0 -3.295146179439247e-05 -3.3777828504711978e-05 0 -4.9022743502913437e-05 -4.2263222061526995e-05 0 -4.2088110098102707e-05 -4.7451466777994787e-05 0 -3.295146179439247e-05 -3.3777828504711978e-05 0 -3.2023062360513334e-05 -4.7080326138624519e-05 0 -3.295146179439247e-05 -3.3777828504711978e-05 0 -4.2088110098102707e-05 -4.7451466777994787e-05 0 -4.3564818867359186e-05 -3.0554592169783572e-05 0 -4.9022743502913437e-05 -4.2263222061526995e-05 0 -3.295146179439247e-05 -3.3777828504711978e-05 0 -4.3574996950695012e-06 -3.780564649663736e-05 0 -7.656532842215391e-06 -5.0647668776828158e-05 0 4.1061649279996337e-06 -5.1312449642677515e-05 0 -4.3574996950695012e-06 -3.780564649663736e-05 0 4.1061649279996337e-06 -5.1312449642677515e-05 0 4.9945347687866049e-06 -3.366345741929025e-05 0 4.1061649279996337e-06 -5.1312449642677515e-05 0 -7.656532842215391e-06 -5.0647668776828158e-05 0 -6.0272505175990597e-06 -6.5249592264348877e-05 0 -1.6220046841410769e-05 -6.0133721686544416e-05 0 -6.0272505175990597e-06 -6.5249592264348877e-05 0 -7.656532842215391e-06 -5.0647668776828158e-05 0 -1.6220046841410769e-05 -6.0133721686544416e-05 0 -1.5170068995237055e-05 -4.1405159376554442e-05 0 -2.3338745728585544e-05 -4.883604669878187e-05 0 -1.6220046841410769e-05 -6.0133721686544416e-05 0 -7.656532842215391e-06 -5.0647668776828158e-05 0 -1.5170068995237057e-05 -4.1405159376554442e-05 0 -4.3574996950695012e-06 -3.780564649663736e-05 0 -1.5170068995237057e-05 -4.1405159376554442e-05 0 -7.656532842215391e-06 -5.0647668776828158e-05 0 -4.3574996950695012e-06 -3.780564649663736e-05 0 -1.0874937303286846e-05 -2.932180443406702e-05 0 -1.5170068995237057e-05 -4.1405159376554442e-05 0 -1.9807085741889634e-05 -2.9124969428819362e-05 0 -2.4421761732779913e-05 -3.9272431440541753e-05 0 -1.5170068995237057e-05 -4.1405159376554442e-05 0 -1.9807085741889634e-05 -2.9124969428819362e-05 0 -1.0874937303286844e-05 -2.932180443406702e-05 0 -1.4848788823927725e-05 -2.3020855554302483e-05 0 -1.9807085741889634e-05 -2.9124969428819362e-05 0 -1.5170068995237057e-05 -4.1405159376554442e-05 0 -1.0874937303286844e-05 -2.932180443406702e-05 0 -4.3574996950695012e-06 -3.780564649663736e-05 0 -3.8922740688724739e-06 -2.5726365180023228e-05 0 -1.0874937303286844e-05 -2.932180443406702e-05 0 -3.8922740688724739e-06 -2.5726365180023228e-05 0 -4.3574996950695012e-06 -3.780564649663736e-05 0 4.9945347687866049e-06 -3.366345741929025e-05 0 3.2294696039186734e-06 -2.1216237041003845e-05 0 -3.8922740688724739e-06 -2.5726365180023228e-05 0 4.9945347687866049e-06 -3.366345741929025e-05 0 9.390277350717818e-06 -1.776893078774258e-05 0 3.2294696039186734e-06 -2.1216237041003845e-05 0 4.9945347687866049e-06 -3.366345741929025e-05 0 9.390277350717818e-06 -1.776893078774258e-05 0 5.9740620860488814e-06 -1.4488299810513109e-05 0 6.7544222319348084e-06 -1.3515671387918559e-05 0 9.390277350717818e-06 -1.776893078774258e-05 0 4.9945347687866049e-06 -3.366345741929025e-05 0 1.689521529945799e-05 -3.6777053297838023e-05 0 7.8671019184107949e-06 -1.7544348143658931e-05 0 1.2029802414456116e-05 -2.5841097169204759e-05 0 1.689521529945799e-05 -3.6777053297838023e-05 0 4.9945347687866049e-06 -3.366345741929025e-05 0 1.2406709478444143e-05 -4.5448052326066483e-05 0 4.1061649279996337e-06 -5.1312449642677515e-05 0 1.2406709478444143e-05 -4.5448052326066483e-05 0 4.9945347687866049e-06 -3.366345741929025e-05 0 1.2029802414456116e-05 -2.5841097169204759e-05 0 1.2992067910903697e-05 -3.5381594966034406e-05 0 1.689521529945799e-05 -3.6777053297838023e-05 0 1.2406709478444143e-05 -4.5448052326066483e-05 0 2.186710063673303e-05 -5.1871776730220193e-05 0 1.2992067910903697e-05 -3.5381594966034406e-05 0 1.4543109884657234e-05 -4.6535110690210992e-05 0 2.186710063673303e-05 -5.1871776730220193e-05 0 1.2406709478444143e-05 -4.5448052326066483e-05 0 1.3940449300386008e-05 -6.0490722519598667e-05 0 4.1061649279996337e-06 -5.1312449642677515e-05 0 1.3940449300386008e-05 -6.0490722519598667e-05 0 1.2406709478444143e-05 -4.5448052326066483e-05 0 9.6100440404560789e-06 -1.8331000463848135e-05 0 7.5041549894991635e-06 -1.462838784515973e-05 0 6.8562042226942646e-06 -2.0154057519690027e-05 0 4.3472432523627862e-06 -1.8993406907339399e-05 0 3.4454744930261327e-06 -2.5256543883852987e-05 0 6.8562042226942646e-06 -2.0154057519690027e-05 0 4.3472432523627862e-06 -1.8993406907339399e-05 0 6.8562042226942646e-06 -2.0154057519690027e-05 0 7.5041549894991635e-06 -1.462838784515973e-05 0 5.9740620860488814e-06 -1.4488299810513109e-05 0 4.3472432523627862e-06 -1.8993406907339399e-05 0 7.5041549894991635e-06 -1.462838784515973e-05 0 7.5041549894991635e-06 -1.462838784515973e-05 0 9.0719660852911314e-06 -1.0984875766339492e-05 0 6.7544222319348084e-06 -1.3515671387918559e-05 0 5.9740620860488814e-06 -1.4488299810513109e-05 0 7.5041549894991635e-06 -1.462838784515973e-05 0 6.7544222319348084e-06 -1.3515671387918559e-05 0 9.390277350717818e-06 -1.776893078774258e-05 0 6.7544222319348084e-06 -1.3515671387918559e-05 0 7.7078160620000163e-06 -1.1922185525851586e-05 0 6.7544222319348084e-06 -1.3515671387918559e-05 0 9.0719660852911314e-06 -1.0984875766339492e-05 0 7.7078160620000163e-06 -1.1922185525851586e-05 0 9.0719660852911314e-06 -1.0984875766339492e-05 0 7.5041549894991635e-06 -1.462838784515973e-05 0 1.116229299405807e-05 -1.4674771562634557e-05 0 9.0719660852911314e-06 -1.0984875766339492e-05 0 1.116229299405807e-05 -1.4674771562634557e-05 0 1.3177364973890578e-05 -1.0110296950141683e-05 0 9.0719660852911314e-06 -1.0984875766339492e-05 0 1.3177364973890578e-05 -1.0110296950141683e-05 0 1.1674593308501406e-05 -6.5899336436319751e-06 0 1.4735423426647539e-05 -4.1951966668801287e-06 0 1.3177364973890578e-05 -1.0110296950141683e-05 0 1.6468841869595722e-05 -7.9628811580576093e-06 0 1.4735423426647539e-05 -4.1951966668801287e-06 0 1.1674593308501406e-05 -6.5899336436319751e-06 0 1.3177364973890578e-05 -1.0110296950141683e-05 0 1.7188610089974375e-05 -1.3709283812222532e-05 0 1.6468841869595722e-05 -7.9628811580576093e-06 0 1.3177364973890578e-05 -1.0110296950141683e-05 0 1.7188610089974375e-05 -1.3709283812222532e-05 0 1.4541025721353421e-05 -1.4587134218755209e-05 0 1.757675261549771e-05 -1.915435070422466e-05 0 1.7188610089974375e-05 -1.3709283812222532e-05 0 1.3177364973890578e-05 -1.0110296950141683e-05 0 1.4541025721353421e-05 -1.4587134218755209e-05 0 1.4460283824960386e-05 -1.8654365506688295e-05 0 1.4541025721353421e-05 -1.4587134218755209e-05 0 1.116229299405807e-05 -1.4674771562634557e-05 0 1.3177364973890578e-05 -1.0110296950141683e-05 0 1.116229299405807e-05 -1.4674771562634557e-05 0 1.4541025721353421e-05 -1.4587134218755209e-05 0 1.4460283824960386e-05 -1.8654365506688295e-05 0 1.757675261549771e-05 -1.915435070422466e-05 0 1.4541025721353421e-05 -1.4587134218755209e-05 0 9.6100440404560789e-06 -1.8331000463848135e-05 0 1.116229299405807e-05 -1.4674771562634557e-05 0 7.5041549894991635e-06 -1.462838784515973e-05 0 1.4460283824960386e-05 -1.8654365506688295e-05 0 1.116229299405807e-05 -1.4674771562634557e-05 0 1.2598121179228177e-05 -2.1947502347369796e-05 0 9.6100440404560789e-06 -1.8331000463848135e-05 0 1.2598121179228177e-05 -2.1947502347369796e-05 0 1.116229299405807e-05 -1.4674771562634557e-05 0 9.6100440404560789e-06 -1.8331000463848135e-05 0 8.7112115770051937e-06 -2.4385584271521567e-05 0 1.2598121179228177e-05 -2.1947502347369796e-05 0 1.5828991100270248e-05 -2.8575942405031592e-05 0 1.6947103381243648e-05 -2.3824586693954203e-05 0 1.2598121179228177e-05 -2.1947502347369796e-05 0 1.5828991100270248e-05 -2.8575942405031592e-05 0 1.2598121179228177e-05 -2.1947502347369796e-05 0 1.1782957825295652e-05 -2.7679427766127994e-05 0 8.7112115770051937e-06 -2.4385584271521567e-05 0 1.1782957825295652e-05 -2.7679427766127994e-05 0 1.2598121179228177e-05 -2.1947502347369796e-05 0 2.0639847911969848e-05 -2.4542121429115091e-05 0 1.757675261549771e-05 -1.915435070422466e-05 0 1.6947103381243648e-05 -2.3824586693954203e-05 0 1.4460283824960386e-05 -1.8654365506688295e-05 0 1.6947103381243648e-05 -2.3824586693954203e-05 0 1.757675261549771e-05 -1.915435070422466e-05 0 1.4460283824960386e-05 -1.8654365506688295e-05 0 1.2598121179228177e-05 -2.1947502347369796e-05 0 1.6947103381243648e-05 -2.3824586693954203e-05 0 1.5828991100270248e-05 -2.8575942405031592e-05 0 2.1016461154105232e-05 -2.9870199894918777e-05 0 1.6947103381243648e-05 -2.3824586693954203e-05 0 2.0639847911969848e-05 -2.4542121429115091e-05 0 1.6947103381243648e-05 -2.3824586693954203e-05 0 2.1016461154105232e-05 -2.9870199894918777e-05 0 2.630928850610661e-05 -3.338399156800559e-05 0 2.1016461154105232e-05 -2.9870199894918777e-05 0 2.3832533771958255e-05 -3.61517844196844e-05 0 1.5828991100270248e-05 -2.8575942405031592e-05 0 1.9259905743610389e-05 -3.5134645445968482e-05 0 2.1016461154105232e-05 -2.9870199894918777e-05 0 1.9259905743610389e-05 -3.5134645445968482e-05 0 2.3832533771958255e-05 -3.61517844196844e-05 0 2.1016461154105232e-05 -2.9870199894918777e-05 0 1.0784250769317826e-05 -3.2668334061096486e-05 0 1.4568475137176985e-05 -3.3887747193294321e-05 0 1.1782957825295652e-05 -2.7679427766127994e-05 0 1.5828991100270248e-05 -2.8575942405031592e-05 0 1.4568475137176985e-05 -3.3887747193294321e-05 0 1.9259905743610389e-05 -3.5134645445968482e-05 0 1.5828991100270248e-05 -2.8575942405031592e-05 0 1.1782957825295652e-05 -2.7679427766127994e-05 0 1.4568475137176985e-05 -3.3887747193294321e-05 0 1.6280366457356254e-05 -4.0462613549077016e-05 0 1.9259905743610389e-05 -3.5134645445968482e-05 0 1.4568475137176985e-05 -3.3887747193294321e-05 0 1.0784250769317826e-05 -3.2668334061096486e-05 0 1.227280028162864e-05 -3.7190311561820717e-05 0 1.4568475137176985e-05 -3.3887747193294321e-05 0 1.6280366457356254e-05 -4.0462613549077016e-05 0 1.4568475137176985e-05 -3.3887747193294321e-05 0 1.227280028162864e-05 -3.7190311561820717e-05 0 1.0784250769317826e-05 -3.2668334061096486e-05 0 8.2882674269655982e-06 -3.5610475512311418e-05 0 1.227280028162864e-05 -3.7190311561820717e-05 0 1.0784250769317826e-05 -3.2668334061096486e-05 0 7.3704335499804908e-06 -2.9539557107480102e-05 0 8.2882674269655982e-06 -3.5610475512311418e-05 0 1.0784250769317826e-05 -3.2668334061096486e-05 0 1.1782957825295652e-05 -2.7679427766127994e-05 0 7.3704335499804908e-06 -2.9539557107480102e-05 0 3.5814130372725997e-06 -3.2542245662048024e-05 0 8.2882674269655982e-06 -3.5610475512311418e-05 0 7.3704335499804908e-06 -2.9539557107480102e-05 0 2.888046490382772e-05 -8.4505062186220154e-05 0 1.4421469857124475e-05 -9.4564081965073276e-05 0 3.1905509083225438e-05 -0.00010219453013524516 0 1.6173394878790215e-05 -5.8534349052948586e-05 0 1.8204948055478836e-05 -7.1055993189553742e-05 0 3.5814130372725997e-06 -3.2542245662048024e-05 0 4.6900310974243724e-06 -3.989570419455872e-05 0 8.2882674269655982e-06 -3.5610475512311418e-05 0 3.1905509083225438e-05 -0.00010219453013524516 0 1.4421469857124475e-05 -9.4564081965073276e-05 0 1.9565761118790914e-05 -0.00011126273128447141 0 2.888046490382772e-05 -8.4505062186220154e-05 0 1.5120985202662115e-05 -7.8201209592621069e-05 0 1.4421469857124475e-05 -9.4564081965073276e-05 0 2.559928199842986e-05 -6.7746634375971036e-05 0 1.5120985202662115e-05 -7.8201209592621069e-05 0 2.888046490382772e-05 -8.4505062186220154e-05 0 3.4454744930261327e-06 -2.5256543883852987e-05 0 3.5814130372725997e-06 -3.2542245662048024e-05 0 7.3704335499804908e-06 -2.9539557107480102e-05 0 1.4543109884657234e-05 -4.6535110690210992e-05 0 1.6173394878790215e-05 -5.8534349052948586e-05 0 2.559928199842986e-05 -6.7746634375971036e-05 0 1.3940449300386008e-05 -6.0490722519598667e-05 0 1.5120985202662115e-05 -7.8201209592621069e-05 0 4.6340692562053535e-06 -6.9778420721567714e-05 0 1.5120985202662115e-05 -7.8201209592621069e-05 0 1.3940449300386008e-05 -6.0490722519598667e-05 0 2.186710063673303e-05 -5.1871776730220193e-05 0 1.3940449300386008e-05 -6.0490722519598667e-05 0 2.559928199842986e-05 -6.7746634375971036e-05 0 3.4454744930261327e-06 -2.5256543883852987e-05 0 8.711211577005192e-06 -2.438558427152157e-05 0 6.8562042226942646e-06 -2.0154057519690027e-05 0 9.6100440404560789e-06 -1.8331000463848135e-05 0 6.8562042226942646e-06 -2.0154057519690027e-05 0 8.7112115770051937e-06 -2.4385584271521567e-05 0 8.7112115770051937e-06 -2.4385584271521567e-05 0 7.3704335499804908e-06 -2.9539557107480102e-05 0 1.1782957825295652e-05 -2.7679427766127994e-05 0 3.4454744930261327e-06 -2.5256543883852987e-05 0 7.3704335499804908e-06 -2.9539557107480102e-05 0 8.7112115770051937e-06 -2.4385584271521567e-05 0 
</DataArray>
</PointData>
<CellData Scalars="region_id,cross_section_updated,displacement_divergence," Vectors="" Tensors="stress,">
<DataArray type="Float64" Name="region_id" format="ascii">
1 1 1 1 1 1 1 1 1 1 1 1 1 1 1 1 1 1 1 1 1 1 1 1 1 1 1 1 1 1 1 1 1 1 1 1 1 1 1 1 1 1 1 1 1 1 1 1 1 1 1 1 1 1 1 1 1 1 1 1 1 1 1 1 1 1 1 1 1 1 1 1 1 1 1 1 1 1 1 1 1 1 1 1 1 1 1 1 1 1 1 1 1 1 1 1 1 1 1 1 1 1 1 1 1 1 1 1 1 1 1 1 1 1 1 1 1 1 1 1 1 1 1 1 1 1 1 1 1 1 1 1 1 1 1 1 1 1 1 1 1 1 1 1 1 1 1 1 1 1 1 1 1 1 1 1 1 1 1 1 1 1 1 1 1 1 1 1 1 1 1 1 1 1 1 1 1 1 1 1 1 1 1 1 1 1 1 1 1 1 1 1 1 1 1 1 1 1 1 1 1 1 1 1 1 1 1 1 1 1 1 1 1 1 1 1 1 1 1 1 1 1 1 1 1 1 1 1 1 1 1 1 1 1 1 1 1 1 1 1 1 1 1 1 1 1 1 1 1 1 1 1 1 1 1 1 1 1 1 1 1 1 1 1 1 1 1 1 1 1 1 1 1 1 1 1 1 1 1 1 1 1 1 1 1 1 1 1 1 1 1 1 1 1 1 1 1 1 1 1 1 1 1 1 1 1 1 1 1 1 1 1 1 1 1 1 1 1 1 1 1 1 1 1 1 1 1 1 1 1 1 1 1 1 1 1 1 1 1 1 1 1 1 1 1 1 1 1 1 1 1 1 1 1 1 1 1 1 1 1 1 1 1 1 1 1 1 1 1 1 1 1 1 1 1 1 1 1 1 1 1 1 1 1 1 1 1 1 1 1 1 1 1 1 1 1 1 1 1 1 1 1 1 1 1 1 1 1 1 1 1 1 1 1 1 1 1 1 1 1 1 1 1 1 1 1 1 1 1 1 1 1 1 1 1 1 1 1 1 1 1 1 1 1 1 1 1 1 1 1 1 1 1 1 1 1 1 1 1 1 1 1 1 1 1 1 1 1 1 1 1 1 1 1 1 1 1 1 1 1 1 1 1 1 1 1 1 1 1 1 1 1 1 1 1 1 1 1 1 1 1 1 1 1 1 1 1 1 1 1 1 1 1 1 1 1 1 1 1 1 1 1 1 1 1 1 1 1 1 1 1 1 1 1 1 1 1 1 3 1 1 3 1 1 3 1 1 1 1 1 1 1 1 1 1 1 1 1 3 1 1 1 1 1 3 1 1 1 1 1 1 1 1 1 1 1 1 1 1 1 1 1 1 1 1 1 1 1 1 1 1 1 1 1 1 1 1 1 1 1 1 1 1 1 1 1 1 1 1 1 1 1 1 1 1 1 1 1 1 1 1 1 1 1 1 1 1 1 1 1 1 1 1 1 1 1 1 1 1 1 1 1 1 1 1 1 1 1 1 1 1 1 1 1 1 1 1 1 1 1 1 1 1 1 1 1 1 1 1 1 1 1 1 1 1 1 1 1 1 1 1 1 1 1 1 1 1 1 1 1 1 1 1 1 1 1 1 1 1 1 1 1 1 1 1 1 1 1 1 1 1 1 1 1 1 1 1 1 1 1 1 1 1 1 1 1 1 1 1 1 1 1 1 3 1 1 1 3 1 1 3 1 1 1 1 1 1 1 1 1 1 1 3 1 1 1 1 3 1 1 1 1 1 1 1 1 1 1 1 1 1 1 1 1 1 1 1 1 1 1 1 1 1 1 1 1 1 1 1 1 1 1 1 1 1 1 1 1 1 1 1 1 1 1 1 1 1 1 1 1 1 1 1 1 1 1 2 1 1 1 1 1 1 1 1 1 1 1 1 1 1 2 1 1 2 1 2 1 1 1 1 1 1 1 1 1 1 1 1 1 2 1 1 1 1 1 1 1 1 1 1 1 1 1 1 1 1 1 1 1 1 1 1 1 1 1 1 1 1 1 1 1 1 1 1 1 1 1 1 1 1 1 1 1 1 1 1 1 1 1 1 1 1 1 1 1 1 1 1 1 1 1 1 1 1 1 1 1 1 1 1 1 1 1 1 1 1 1 1 1 1 1 1 1 1 1 1 1 1 1 1 1 1 1 1 1 1 1 1 1 1 1 1 1 1 1 1 1 1 1 1 1 1 1 1 1 1 1 1 1 1 1 1 1 1 1 1 1 1 1 1 1 1 1 1 1 1 2 1 1 2 1 2 1 1 1 1 1 1 1 1 1 1 1 1 1 1 1 1 1 1 1 1 1 1 1 1 1 1 1 1 1 1 1 1 1 1 1 1 1 1 1 1 1 1 1 1 1 1 1 2 1 1 1 1 1 2 1 1 1 1 1 1 1 
</DataArray>
<DataArray type="Float64" Name="stress" NumberOfComponents="9" format="ascii">
-0.046628322841641735 0.0021613457006432386 0 0.0021613457006432386 -0.0060640148567869482 0 0 0 -0.013173084424607169 -0.04405226960753908 0.0033932884201654471 0 0.0033932884201654471 -0.014656690776205145 0 0 0 -0.014677240095936055 -0.047186095900012409 0.0042563680544666568 0 0.0042563680544666568 0.0026458526948280455 0 0 0 -0.011135060801296087 -0.044992267743689578 0.0051673174289008118 0 0.0051673174289008118 -0.0064064492727541368 0 0 0 -0.012849679254110923 -0.036666946889859033 0.01123040812326382 0 0.01123040812326382 -0.012226790776712243 0 0 0 -0.012223434416642819 -0.036660663684424374 0.011236354288441349 0 0.011236354288441349 -0.01220636888860536 0 0 0 -0.012216758143257431 -0.042243582637084096 0.010811638159834519 0 0.010811638159834519 -0.0030053046840751683 0 0 0 -0.011312221830289817 -0.043735619182182217 0.009772361849743531 0 0.009772361849743531 -0.0039260109271736683 0 0 0 -0.01191540752733897 -0.040633555859289475 0.012757196440239952 0 0.012757196440239952 -0.0029735405755177951 0 0 0 -0.010901774108701821 -0.032355269108524522 0.01318184506522627 0 0.01318184506522627 -0.00064527891166166196 0 0 0 -0.0082501370050465424 -0.046760168525884743 0.013518342036598274 0 0.013518342036598274 -0.0015033848443682385 0 0 0 -0.012065888342563249 -0.031938011994273825 0.014792413359738542 0 0.014792413359738542 0.00097798986975131119 0 0 0 -0.0077400055311306285 -0.057824520976386261 0.010563587340724547 0 0.010563587340724547 -0.00070566447237949484 0 0 0 -0.014632546362191443 -0.045136442612490682 0.011242668480880061 0 0.011242668480880061 0.00072277443683418582 0 0 0 -0.01110341704391413 -0.068700105907864642 0.0040904927442532131 0 0.0040904927442532131 -0.0022353572384095494 0 0 0 -0.017733865786568548 -0.055582646063458578 0.0052488320950878267 0 0.0052488320950878267 -0.00029144795127581877 0 0 0 -0.013968523503683602 -0.051019309704205651 0.0072234859183664705 0 0.0072234859183664705 0.0031002992405173872 0 0 0 -0.011979752615922068 -0.05159876016103937 0.010841732491116612 0 0.010841732491116612 -0.00080560675729217379 0 0 0 -0.013101091729582886 -0.0059340529892973146 0.015777634625498194 0 0.015777634625498194 -0.0019745490143041637 0 0 0 -0.0019771505009003694 -0.011985769416175802 0.019008530023395684 0 0.019008530023395684 -0.0021717378682216404 0 0 0 -0.003539376821099359 -0.014032689281447505 0.014492281625552078 0 0.014492281625552078 -0.0012428204439741755 0 0 0 -0.0038188774313554167 -0.025332311356259081 0.016853891658381203 0 0.016853891658381203 -0.0018239429945006227 0 0 0 -0.0067890635876899277 -0.026731986060589165 0.015369043091553534 0 0.015369043091553534 -0.0051469495504197632 0 0 0 -0.0079697339027522303 -0.016840751538898815 0.017033990829142587 0 0.017033990829142587 -0.0027287692843135092 0 0 0 -0.0048923802058030812 -0.01710571900047415 0.015078755785109263 0 0.015078755785109263 -0.0057079593964685892 0 0 0 -0.0057034195992356849 -0.028181107900791209 0.016862615673451292 0 0.016862615673451292 -0.00070839279205035799 0 0 0 -0.0072223751732103936 -0.030239306516929774 0.013248761281709013 0 0.013248761281709013 -0.00096956834600028796 0 0 0 -0.007802218715732518 -0.025233165397434646 0.014542303809874736 0 0.014542303809874736 -0.0025178982187934948 0 0 0 -0.0069377659040570361 -0.011405811968780936 0.014321830533162961 0 0.014321830533162961 -0.00027479697182414276 0 0 0 -0.0029201522351512722 -0.012119294151886791 0.015732669343559359 0 0.015732669343559359 -0.0017909678571095961 0 0 0 -0.0034775655022490984 -0.0054959171965077384 0.018343094915399254 0 0.018343094915399254 -0.0016470662070196679 0 0 0 -0.0017857458508818442 -0.00055476452420706764 0.013829930555883546 0 0.013829930555883546 0.000302415177794009 0 0 0 -6.3087336603264224e-05 -0.0016473156335610481 0.016519045898771248 0 0.016519045898771248 -0.0010632735446053747 0 0 0 -0.00067764729454161069 -0.0021314124902582707 0.012657116008119739 0 0.012657116008119739 0.00040562975450109118 0 0 0 -0.00043144568393928967 -0.013419259143760182 0.017280907426595351 0 0.017280907426595351 -0.00060016429656653547 0 0 0 -0.0035048558600816841 -0.030334911858580855 0.017056334811331151 0 0.017056334811331151 -0.00045513193575397182 0 0 0 -0.0076975109485837058 -0.024490815487162323 0.017057623097258633 0 0.017057623097258633 -0.00078956270688966892 0 0 0 -0.0063200945485129998 -0.01637820397726477 0.013856395645699762 0 0.013856395645699762 0.00094740387825972827 0 0 0 -0.0038577000247512622 -0.030512553963855906 0.013952955546263359 0 0.013952955546263359 0.0014580324450640947 0 0 0 -0.0072636303796979537 -0.033955052898014329 0.017053590446644729 0 0.017053590446644729 0.00012682461113937282 0 0 0 -0.008457057071718746 -0.024765170319660502 0.013448265793274568 0 0.013448265793274568 0.00058669378749055291 0 0 0 -0.0060446191330424861 -0.017791313211860092 0.017454971952804238 0 0.017454971952804238 0.0020852106268694354 0 0 0 -0.0039265256462476701 -0.017896502240838507 0.013638509954500135 0 0.013638509954500135 0.0025018414929053184 0 0 0 -0.0038486651869832945 -0.0047744338689800526 0.012935415254416441 0 0.012935415254416441 0.0017997899978917809 0 0 0 -0.00074366096777207054 -0.016381092662595381 0.017543784945181252 0 0.017543784945181252 0.00024263558798961853 0 0 0 -0.0040346142686514402 -0.012854878822251965 0.011751684013928039 0 0.011751684013928039 0.0036216485158120509 0 0 0 -0.002308307576609981 0.0067632748009169782 0.012010901072548315 0 0.012010901072548315 0.0016800201860097119 0 0 0 0.0021108237467316708 -0.0029169957139702669 0.015244737777344072 0 0.015244737777344072 0.0019994835587908294 0 0 0 -0.00022937803879485505 -0.06782240762729061 0.0047149499933821296 0 0.0047149499933821296 -0.0026480964002106727 0 0 0 -0.017617626006875321 -0.054055121454919995 0.01220254457339506 0 0.01220254457339506 4.7680295319367516e-05 0 0 0 -0.013501860289900164 -0.080560845824175845 0.0064383549521122739 0 0.0064383549521122739 -0.00032637270362585041 0 0 0 -0.020221804631950432 -0.055321299198618869 0.0088156243755507287 0 0.0088156243755507287 0.002150233484446048 0 0 0 -0.013292766428543197 -0.042732587017447796 0.012556758308248706 0 0.012556758308248706 0.0015036424644481287 0 0 0 -0.010307236138249926 -0.044213183236167138 0.014059168306910397 0 0.014059168306910397 -0.00053614198588115142 0 0 0 -0.011187331305512079 -0.045136286826129753 0.015726785449808545 0 0.015726785449808545 -0.00031410255897653533 0 0 0 -0.011362597346276555 -0.051910021338126958 0.010688616288874211 0 0.010688616288874211 0.0014608891735708451 0 0 0 -0.012612283041139033 -0.03696145892350125 0.012947633130276533 0 0.012947633130276533 0.00030665175849545201 0 0 0 -0.009163701791251453 -0.054091861078548728 0.014597575636947526 0 0.014597575636947526 -0.00022546548087876844 0 0 0 -0.013579331639856859 -0.04294269055310642 0.011479869961995626 0 0.011479869961995626 -3.2391108802452828e-05 0 0 0 -0.010743770415477225 -0.052883440606477226 0.011063536400107356 0 0.011063536400107356 0.0013747919444565635 0 0 0 -0.012877162165505159 -0.073192494374194547 0.0085095442543604276 0 0.0085095442543604276 -0.00040221207035357094 0 0 0 -0.018398676611137015 -0.069795893930586786 0.0087890689164807825 0 0.0087890689164807825 -0.00081521925781257321 0 0 0 -0.017652778297099849 -0.067754161228147494 0.005363162889899695 0 0.005363162889899695 0.00078167005106761361 0 0 0 -0.016743122794269961 -0.091485623670931229 0.0062093520686850295 0 0.0062093520686850295 -0.0005661178067352772 0 0 0 -0.023012935369416631 -0.097046679842473296 0.0052567512405247083 0 0.0052567512405247083 -0.0004117413232893781 0 0 0 -0.024364605291440675 -0.071230626937673985 0.0068867567954354978 0 0.0068867567954354978 0.0020997987620395599 0 0 0 -0.017282707043908618 -0.081365898520348798 0.0044832701062212784 0 0.0044832701062212784 0.0013677414074637021 0 0 0 -0.019999539278221262 -0.11133957772872619 0.0034790490704430166 0 0.0034790490704430166 0.0019745371056044819 0 0 0 -0.027341260155780412 -0.084650633557990324 0.010107044936225357 0 0.010107044936225357 0.0029712311229803667 0 0 0 -0.020419850608752475 -0.082603733462587675 0.0019664490689643432 0 0.0019664490689643432 -0.00017592716823924825 0 0 0 -0.020694915157706762 -0.089444624870583245 0.0037889229859583012 0 0.0037889229859583012 0.0036767425392870146 0 0 0 -0.021441970582824078 -0.12351230689640544 -0.00034134909094197803 0 -0.00034134909094197803 -0.00070701619571006402 0 0 0 -0.031054830773028869 -0.05133573339795218 0.0046998704936590807 0 0.0046998704936590807 0.0059615814016796553 0 0 0 -0.011343537999068148 -0.042858501900055364 0.014025395946742129 0 0.014025395946742129 0.0043049003601683868 0 0 0 -0.0096384003849717508 -0.063855808155460117 0.0093571710686987594 0 0.0093571710686987594 0.00021638646102165038 0 0 0 -0.015909855423609606 -0.062835750313382524 0.010329624729412221 0 0.010329624729412221 0.0031837600538105124 0 0 0 -0.014912997564892998 -0.042695437869121382 0.015152545427802883 0 0.015152545427802883 0.0031082712197579576 0 0 0 -0.0098967916623408682 -0.073397194720785985 0.01406233216207068 0 0.01406233216207068 0.0037940941286706414 0 0 0 -0.017400775148028822 -0.061167049254473888 0.0092373513774505478 0 0.0092373513774505478 -6.5386607476937419e-05 0 0 0 -0.015308108965487708 -0.055014483932464844 0.014765775351083059 0 0.014765775351083059 0.0020501758995062707 0 0 0 -0.013241077008239609 -0.039330918455771427 0.015850276082710973 0 0.015850276082710973 0.0019036328822034446 0 0 0 -0.0093568213933919887 -0.026190752033700412 0.014829765313299997 0 0.014829765313299997 0.0020676305765578752 0 0 0 -0.0060307803642856419 -0.025752677151707617 0.012476874878412696 0 0.012476874878412696 0.00329648714559737 0 0 0 -0.005614047501527576 -0.023715576784733943 0.011450639953454749 0 0.011450639953454749 0.0062012446198771208 0 0 0 -0.0043785830412142006 -0.01230905605462904 0.01461335153787992 0 0.01461335153787992 0.0029823831944236698 0 0 0 -0.0023316682150513429 -0.04203927982482538 0.012268807081290068 0 0.012268807081290068 0.0033106257050184613 0 0 0 -0.0096821635299517289 -0.00051321753374587026 0.010966982734431627 0 0.010966982734431627 0.0061319342762264917 0 0 0 0.0014046791856201571 -0.00374343357253153 0.015471514715391987 0 0.015471514715391987 0.0016941665602057676 0 0 0 -0.00051231675308143973 -0.0095520506268741059 0.010020916654527858 0 0.010020916654527858 0.0075338598725731912 0 0 0 -0.00050454768857523084 0.007706589012971843 0.0056630572771030376 0 0.0056630572771030376 0.010149739948196235 0 0 0 0.0044640822402920192 0.0035796976947157959 0.012791915407945614 0 0.012791915407945614 0.0053815683498179487 0 0 0 0.0022403165111334351 -0.0073489738162959631 0.0096702003512544044 0 0.0096702003512544044 0.012169524607230114 0 0 0 0.0012051376977335396 0.0093421550645757835 0.0062897061038333785 0 0.0062897061038333785 0.011755215981168188 0 0 0 0.0052743427614359954 0.009515316799980772 0.005047706296442616 0 0.005047706296442616 0.019393882864828432 0 0 0 0.0072272999162022941 -0.025228032098209098 0.014886677361598323 0 0.014886677361598323 0.0044163055038639876 0 0 0 -0.0052029316485862689 -0.035308810930288946 0.0082503740661280384 0 0.0082503740661280384 0.0052847437860706059 0 0 0 -0.0075060167860545937 -0.0085647242621277059 0.010451111585326977 0 0.010451111585326977 0.0059043974900448298 0 0 0 -0.00066508169302071339 -0.018041283569293319 0.005928643761439624 0 0.005928643761439624 0.0095801449199142963 0 0 0 -0.0021152846623447574 -0.023574731430398812 0.013768831016770788 0 0.013768831016770788 0.010116536020396596 0 0 0 -0.0033645488525005582 -0.033895853296885367 0.012107494167277168 0 0.012107494167277168 0.01218103065325038 0 0 0 -0.0054287056609087642 -0.021313307508178614 0.0061365552134569623 0 0.0061365552134569623 0.024328428012039438 0 0 0 0.00075378012596519217 -0.032225811210699576 -0.00022596189936160971 0 -0.00022596189936160971 0.012605025238707525 0 0 0 -0.0049051964929980154 0.029806720146968238 -0.00067685098572450517 0 -0.00067685098572450517 0.022632734193661463 0 0 0 0.013109863585157422 -0.011536660937284648 0.0098478885612429887 0 0.0098478885612429887 0.017698541682906313 0 0 0 0.0015404701864054019 0.0032533027854829769 0.0025090195744912544 0 0.0025090195744912544 0.018516289559985105 0 0 0 0.0054423980863670188 0.0073875215031078412 0.004456285348018646 0 0.004456285348018646 0.030887259283262192 0 0 0 0.0095686951965925221 0.023041587435526204 -0.0060057822022791529 0 -0.0060057822022791529 0.03307076941098485 0 0 0 0.014028089211627754 0.0024032102523116779 -0.00066593103772977225 0 -0.00066593103772977225 0.045923143996464022 0 0 0 0.012081588562193924 -0.00045087893660988865 -0.01288729217331816 0 -0.01288729217331816 0.043079999231700694 0 0 0 0.010657280073772757 0.0096163775111961503 -0.018701396087424077 0 -0.018701396087424077 0.037029139041906245 0 0 0 0.011661379138275585 0.02467550435487062 -0.010364374920070057 0 -0.010364374920070057 0.069358267521662742 0 0 0 0.023508442969133347 -0.02886942857313865 -0.0059342097503221891 0 -0.0059342097503221891 0.0281771727256932 0 0 0 -0.00017306396186136941 -0.0066386680722806957 -0.0042350604450816856 0 -0.0042350604450816856 0.021835941630108435 0 0 0 0.0037993183894569349 -0.0084309078547684935 -0.017250421710461039 0 -0.017250421710461039 0.026317128879884188 0 0 0 0.0044715552562789307 -0.033741950444083235 -0.0020467749639357935 0 -0.0020467749639357935 0.014270299978316026 0 0 0 -0.0048679126164418163 -0.038929486020416737 -0.013485037829342073 0 -0.013485037829342073 0.016304403069551388 0 0 0 -0.0056562707377163512 -0.057661809034317772 -0.006009514399089276 0 -0.006009514399089276 0.011417373901310979 0 0 0 -0.011561108783251658 -0.066822953199220547 0.0030535749202534324 0 0.0030535749202534324 0.0060825776573028012 0 0 0 -0.01518509388547945 -0.078421918503785604 -0.011117458169822542 0 -0.011117458169822542 0.0090069392367564394 0 0 0 -0.017353744816757333 -0.089228569940317984 0.00059690540732421082 0 0.00059690540732421082 0.0025508621075830129 0 0 0 -0.021669426958183705 -0.12709784041114264 -0.0012961281351849656 0 -0.0012961281351849656 0.0037487980057107073 0 0 0 -0.030837260601357996 -0.094762327466363955 0.0023578480669344815 0 0.0023578480669344815 0.0030678820446577992 0 0 0 -0.02292361135542656 -0.092094696659656777 -0.0029924559932879291 0 -0.0029924559932879291 0.0035219150590348192 0 0 0 -0.022143195400155469 -0.098038479639823234 -0.0013592618237319581 0 -0.0013592618237319581 -0.00017264867192393063 0 0 0 -0.024552782077936812 -0.082260384030735045 0.008389442012509879 0 0.008389442012509879 0.0031554436532954533 0 0 0 -0.019776235094359912 -0.12867024879934752 0.0035947798456242735 0 0.0035947798456242735 0.0010379630494248282 0 0 0 -0.031908071437480673 -0.095071044465083132 0.0085119442542028884 0 0.0085119442542028884 0.0026917019247093138 0 0 0 -0.023094835635093403 -0.063711217580894916 0.011614481582883869 0 0.011614481582883869 0.0063404920274038046 0 0 0 -0.014342681388372774 -0.04876433852931808 0.0079078574142653485 0 0.0079078574142653485 0.01069276430351206 0 0 0 -0.0095178935564515215 -0.068185135555157206 0.00016116639080081263 0 0.00016116639080081263 0.0061498108874910584 0 0 0 -0.015508831166916537 0.024250060705853848 -0.0040832888864841422 0 -0.0040832888864841422 0.062353964862174815 0 0 0 0.02165100639200716 0.022929617682921098 -0.006202012260628274 0 -0.006202012260628274 0.051456567396702256 0 0 0 0.018596546269905843 0.022602581999810238 -0.0083058193409934131 0 -0.0083058193409934131 0.045534837805014813 0 0 0 0.017034354951206261 0.019260924186885957 -0.0010298250046076474 0 -0.0010298250046076474 0.053320428977373636 0 0 0 0.018145338291064898 0.025912127795486149 0.0062361181618779214 0 0.0062361181618779214 0.058050498961037429 0 0 0 0.020990656689130881 0.028591788335851895 0.0045387137550930746 0 0.0045387137550930746 0.069038855200793378 0 0 0 0.024407660884161311 0.019774757256821637 -0.004150223065089895 0 -0.004150223065089895 0.067151109871842224 0 0 0 0.021731466782165976 0.018163625329662543 -0.0031301472747611685 0 -0.0031301472747611685 0.064613035002148378 0 0 0 0.020694165082952735 0.024380098057102447 -0.0044626030342035253 0 -0.0044626030342035253 0.063639078018780521 0 0 0 0.02200479401897075 0.022196240647233627 -0.0031708658921767163 0 -0.0031708658921767163 0.060290253979978586 0 0 0 0.020621623656803027 0.010513179114264436 -0.0029290701700748906 0 -0.0029290701700748906 0.059640620262440464 0 0 0 0.01753844984417622 0.018315286164085641 -0.0060768478622271194 0 -0.0060768478622271194 0.064955531825884677 0 0 0 0.020817704497492588 0.01479602867810343 -0.0076398514139180834 0 -0.0076398514139180834 0.062089370783365481 0 0 0 0.019221349865367224 0.016694646720620727 -0.012318399365831199 0 -0.012318399365831199 0.066494963688724484 0 0 0 0.020797402602336302 0.015598252213034083 -0.0061784775403282491 0 -0.0061784775403282491 0.076562086729656087 0 0 0 0.023040084735672539 0.058087991709813228 -0.051166483671286234 0 -0.051166483671286234 0.12003858661024022 0 0 0 0.044531644580013366 0.0065451464836231987 -0.027079472976637903 0 -0.027079472976637903 0.074524515411360875 0 0 0 0.020267415473746025 0.052896946098396194 -0.032969474427252787 0 -0.032969474427252787 0.066104060518294872 0 0 0 0.029750251654172763 0.008202204145430575 -0.012010195058240494 0 -0.012010195058240494 0.066820356266607345 0 0 0 0.01875564010300948 0.060930231133999091 -0.0099018973246714354 0 -0.0099018973246714354 0.10363166298877902 0 0 0 0.041140473530694527 0.048060239919316197 -0.021060965621844313 0 -0.021060965621844313 0.056037404288109438 0 0 0 0.026024411051856405 0.088375787625836616 -0.027719218829631603 0 -0.027719218829631603 0.072204818647962743 0 0 0 0.040145151568449847 0.039262877665878992 -0.019068895874842846 0 -0.019068895874842846 0.054898020134306613 0 0 0 0.023540224450046388 0.028339116304128373 -0.0031823188900099719 0 -0.0031823188900099719 0.053237764930789411 0 0 0 0.020394220308729435 0.05509400725860028 -0.012787098297707584 0 -0.012787098297707584 0.041890362536238124 0 0 0 0.024246092448709594 0.026656630186781001 -0.0046047595823568016 0 -0.0046047595823568016 0.034396743562673138 0 0 0 0.015263343437363526 0.035647600024212772 -0.0055758362636849843 0 -0.0055758362636849843 0.024999674978271103 0 0 0 0.015161818750620958 0.026030588052469206 -0.018308609757425827 0 -0.018308609757425827 0.058154894455074421 0 0 0 0.021046370626885903 0.022473521531084367 -0.018545892459868814 0 -0.018545892459868814 0.043641356296507977 0 0 0 0.016528719456898086 0.037497390110985782 -0.016188112039402978 0 -0.016188112039402978 0.048646123092959098 0 0 0 0.021535878300986216 0.024306784799844064 -0.0079926083508248518 0 -0.0079926083508248518 0.026245164839838658 0 0 0 0.012637987409920684 0.029387685862569547 -0.0082874575976073662 0 -0.0082874575976073662 0.046138411161224344 0 0 0 0.018881524255948464 0.028291314441452012 -0.0061519351114778451 0 -0.0061519351114778451 0.029598863114849029 0 0 0 0.01447254438907525 0.027865288961950823 0.0029586505274069187 0 0.0029586505274069187 0.026106413788351386 0 0 0 0.01349292568757555 0.023625004088977941 0.00035501361589889216 0 0.00035501361589889216 0.015033964785324469 0 0 0 0.0096647422185756025 0.022628795103448514 -0.0019194922367533271 0 -0.0019194922367533271 0.024395546142203892 0 0 0 0.011756085311413093 0.027699804246381056 -0.0025395080865519698 0 -0.0025395080865519698 0.018907429706406999 0 0 0 0.011651808488197017 0.023377576045478562 0.0039363281309055739 0 0.0039363281309055739 0.020651953812121194 0 0 0 0.011007382464399933 0.013683692433185396 0.0085171694142921056 0 0.0085171694142921056 0.013294104558786768 0 0 0 0.0067444492479930415 0.020548027793587463 0.0022333771780425875 0 0.0022333771780425875 0.012128021966496639 0 0 0 0.0081690124400210246 0.018364139232756382 0.009744841150086293 0 0.009744841150086293 0.010363492186286613 0 0 0 0.0071819078547607487 0.014145518329519432 0.0073722996323804151 0 0.0073722996323804151 0.0062791900359948916 0 0 0 0.0051061770913785817 0.0086252826468359162 0.013024373907879437 0 0.013024373907879437 0.0051066927694299619 0 0 0 0.00343299385406647 0.027194179183659573 0.0023606174638948945 0 0.0023606174638948945 0.017924659258293708 0 0 0 0.011279709610488327 0.025564867109380537 0.00091176353161962062 0 0.00091176353161962062 0.016081411712427961 0 0 0 0.010411569705452121 0.024308220307479114 0.0065838755811206996 0 0.0065838755811206996 0.014410151003822952 0 0 0 0.0096795928278255172 0.021895609238505465 0.0053130886359156176 0 0.0053130886359156176 0.011706457539047893 0 0 0 0.0084005166943883422 0.02721711117046571 0.0037920926661195488 0 0.0037920926661195488 0.020046459698652673 0 0 0 0.011815892717279602 0.030043189413111546 0.0094331868541372935 0 0.0094331868541372935 0.012810125925907551 0 0 0 0.010713328834754777 0.036453297623134991 0.0099906326089329693 0 0.0099906326089329693 0.02003846172352837 0 0 0 0.014122939836665845 0.036889481332001817 0.0091944585764581858 0 0.0091944585764581858 0.017352214178255318 0 0 0 0.013560423877564277 0.030923265464292041 0.0038440222046392265 0 0.0038440222046392265 0.022807988594530197 0 0 0 0.01343281351470557 0.031171959056711395 0.0038210121271624376 0 0.0038210121271624376 0.029848541024660176 0 0 0 0.015255125020342892 0.026720179239856957 0.001307345394569101 0 0.001307345394569101 0.026373278889400106 0 0 0 0.013273364532314248 0.03190535403301982 0.0023590293197379838 0 0.0023590293197379838 0.041677586398867213 0 0 0 0.018395735107971739 0.034865017719962171 0.0071787005147324803 0 0.0071787005147324803 0.03182722636315953 0 0 0 0.016673061020780401 0.024049020908690471 9.8498379569596922e-05 0 9.8498379569596922e-05 0.03798892088848884 0 0 0 0.01550948544929482 0.028165035694089315 -0.0020424502148503037 0 -0.0020424502148503037 0.051216576623924197 0 0 0 0.019845403079503398 0.023825760055199881 -0.0051670853233054008 0 -0.0051670853233054008 0.035098999736399898 0 0 0 0.014731189947899931 0.037346851474221017 0.011449086672390968 0 0.011449086672390968 0.064074648218594793 0 0 0 0.025355374923203951 0.027699917003310814 0.0062062908896362706 0 0.0062062908896362706 0.043654649412821697 0 0 0 0.017838641604033131 0.031662342271451302 0.0041232512279628037 0 0.0041232512279628037 0.056273804485311531 0 0 0 0.021984036689190696 0.034872307770464392 0.0077114886326420801 0 0.0077114886326420801 0.032918679837662772 0 0 0 0.016947746902031782 0.038855538973421221 0.012341761446658914 0 0.012341761446658914 0.041692782531276229 0 0 0 0.020137080376174364 0.040013819964954005 0.011834861504333841 0 0.011834861504333841 0.044633339609967335 0 0 0 0.021161789893730347 0.0421095648619298 0.012331169139608593 0 0.012331169139608593 0.023085954317591709 0 0 0 0.016298879794880372 0.042729789545509156 0.0128695091829206 0 0.0128695091829206 0.02708588091209653 0 0 0 0.017453917614401418 0.050157690664287484 0.015203144960816518 0 0.015203144960816518 0.019722416253090888 0 0 0 0.017470026729344584 0.048261446892664692 0.013535283586817805 0 0.013535283586817805 0.011654862093615763 0 0 0 0.014979077246570117 0.042576577606775648 0.010484873040239841 0 0.010484873040239841 0.0053330355681910288 0 0 0 0.011977403293741678 0.042032506814241227 0.012739253190986196 0 0.012739253190986196 0.014291301565142536 0 0 0 0.014080952094845962 0.043092252428973216 0.011291933368032919 0 0.011291933368032919 0.012855681043928688 0 0 0 0.013986983368225467 0.031603198068274774 0.0072162679664077717 0 0.0072162679664077717 0.013014783692752913 0 0 0 0.011154495440256918 0.032627860479761003 0.010651964692374371 0 0.010651964692374371 0.0072094519632677906 0 0 0 0.0099593281107572054 0.037459054572554495 0.011184224409230389 0 0.011184224409230389 0.0083951395078251945 0 0 0 0.011463548520094928 0.038607333232815011 0.011408428173053615 0 0.011408428173053615 0.012045754460553143 0 0 0 0.012663271923342045 0.039555630154636812 0.0099936794471837398 0 0.0099936794471837398 0.0036274650346304269 0 0 0 0.010795773797316815 0.039326727042797063 0.01181167709258274 0 0.01181167709258274 0.0030711086914456745 0 0 0 0.010599458933560683 0.031805191516311421 0.010936072578709939 0 0.010936072578709939 0.0028908095456278704 0 0 0 0.0086740002654848297 0.045059315378449052 0.010933661694198312 0 0.010933661694198312 0.0019969799089696594 0 0 0 0.011764073821854671 0.044437474341021965 0.0088166513492242485 0 0.0088166513492242485 0.00088801685866237573 0 0 0 0.011331372799921085 0.050706499374030059 0.010312880208739713 0 0.010312880208739713 0.0025885680001622308 0 0 0 0.013323766843548074 0.0469119637878192 0.0094874831838454837 0 0.0094874831838454837 0.0018207676923182592 0 0 0 0.012183182870034365 0.044418560777450725 0.011696091289824462 0 0.011696091289824462 0.0056842385376821639 0 0 0 0.012525699828783227 0.0084461254510420254 0.012296423690495877 0 0.012296423690495877 0.0069760307172493409 0 0 0 0.0038555390420728442 0.017455391040181473 0.01066580216140995 0 0.01066580216140995 0.0030942147982925064 0 0 0 0.0051374014596184932 0.0090413569763640525 0.013223683060675621 0 0.013223683060675621 0.003079983954620176 0 0 0 0.0030303352327460537 0.023434962341805476 0.0099233808183902435 0 0.0099233808183902435 0.0017414979279473802 0 0 0 0.0062941150674382246 0.019355429529137439 0.011411814412242139 0 0.011411814412242139 0.008204795627330938 0 0 0 0.0068900562891170969 0.02423898058099298 0.010507127257359535 0 0.010507127257359535 0.0070338408473864661 0 0 0 0.0078182053570948658 0.026520086903003514 0.0073876894665862239 0 0.0073876894665862239 0.007079384589099064 0 0 0 0.0083998678730256397 0.027552826843876433 0.012285467531909551 0 0.012285467531909551 0.0095884158058570784 0 0 0 0.0092853106624333805 0.030662461210336757 0.0095929453228086672 0 0.0095929453228086672 0.0029235769000747064 0 0 0 0.0083965095276028658 0.025615145060024224 0.010157511646899348 0 0.010157511646899348 0.0035846704456158271 0 0 0 0.0072999538764100119 0.031458976310180561 0.012465249702884958 0 0.012465249702884958 0.0017601831429032988 0 0 0 0.0083047898632709651 0.02193757422599743 0.0133336657274804 0 0.0133336657274804 0.0045144527612205852 0 0 0 0.0066130067468045048 0.019983051709252086 0.012022784950288055 0 0.012022784950288055 0.0014906388253567715 0 0 0 0.0053684226336522083 0.01038654639282827 0.012770921072876522 0 0.012770921072876522 0.0015396120768609717 0 0 0 0.0029815396174223095 0.0088225108550851056 0.015165691769308064 0 0.015165691769308064 0.00055965864382104963 0 0 0 0.0023455423747265336 0.0084229919798717266 0.013044194259846643 0 0.013044194259846643 0.0012364465885931625 0 0 0 0.0024148596421162231 9.6852798236173043e-05 0.015719565807445358 0 0.015719565807445358 0.00065638628128258242 0 0 0 0.00018830976987968887 0.0060293397088090443 0.017068325034250181 0 0.017068325034250181 -9.7779886910454028e-05 0 0 0 0.0014828899554746484 -0.00089292261148504401 0.014912304367117145 0 0.014912304367117145 0.0015614493282513631 0 0 0 0.00016713167919158237 0.0064946441319596766 0.013004561752827555 0 0.013004561752827555 -0.00020799557370605737 0 0 0 0.0015716621395634039 0.015600779783242192 0.015238778421393918 0 0.015238778421393918 0.0010057750631481746 0 0 0 0.0041516387115975925 0.014097138093655759 0.013303548233081192 0 0.013303548233081192 0.0011361753772919023 0 0 0 0.0038083283677369136 0.017198672191892129 0.01578702216183666 0 0.01578702216183666 0.0010651886330574345 0 0 0 0.00456596520623739 0.02218890612199817 0.01150904827035679 0 0.01150904827035679 0.0010476656488927292 0 0 0 0.0058091429427227252 0.023689278549393018 0.012889184950959576 0 0.012889184950959576 0.0023425366102799716 0 0 0 0.0065079537899182492 0.030783856574447953 0.013205248276679751 0 0.013205248276679751 0.00094991940405026593 0 0 0 0.0079334439946245564 0.023969645432562948 0.011985042070953782 0 0.011985042070953782 0.0044978341249433812 0 0 0 0.007116869889376579 0.020732544661285927 0.016310720187059778 0 0.016310720187059778 0.0026084452704772249 0 0 0 0.0058352474829407881 0.017951647013327635 0.014206752782305567 0 0.014206752782305567 0.0059839883018890684 0 0 0 0.0059839088288041751 0.0106723481019702 0.018420306312601133 0 0.018420306312601133 0.0008881837096905501 0 0 0 0.0028901329529151896 0.0062357942546761415 0.015282482390149236 0 0.015282482390149236 0.0020763771309079931 0 0 0 0.0020780428463960336 -0.00026111532297971342 0.019477784100908141 0 0.019477784100908141 -0.0013719580300030759 0 0 0 -0.00040826833824569517 0.04352573329465674 0.0082872598264600063 0 0.0082872598264600063 0.0031393212583324219 0 0 0 0.011666263638247295 0.045239684877689465 0.0092277590103775203 0 0.0092277590103775203 0.00092949751185866097 0 0 0 0.011542295597387037 0.038423178030936346 0.010372361041560705 0 0.010372361041560705 0.0015687240701163022 0 0 0 0.0099979755252631655 0.038585618452205185 0.011052571773279632 0 0.011052571773279632 0.0012362519900331881 0 0 0 0.0099554676105595933 0.031793259051091913 0.011162715196378358 0 0.011162715196378358 0.0032214240362920671 0 0 0 0.0087536707718459967 0.036341419217695861 0.010724166141601073 0 0.010724166141601073 0.0039866087032631795 0 0 0 0.010082006980239762 0.028467282278253497 0.012268205832936783 0 0.012268205832936783 0.0094837045128353427 0 0 0 0.0094877466977722116 0.028736115752992449 0.013870283795783927 0 0.013870283795783927 0.0056155018169692476 0 0 0 0.0085879043924904242 0.034815653233385493 0.010719060473200275 0 0.010719060473200275 0.011603543492360846 0 0 0 0.011604799181436583 0.035251579681704386 0.010617746132834676 0 0.010617746132834676 0.0059315162744343133 0 0 0 0.010295773989034675 0.04298721695592312 0.0074236420327680654 0 0.0074236420327680654 0.0069653581852496572 0 0 0 0.012488143785293195 0.039452496206432541 0.0093824078101760085 0 0.0093824078101760085 0.0024107577049924311 0 0 0 0.010465813477856242 0.037965078156973704 0.00883040007343475 0 0.00883040007343475 0.0065737888277159415 0 0 0 0.011134716746172411 0.038918076661440267 0.0084755432734681477 0 0.0084755432734681477 0.012971205222768942 0 0 0 0.012972320471052306 0.041406005913683694 0.0053530966277621911 0 0.0053530966277621911 0.0048507993303763056 0 0 0 0.011564201311015 0.044910921312181613 0.0026492752170487852 0 0.0026492752170487852 0.014960465178773974 0 0 0 0.014967846622738899 0.040835271483943697 0.0011768210156480035 0 0.0011768210156480035 0.0031735350051496523 0 0 0 0.011002201622273337 0.048304213875476926 0.00097092764833521571 0 0.00097092764833521571 0.0050417000567187925 0 0 0 0.01333647848304893 0.047693372538133577 0.0038895668023062125 0 0.0038895668023062125 0.0030654822258929563 0 0 0 0.012689713691006637 0.048721362028958839 0.0056277417565304012 0 0.0056277417565304012 0.0014385039083010878 0 0 0 0.012539966484314977 0.046336284060208927 0.0029637448068434483 0 0.0029637448068434483 -0.00070683996076366037 0 0 0 0.011407361024861319 0.052752417528944683 0.0032102992868113765 0 0.0032102992868113765 0.0012977423046582417 0 0 0 0.013512539958400731 0.048780616321484803 0.0051906301201670793 0 0.0051906301201670793 -0.0026036922950090843 0 0 0 0.011544231006618921 0.050245668343559195 0.00092506018675127298 0 0.00092506018675127298 -0.0053101177061105689 0 0 0 0.011233887659362153 0.046395692852793644 -0.0051641832727030261 0 -0.0051641832727030261 -0.0060553921203825092 0 0 0 0.010085075183102785 0.049246194136086274 -0.0015206946929483675 0 -0.0015206946929483675 -0.00033819041067476539 0 0 0 0.012227000931352873 0.0464557041914304 -0.00096014571933444154 0 -0.00096014571933444154 0.00095939653623107642 0 0 0 0.011853775181915372 0.044411773815131027 -0.0013614819033096342 0 -0.0013614819033096342 0.0148066728744986 0 0 0 0.014804611672407406 0.043725452122328881 -0.0051177005087419871 0 -0.0051177005087419871 0.014562898851606797 0 0 0 0.014572087743483918 0.040241623905924041 -0.0043811388504192521 0 -0.0043811388504192521 0.0036541347718043148 0 0 0 0.010973939669432092 0.036354772572511913 -0.010684005571250956 0 -0.010684005571250956 0.012115070761564522 0 0 0 0.01211746083351911 0.044192092136231043 -0.0064283335982273796 0 -0.0064283335982273796 0.0029422415665890812 0 0 0 0.011783583425705029 0.034531139523129216 -0.010600823429538013 0 -0.010600823429538013 -0.00090420411718711291 0 0 0 0.0084067338514855275 0.022096597263163525 -0.015813078809825937 0 -0.015813078809825937 0.0073582767024974035 0 0 0 0.0073637184914152332 0.023875819106433369 -0.017789458054936508 0 -0.017789458054936508 -0.0043503914470668786 0 0 0 0.0048813569148416225 0.010556460054048422 -0.022879211438696041 0 -0.022879211438696041 -0.0056585395256656609 0 0 0 0.0012244801320956886 0.023640543060228822 -0.018142651289700933 0 -0.018142651289700933 -0.010135645351519319 0 0 0 0.0033762244271773809 0.028819132075656628 -0.014123935097895921 0 -0.014123935097895921 -0.0066432177737681328 0 0 0 0.0055439785754721176 0.035509363341412109 -0.01144720185637643 0 -0.01144720185637643 -0.0014818142687546901 0 0 0 0.0085068872681643547 0.018915085651496265 -0.017192698847092489 0 -0.017192698847092489 -0.006454581488418619 0 0 0 0.0031151260407694115 0.03475580467492715 -0.011674074021815022 0 -0.011674074021815022 -0.0069610205280720479 0 0 0 0.0069486960367137751 0.045953990693328416 -0.0068408184911911765 0 -0.0068408184911911765 -0.0089279712316185159 0 0 0 0.0092565048654274819 0.048240823821753306 -0.0035217175111770613 0 -0.0035217175111770613 -0.0037950332669165927 0 0 0 0.011111447638709188 0.050434828207761642 -0.0051314322382965257 0 -0.0051314322382965257 -0.0061073739534598728 0 0 0 0.011081863563575441 0.049121357397902174 -0.0044099456663007994 0 -0.0044099456663007994 -0.0097379644104520699 0 0 0 0.0098458482468625225 0.060590518642444503 0.00010740740838766083 0 0.00010740740838766083 -0.0076810559871955397 0 0 0 0.013227365663812244 0.040230681823904754 -0.012573342122471548 0 -0.012573342122471548 -0.012508443496911834 0 0 0 0.006930559581748234 0.031152123296670498 -0.017625052676590307 0 -0.017625052676590307 -0.010881618272606586 0 0 0 0.0050676262560159779 0.040298244977941551 -0.012013481997067145 0 -0.012013481997067145 -0.0095456180114210643 0 0 0 0.0076881567416301304 0.043625768715748484 -0.0084671712090938385 0 -0.0084671712090938385 -0.008728367352652408 0 0 0 0.0087243503407740119 0.024105574402405312 -0.01794985899587161 0 -0.01794985899587161 -0.013099213924145592 0 0 0 0.0027515901195649291 0.0408066784453186 -0.018235373205858642 0 -0.018235373205858642 -0.013631640931294903 0 0 0 0.006793759378505921 0.049544871607146858 -0.014097126078119804 0 -0.014097126078119804 -0.0091047326799773582 0 0 0 0.010110034731792386 0.045807699199808483 -0.011603375373794533 0 -0.011603375373794533 -0.012710410299809814 0 0 0 0.0082743222249996706 0.066602272511338934 -0.004729313608493128 0 -0.004729313608493128 -0.006217137338018125 0 0 0 0.015096283793330199 0.049408869195287378 -0.017823505603708677 0 -0.017823505603708677 -0.006620344530003687 0 0 0 0.010697131166320928 0.047551835488937211 -0.016751251625572689 0 -0.016751251625572689 -0.009746975944110902 0 0 0 0.0094512148862065798 0.056467245484618643 -4.0789463556576912e-05 0 -4.0789463556576912e-05 -0.0065675782826821443 0 0 0 0.012474916800484117 0.058377306050899455 -0.0080959907314999031 0 -0.0080959907314999031 -0.0094557618677792374 0 0 0 0.012230386045780056 0.065708137735933259 0.0018256753279343469 0 0.0018256753279343469 -0.0081533922034828336 0 0 0 0.014388686383112588 0.076086247268789514 0.0073526856371153703 0 0.0073526856371153703 0.0011334723504432369 0 0 0 0.019304929904808192 0.064579005256816008 0.0093928525149594242 0 0.0093928525149594242 0.0022647171153255211 0 0 0 0.016710930593035384 0.067781797164635949 0.0088640313013482637 0 0.0088640313013482637 0.0034212504851530018 0 0 0 0.017800761912447213 0.061209753595995911 0.0063346350913999813 0 0.0063346350913999813 -0.0038317499315200163 0 0 0 0.014344500916118974 0.061264895279592439 0.01153782839189039 0 0.01153782839189039 0.0037090178089162502 0 0 0 0.016243478272127188 0.063874653899406497 0.014938185175911193 0 0.014938185175911193 0.011656399631644582 0 0 0 0.01888276338276277 0.057874224700955254 0.010999517756411795 0 0.010999517756411795 0.0040787154051687841 0 0 0 0.015488235026531011 0.056902605793634868 0.015264100033716463 0 0.015264100033716463 0.013546821708534891 0 0 0 0.017612356875542447 0.05071256840786835 0.011359466500002132 0 0.011359466500002132 0.0054909563223740285 0 0 0 0.014050881182560586 0.04941791972971242 0.011292889920537508 0 0.011292889920537508 0.0050815823257608812 0 0 0 0.013624875513868319 0.054205528747675653 0.0078252387329446442 0 0.0078252387329446442 -0.0015734381681583049 0 0 0 0.013158022644879341 0.05652960240790645 0.0094776592515896027 0 0.0094776592515896027 0.0016744348551316901 0 0 0 0.01455100931575954 0.049119839678966729 0.0071679121214960539 0 0.0071679121214960539 -0.0022607703995320624 0 0 0 0.011714767319858665 0.055470879032563182 0.0058880825826831355 0 0.0058880825826831355 -0.00024639251142191893 0 0 0 0.013806121630285301 0.051643069726900526 0.0035479118759041751 0 0.0035479118759041751 -0.0049308476921319424 0 0 0 0.011678055508692138 0.05500120664851274 0.0021923549274543222 0 0.0021923549274543222 -0.003050764215826748 0 0 0 0.012987610608171505 0.053766088292994119 -0.0023685034735499442 0 -0.0023685034735499442 -0.0060482280886812647 0 0 0 0.011929465051078222 0.056152985307544867 0.0049187350634958982 0 0.0049187350634958982 -0.0036448730995253982 0 0 0 0.013127028052004861 0.060017656459093134 0.0058707938486709825 0 0.0058707938486709825 -0.0031562230323685823 0 0 0 0.014215358356681118 -0.098962996513030588 -0.0072618609148889044 0 -0.0072618609148889044 -0.0041249918451831818 0 0 0 -0.025771997089553439 -0.068938256782532209 -0.019074276480988729 0 -0.019074276480988729 -0.0019628816466578138 0 0 0 -0.017725284607297501 -0.076085646541707103 -0.0089418497334697016 0 -0.0089418497334697016 -0.00065123681124563092 0 0 0 -0.019184220838238192 -0.067830188642946293 -0.012470747504460939 0 -0.012470747504460939 0.0053194268502694333 0 0 0 -0.015627690448169206 -0.060290073998324825 -0.0084059255210862729 0 -0.0084059255210862729 0.0046480718545001687 0 0 0 -0.013910500535956173 -0.058833785039236683 -0.0057259767057601246 0 -0.0057259767057601246 -0.0072007885976938489 0 0 0 -0.01650864340923263 -0.056051058114151793 -0.0075454078767712212 0 -0.0075454078767712212 -0.01864725915776521 0 0 0 -0.018674579317979254 -0.057964598653024071 -0.0098078042820422175 0 -0.0098078042820422175 -0.0073768781157807703 0 0 0 -0.016335369192201212 -0.056567573691357106 -0.016925993603897068 0 -0.016925993603897068 -0.0051844728335079769 0 0 0 -0.01543801163121627 -0.05179094466445068 -0.017875743837355268 0 -0.017875743837355268 -0.0032880184585927508 0 0 0 -0.013769740780760858 -0.044499938581695424 -0.017937014837536933 0 -0.017937014837536933 -0.014840328084965489 0 0 0 -0.014835066666665226 -0.044490651710730002 -0.017943749342540984 0 -0.017943749342540984 -0.014810669049034952 0 0 0 -0.014825330189941237 -0.049764378202622708 -0.021231151862865134 0 -0.021231151862865134 -0.0062206189164972225 0 0 0 -0.01399624927977999 -0.034326133869140761 -0.021879629705812108 0 -0.021879629705812108 -0.0020082553043582543 0 0 0 -0.0090835972933747469 -0.056307731008776202 -0.019707364766776946 0 -0.019707364766776946 0.0008421947836518423 0 0 0 -0.013866384056281088 -0.081226237284001718 -0.01982002936261246 0 -0.01982002936261246 -0.003421434711281035 0 0 0 -0.021161917998820688 -0.032745428171912755 -0.026150752817673976 0 -0.026150752817673976 -0.0016976450171878876 0 0 0 -0.0086107682972751641 -0.06006540654633756 -0.024032255641999171 0 -0.024032255641999171 -0.0058829131701042536 0 0 0 -0.016487079929110453 -0.029124206261775906 -0.022530453063571508 0 -0.022530453063571508 -0.0052721227378749458 0 0 0 -0.0085990822499127234 -0.023128686299873084 -0.022836144741042796 0 -0.022836144741042796 -0.0081307252627099355 0 0 0 -0.0078148528906457557 -0.028784095508039665 -0.027315005551298777 0 -0.027315005551298777 -0.0058019037275253149 0 0 0 -0.0086464998088912545 -0.026145886048938034 -0.024955369393180816 0 -0.024955369393180816 -0.0033396924779536125 0 0 0 -0.0073713946317229152 -0.027697464749968547 -0.023637396773120975 0 -0.023637396773120975 -0.0072322536764938758 0 0 0 -0.0087324296066156066 -0.011805999192790932 -0.02065780036718556 0 -0.02065780036718556 -0.0039460836044259654 0 0 0 -0.0039380206993042243 -0.010704864713280698 -0.024505201225579688 0 -0.024505201225579688 -0.0066509637676814351 0 0 0 -0.004338957120240532 -0.005181994584972531 -0.019667793179863977 0 -0.019667793179863977 -0.0030075694737212166 0 0 0 -0.0020473910146734352 -0.0061382257840232862 -0.025864106698378235 0 -0.025864106698378235 -0.00547964519102416 0 0 0 -0.002904467743761862 0.0057102754961817562 -0.019347324654881468 0 -0.019347324654881468 0.0019053430963662285 0 0 0 0.001903904648136996 0.016149217574224245 -0.016248420905375816 0 -0.016248420905375816 -0.0017860457096041463 0 0 0 0.0035907929661550264 0.006574592971727411 -0.024595132853312333 0 -0.024595132853312333 -0.0083065594170245172 0 0 0 -0.00043299161132428002 0.00051786949385198427 -0.024482802350854031 0 -0.024482802350854031 -0.0082361845388489174 0 0 0 -0.0019295787612492385 0.0014329269615772156 -0.020077026132022908 0 -0.020077026132022908 -0.0076712084719169175 0 0 0 -0.001559570377584924 0.016140151533509027 -0.023966893077362533 0 -0.023966893077362533 -0.013964211722006847 0 0 0 0.00054398495287553972 0.025675475204279014 -0.019600651756539918 0 -0.019600651756539918 -0.0094617021792172684 0 0 0 0.0040534432562654224 0.002247517319512888 -0.028366636942564048 0 -0.028366636942564048 -0.01431388500360121 0 0 0 -0.0030165919210220818 0.024379019951105457 -0.024382276468575763 0 -0.024382276468575763 -0.014740080953966991 0 0 0 0.0024097347492846172 0.0035441336727000507 -0.025767982847176643 0 -0.025767982847176643 -0.0055623407414249777 0 0 0 -0.00050455176718122979 -0.0054573813125501462 -0.032477804899819364 0 -0.032477804899819364 -0.011374132607917836 0 0 0 -0.0042078784801169895 0.022513036375236807 -0.02201771978572608 0 -0.02201771978572608 -0.0062742951221844701 0 0 0 0.0040596853132630895 -0.0039655670439004732 -0.029247786151882886 0 -0.029247786151882886 -0.0059426923182018115 0 0 0 -0.0024770648405255703 0.0004578055388787354 -0.035192164475312267 0 -0.035192164475312267 -0.0044315834293593565 0 0 0 -0.00099344447262015786 -0.035875365123483917 -0.03052105821336857 0 -0.03052105821336857 -0.012224347615827975 0 0 0 -0.01202492818482797 -0.031893922394807234 -0.031812230287687239 0 -0.031812230287687239 -0.0081985851835270351 0 0 0 -0.010023126894583567 -0.034209770534359647 -0.025911587994283079 0 -0.025911587994283079 -0.0031602200304900741 0 0 0 -0.0093424976412124286 -0.0027804484130219036 -0.025120928466236533 0 -0.025120928466236533 -0.0049632938652091133 0 0 0 -0.0019359355695577523 -0.020892700563467384 -0.028057909540232125 0 -0.028057909540232125 -0.0099380132848730235 0 0 0 -0.0077076784620851019 -0.054752681377389201 -0.026561514724981035 0 -0.026561514724981035 -0.0058845282863174836 0 0 0 -0.015159302415926692 -0.051112757955321532 -0.024085980010708729 0 -0.024085980010708729 0.0018145838958694704 0 0 0 -0.012324543514863014 -0.07248139831554648 -0.022387971952914466 0 -0.022387971952914466 -0.00050181898905721223 0 0 0 -0.018245804326150916 -0.055042156079489903 -0.032849262893392656 0 -0.032849262893392656 -0.0010936651986829249 0 0 0 -0.014033955319543205 -0.069749742190531441 -0.025570076085424789 0 -0.025570076085424789 -0.0066044916198758127 0 0 0 -0.019088558452601809 -0.038050281038782371 -0.037416107338915434 0 -0.037416107338915434 -0.0022987725162753603 0 0 0 -0.010087263388764433 -0.069183721070218904 -0.029006200393652967 0 -0.029006200393652967 0.0027391321873975957 0 0 0 -0.016611147220705329 -0.10879084939054463 -0.020474635651684312 0 -0.020474635651684312 -0.0063544520036282193 0 0 0 -0.028786325348543213 -0.11798161462605994 -0.024312488112698302 0 -0.024312488112698302 -0.0036727884579735443 0 0 0 -0.030413600771008367 -0.1435796520690486 -0.013178293272150348 0 -0.013178293272150348 -0.0010786869771913093 0 0 0 -0.036164584761559974 -0.10281243550312907 -0.010495737839194597 0 -0.010495737839194597 0.00025312388413576206 0 0 0 -0.025639827904748322 -0.11973920461989071 -0.012036364163559521 0 -0.012036364163559521 -0.001019409335913532 0 0 0 -0.030189653488951057 -0.074065621169236914 -0.023765561909861118 0 -0.023765561909861118 -0.00092715317066909692 0 0 0 -0.018748193584976494 -0.10121435454139749 -0.0095201960034489129 0 -0.0095201960034489129 -0.0057393653300677715 0 0 0 -0.026738429967866306 -0.075235922780947789 -0.0156849385884642 0 -0.0156849385884642 0.0038490383798935879 0 0 0 -0.01784672110026354 -0.15494187909085133 -0.011998368687330313 0 -0.011998368687330313 0.007293834764662277 0 0 0 -0.036912011081547291 -0.22645594883355308 -0.0022635378575388831 0 -0.0022635378575388831 -0.0002468150366122801 0 0 0 -0.056675690967541381 -0.1439324990375854 -0.027354806077755395 0 -0.027354806077755395 0.0071767522911229675 0 0 0 -0.034188936686615608 -0.14397381520178126 -0.0079942731686975937 0 -0.0079942731686975937 0.0022903143086320799 0 0 0 -0.035420875223287296 -0.19421921735557382 -0.010124360632737403 0 -0.010124360632737403 0.0026412356996199093 0 0 0 -0.047894495413988436 -0.16562947077379647 -0.01243097352794947 0 -0.01243097352794947 -0.00043656395318492774 0 0 0 -0.041516508681745369 -0.11234399677117243 -0.013138782328195833 0 -0.013138782328195833 0.0021016859183478794 0 0 0 -0.027560577713206164 -0.13061391310958462 -0.011223230925849044 0 -0.011223230925849044 0.0019027265956503003 0 0 0 -0.032177796628483545 -0.12522361060439333 -0.029488114110820328 0 -0.029488114110820328 0.0034401956840895143 0 0 0 -0.030445853730075956 -0.074122288761852034 -0.030790955572717969 0 -0.030790955572717969 0.0035244346717788477 0 0 0 -0.017649463522518304 -0.075142113464839358 -0.029510208365085548 0 -0.029510208365085548 -0.0010280220813256406 0 0 0 -0.019042533886541244 -0.050425466275178452 -0.029260576267177991 0 -0.029260576267177991 -0.0085640744754618137 0 0 0 -0.01474738518766008 -0.073992012850170791 -0.040848906124422615 0 -0.040848906124422615 0.0095419406650286143 0 0 0 -0.016112518046285523 -0.098457106630994995 -0.020209832869008817 0 -0.020209832869008817 0.0024511142820102458 0 0 0 -0.024001498087246172 -0.082384108719886495 -0.016123892312994909 0 -0.016123892312994909 0.008656651207841844 0 0 0 -0.018431864378011163 -0.01644936895086465 -0.032703986856227357 0 -0.032703986856227357 0.011712700899130568 0 0 0 -0.0011841670129335222 -0.0098341566906724048 -0.028702712273532785 0 -0.028702712273532785 0.02996049654371663 0 0 0 0.0050315849632610599 0.018189171768643174 -0.038438829875134091 0 -0.038438829875134091 0.0068145723968947441 0 0 0 0.0062509360413844708 -0.060763132597209037 -0.029029132134724262 0 -0.029029132134724262 0.011269819434886429 0 0 0 -0.012373328290580646 -0.023252550694376116 -0.037515692759314045 0 -0.037515692759314045 0.0048966605907157876 0 0 0 -0.0045889725259150877 -0.056329729382616774 -0.040521481360132616 0 -0.040521481360132616 -0.00038924442240902829 0 0 0 -0.01417974345125645 -0.025648715730532356 -0.041797286007499254 0 -0.041797286007499254 -0.0055569193184649892 0 0 0 -0.0078014087622493367 -0.0194084630624889 -0.031602042641025715 0 -0.031602042641025715 -0.0012613304200407641 0 0 0 -0.0051674483706324152 0.0097400461500131309 -0.038184789420236086 0 -0.038184789420236086 -0.000446229616252845 0 0 0 0.0023234541334400715 -0.022629687751595944 -0.031911022824699584 0 -0.031911022824699584 0.0033914352866533243 0 0 0 -0.0048095631162356576 0.011191684709864484 -0.027863191903129979 0 -0.027863191903129979 -0.0013192110655595932 0 0 0 0.0024681184110762252 0.043220930034636673 -0.033612644625213378 0 -0.033612644625213378 -0.0006796860402425095 0 0 0 0.010635310998598548 0.029311325520132367 -0.032159433996951203 0 -0.032159433996951203 -0.0055316031164187821 0 0 0 0.0059449306009283949 0.057661644415517438 -0.025211327280516956 0 -0.025211327280516956 -0.0040883002908179734 0 0 0 0.013393336031174864 0.029713895887284215 -0.021832469673246174 0 -0.021832469673246174 -0.0069674021345575848 0 0 0 0.0056866234381816576 0.045341408863182227 -0.019635821800939583 0 -0.019635821800939583 0.0049038723954634988 0 0 0 0.012561320314661431 0.076080474487430369 -0.027248408597917592 0 -0.027248408597917592 0.0089287081198902718 0 0 0 0.021252295651830164 0.021232536683833882 -0.027544680249125292 0 -0.027544680249125292 0.013994992433120919 0 0 0 0.0088068822792387019 0.061119017622947684 -0.033402050633679889 0 -0.033402050633679889 0.017219300418507694 0 0 0 0.019584579510363853 0.059512996506225449 -0.017451621174398635 0 -0.017451621174398635 0.026521083305675278 0 0 0 0.021508519952975189 0.090689192437076668 -0.0094370610549812106 0 -0.0094370610549812106 0.057223500284754342 0 0 0 0.036978173180457763 0.10361691886189163 -0.027988237547192027 0 -0.027988237547192027 0.041563951459703798 0 0 0 0.036295217580398886 0.035126737025186372 -0.021271197581867518 0 -0.021271197581867518 0.037044916859400909 0 0 0 0.018042913471146824 0.017793923944304429 -0.040486262609639563 0 -0.040486262609639563 0.040066901391083071 0 0 0 0.014465206333846875 0.067267797278747488 -0.039984490646505416 0 -0.039984490646505416 0.087867358220054093 0 0 0 0.038783788874700409 0.093874812599273577 -0.02374847364120497 0 -0.02374847364120497 0.16543428363781887 0 0 0 0.06482727405927316 0.098566656495746058 0.024026263127227665 0 0.024026263127227665 0.13902997631245151 0 0 0 0.059399158202049412 0.078810237373258429 0.018078549092268248 0 0.018078549092268248 0.17915871895183755 0 0 0 0.064492239081274105 0.058816968124957403 0.012775844397261586 0 0.012775844397261586 0.11207140297502116 0 0 0 0.042722092774994613 0.032026490039112961 -0.020170955997565604 0 -0.020170955997565604 0.084377401418230843 0 0 0 0.029100972864335946 0.055769192769069414 -0.0028353217111739965 0 -0.0028353217111739965 0.085890203086685046 0 0 0 0.035414848963938567 0.0083670064555398105 0.028698107580631155 0 0.028698107580631155 0.097322394368726695 0 0 0 0.026422350206066619 -0.018603321437677345 0.0095171215933091413 0 0.0095171215933091413 0.056190115484072711 0 0 0 0.0093966985115988 -0.050071462008952961 0.018886376189747402 0 0.018886376189747402 0.070830856705488499 0 0 0 0.0051898486741338012 -0.024387095968390782 -0.01748334415874174 0 -0.01748334415874174 0.029623484670332489 0 0 0 0.0013090971754854408 -0.059980454785998075 -0.0069279812290089088 0 -0.0069279812290089088 0.030909833919362473 0 0 0 -0.0072676552166589109 -0.0079255989142795469 -0.01311010699998677 0 -0.01311010699998677 0.080179319147180628 0 0 0 0.018063430058225277 -0.055885075448841547 -0.034793606290855608 0 -0.034793606290855608 0.035384216334908097 0 0 0 -0.0051252147784833319 -0.1037306038869297 -0.028834007120502797 0 -0.028834007120502797 0.015445924838367708 0 0 0 -0.022071169762140519 -0.11372189514622569 -0.0050461326914388316 0 -0.0050461326914388316 0.013799923833476002 0 0 0 -0.024980492828187428 -0.077173846743444935 -0.024411354665322321 0 -0.024411354665322321 0.030536701013769374 0 0 0 -0.011659286432418897 -0.10429608672623505 0.011903901114562854 0 0.011903901114562854 0.029745822837352831 0 0 0 -0.01863756597222057 -0.068619045417085911 0.0061024369038802095 0 0.0061024369038802095 0.018352335216925419 0 0 0 -0.012566677550040095 -0.1351371049558473 0.025512061634878208 0 0.025512061634878208 0.013999653499763731 0 0 0 -0.030284362864020919 -0.10878462806758901 0.0098035995274489696 0 0.0098035995274489696 0.040844062866624398 0 0 0 -0.016985141300241174 -0.11520984626776276 -0.004562921026209428 0 -0.004562921026209428 0.015258700999535968 0 0 0 -0.024987786317056782 -0.1623115748022507 0.0075283892166432831 0 0.0075283892166432831 0.013237182025537031 0 0 0 -0.037268598194178298 -0.15735186257405367 -2.5193897132513854e-05 0 -2.5193897132513854e-05 0.0077475471783419181 0 0 0 -0.037401078848927877 -0.23693854052146818 0.0031878033759485348 0 0.0031878033759485348 0.0089491545357487379 0 0 0 -0.056997346496429957 -0.1717857190358846 -0.0049624009698341909 0 -0.0049624009698341909 0.0048628522110498729 0 0 0 -0.041730716706208676 -0.24268671963854815 -0.0081715427157549939 0 -0.0081715427157549939 0.0057618716166377704 0 0 0 -0.059231212005477485 -0.17845907334917932 0.0011323650503680671 0 0.0011323650503680671 -0.00022942995291330703 0 0 0 -0.044672125825523094 -0.14001627117032522 -0.020510332763725103 0 -0.020510332763725103 0.010175199393401446 0 0 0 -0.032460267944230847 -0.16746453563601854 -0.02071218806252742 0 -0.02071218806252742 0.0071050775208093553 0 0 0 -0.040089864528802296 0.075103586833310046 0.027352305123137674 0 0.027352305123137674 0.037384855280656187 0 0 0 0.028122110528491538 0.078401799295462482 0.028929081698216633 0 0.028929081698216633 0.045349708835734581 0 0 0 0.030937877032799245 0.083480342763139745 0.03134925634680797 0 0.03134925634680797 0.046875730450408069 0 0 0 0.032589018303386952 0.063822514541653108 0.026622881592426751 0 0.026622881592426751 0.057081240146705403 0 0 0 0.030225938672089642 0.047925168451551703 0.02035851841578416 0 0.02035851841578416 0.064052648118073235 0 0 0 0.027994454142406259 0.055532183244087666 0.022096225273341888 0 0.022096225273341888 0.039290308828991517 0 0 0 0.023705623018269797 0.039304451840192642 0.014959904565659248 0 0.014959904565659248 0.045140084348060217 0 0 0 0.021111134047063218 0.06378994285329892 0.024157986821063921 0 0.024157986821063921 0.042118020132049225 0 0 0 0.026476990746337019 0.050471371376931459 0.016465623118667103 0 0.016465623118667103 0.024234381331503907 0 0 0 0.018676438177108828 0.050691947649210284 0.018384754313941421 0 0.018384754313941421 0.036764629355671909 0 0 0 0.021864144251220546 0.050022090038846515 0.013275299914233273 0 0.013275299914233273 0.012718688575255495 0 0 0 0.015685194653525497 0.059390417530993882 0.01945066655777019 0 0.01945066655777019 0.025944686794369481 0 0 0 0.021333776081340839 0.062108317908221973 0.016000727930907725 0 0.016000727930907725 0.010367904516694275 0 0 0 0.018119055606229076 0.062430253560128358 0.019499354664382847 0 0.019499354664382847 0.025775565683909207 0 0 0 0.022051454811009417 0.071727827019297793 0.022051064141956705 0 0.022051064141956705 0.0228639783211457 0 0 0 0.02364795133511088 0.075099802472260932 0.013732994884755295 0 0.013732994884755295 0.0078177368404590691 0 0 0 0.020729384828180007 0.066755128941290376 0.010951192704488452 0 0.010951192704488452 0.0070461618649825409 0 0 0 0.018450322701568232 0.064033660028726791 -0.0037355203909096774 0 -0.0037355203909096774 -0.0059975163796573182 0 0 0 0.014509035912267376 0.081819256761042417 0.0033236309519218202 0 0.0033236309519218202 0.0073608232840889909 0 0 0 0.022295020011282876 0.078705997152464083 0.0048666894688892664 0 0.0048666894688892664 0.0044202902879045131 0 0 0 0.020781571860092152 0.081629660152084602 0.019002845488520121 0 0.019002845488520121 0.020616825399344993 0 0 0 0.025561621387857426 0.060374672513713597 -0.010369402937858657 0 -0.010369402937858657 -0.0025313911812941316 0 0 0 0.014460820333104866 0.073866870486900785 -0.014025801280257193 0 -0.014025801280257193 -0.00023759418777397306 0 0 0 0.018407319074781697 0.082108593577783953 -0.0029980415107624721 0 -0.0029980415107624721 0.0128814734682931 0 0 0 0.023747516761519281 0.093993211359996498 -0.0084994613439700988 0 -0.0084994613439700988 0.022221425692039609 0 0 0 0.029053659263009037 0.11041732474601505 0.0087090967294604638 0 0.0087090967294604638 0.038900004607880762 0 0 0 0.03732933233847395 0.09333273349973098 0.020588303471255367 0 0.020588303471255367 0.023541003912036451 0 0 0 0.029218434352941844 0.1058672127081941 0.014023212731567272 0 0.014023212731567272 0.020562741899690845 0 0 0 0.031607488651971244 0.091054425160700225 0.019335288809534001 0 0.019335288809534001 0.034174287259269381 0 0 0 0.031307178104992395 0.11600824009486557 0.024933058687022579 0 0.024933058687022579 0.039821253874726875 0 0 0 0.038957373492398112 0.09853767155829582 0.03931680750876073 0 0.03931680750876073 0.080020433985989015 0 0 0 0.044639526386071243 0.14691739157267719 0.041479319831743196 0 0.041479319831743196 0.074899978722063665 0 0 0 0.055454342573685228 0.12079863479491929 0.039978419207607391 0 0.039978419207607391 0.11838652976065649 0 0 0 0.059796291138893974 0.092512340908469951 0.044893924932074052 0 0.044893924932074052 0.12569128993444428 0 0 0 0.054550907710728583 0.10879567972349316 0.036504978830612829 0 0.036504978830612829 0.083512331364618941 0 0 0 0.048077002772028088 0.14332713871541097 -0.0046688248144537564 0 -0.0046688248144537564 0.061758337953226827 0 0 0 0.05127136916715945 0.14589269136972416 0.012992065275151815 0 0.012992065275151815 0.10155887758718191 0 0 0 0.06186289223922653 0.15270001781863193 -0.027892300364655155 0 -0.027892300364655155 0.087173006048136936 0 0 0 0.059968255966692197 0.26755577770268768 -0.013027909564640602 0 -0.013027909564640602 0.15138698124607208 0 0 0 0.10473568973718995 0.17465110571705045 -0.0061328858122959296 0 -0.0061328858122959296 0.34259092890890513 0 0 0 0.12931050865648888 0.2530977028689898 0.11570916564882026 0 0.11570916564882026 0.24639649231412969 0 0 0 0.12487354879577992 0.1269348786330026 0.068657445393880495 0 0.068657445393880495 0.21187585356391658 0 0 0 0.08470268304922976 0.063096115699871558 0.03070649568275606 0 0.03070649568275606 0.11908756750801022 0 0 0 0.045545920801970452 0.12155606344454511 0.045412341598501285 0 0.045412341598501285 0.12040363656003561 0 0 0 0.060489925001145167 0.069468052356773738 -0.021776667008816905 0 -0.021776667008816905 0.24330742125873334 0 0 0 0.078193868403876807 0.049872963513208413 -0.022948568492273391 0 -0.022948568492273391 0.13502092966604473 0 0 0 0.046223473294813286 0.051751350539315136 -0.02255157442862326 0 -0.02255157442862326 0.14487924655399909 0 0 0 0.049157649273328552 0.068272318189277703 0.030195133199761859 0 0.030195133199761859 0.13600694385161199 0 0 0 0.051069815510222383 0.067376248844191786 0.029918382166569557 0 0.029918382166569557 0.077193537594991313 0 0 0 0.036142446609795778 0.058815571593118968 0.023950660216009445 0 0.023950660216009445 0.1216279490957253 0 0 0 0.045110880172211057 0.040413820882245502 0.012700298058075966 0 0.012700298058075966 0.07961680953975904 0 0 0 0.030007657605501132 0.055279584484350511 0.024692415454847953 0 0.024692415454847953 0.096484180476921463 0 0 0 0.037940941240318007 0.059686106881761958 0.02614969841974029 0 0.02614969841974029 0.0557821009577113 0 0 0 0.028867051959868273 0.074094740889887212 0.035874578074516487 0 0.035874578074516487 0.083975860939205255 0 0 0 0.039517650457273103 0.038452129604409836 0.015778716916221066 0 0.015778716916221066 0.058632425205091473 0 0 0 0.024271138702375329 0.038950766549006741 0.013997254808112064 0 0.013997254808112064 0.082378868348528533 0 0 0 0.030332408724383832 0.045261913107067044 -0.020856876046570542 0 -0.020856876046570542 0.090813547280051032 0 0 0 0.034018865096779531 0.031189319043454566 -0.0020929843984443175 0 -0.0020929843984443175 0.08264744622246234 0 0 0 0.028459191316479227 0.027603485866012474 0.00054228433651791821 0 0.00054228433651791821 0.072533032767870986 0 0 0 0.025034129658470898 0.043099308711920567 0.0081674389775930542 0 0.0081674389775930542 0.10916611829250088 0 0 0 0.038066356751105368 0.038448681689423919 -0.017766011378407845 0 -0.017766011378407845 0.069364996137493196 0 0 0 0.026953419456729286 0.035657415772297245 -0.018020057428102892 0 -0.018020057428102892 0.05659412022172855 0 0 0 0.02306288399850643 0.060807151972257507 -0.034475819660750542 0 -0.034475819660750542 0.064091893439966879 0 0 0 0.031224761353056109 0.052468382104617836 -0.032210186569194166 0 -0.032210186569194166 0.032309394262061308 0 0 0 0.021194444091669776 0.039911741233004151 -0.02112567359876992 0 -0.02112567359876992 0.026598059703046642 0 0 0 0.01662745023401269 0.06358357430249742 -0.030516931282816115 0 -0.030516931282816115 0.03337517823726005 0 0 0 0.024239688134939402 0.064579069942772141 -0.030232716362937173 0 -0.030232716362937173 0.036376145406539023 0 0 0 0.025238803837327808 0.051646028729729621 -0.022314543915099898 0 -0.022314543915099898 0.011135014198695281 0 0 0 0.015695260732106225 0.094446483363597317 -0.014299600586387164 0 -0.014299600586387164 0.023695350996401965 0 0 0 0.029535458589999786 0.079305466323878998 -0.022131208491802917 0 -0.022131208491802917 0.0075930669585766442 0 0 0 0.02172463332061389 0.084922754943860174 -0.027211590550673209 0 -0.027211590550673209 0.015572535929022968 0 0 0 0.025123822718220779 0.11054772141608729 -0.049544175076750574 0 -0.049544175076750574 0.052573931774987093 0 0 0 0.040780413297768638 0.04345234849055752 -0.022480009317001053 0 -0.022480009317001053 0.09061188540030865 0 0 0 0.033516058472716541 0.067955549618535616 -0.040590901311662819 0 -0.040590901311662819 0.063673866438176005 0 0 0 0.032907354014177936 0.068779212598032796 -0.044136669842551726 0 -0.044136669842551726 0.076569327294012557 0 0 0 0.036337134973011317 0.075659122908386237 -0.054445386594857682 0 -0.054445386594857682 0.11817565981463318 0 0 0 0.048458695680754851 0.046146243574410099 -0.048358818292342315 0 -0.048358818292342315 0.15631378278724989 0 0 0 0.050615006590415013 0.089727712683243532 -0.047453496380768179 0 -0.047453496380768179 0.15606149496130639 0 0 0 0.061447301911137509 0.12221055923224984 -0.014422271388054388 0 -0.014422271388054388 0.43750562210563393 0 0 0 0.13992904533447095 0.10944090838891994 -0.018022967885600288 0 -0.018022967885600288 -0.01456584523913107 0 0 0 0.023718765787447235 0.14378820002640802 -0.075171850144939781 0 -0.075171850144939781 0.097013235837753939 0 0 0 0.060200358966040479 0.23578292349124766 0.15980809697864845 0 0.15980809697864845 0.28414026709718371 0 0 0 0.12998079764710785 0.13997146583035638 -0.10819562770907618 0 -0.10819562770907618 0.18936201844370643 0 0 0 0.082333371068515654 0.008579996486867426 0.0014785290154462043 0 0.0014785290154462043 0.023477630808238722 0 0 0 0.0080144068237765365 0.39417791215851705 0.13301692891341821 0 0.13301692891341821 0.081158951439971316 0 0 0 0.11883421589962218 0.2099912808394197 0.035648721709613862 0 0.035648721709613862 0.047477270712547245 0 0 0 0.064367137887991602 0.019944992445539652 0.00359219995240731 0 0.00359219995240731 0.05999358241064201 0 0 0 0.019984643714045416 0.038327550144542658 0.0057686968052282628 0 0.0057686968052282628 0.057850610338086417 0 0 0 0.024044540120657237 0.20604429660658197 0.033317785116010218 0 0.033317785116010218 0.041912777937977319 0 0 0 0.061989268636139738 0.02858721362712301 0.0050652610875837594 0 0.0050652610875837594 0.0853712927933125 0 0 0 0.028489626605108873 0.053735821477397777 0.012041021047232592 0 0.012041021047232592 0.069016266583278363 0 0 0 0.030688022015169097 0.16048451379295653 0.029730602443898024 0 0.029730602443898024 0.030173347533004158 0 0 0 0.047664465331490269 0.09253923574511462 -0.026094543703108264 0 -0.026094543703108264 -0.00054525483076178771 0 0 0 0.022998495228588142 0.089860908295308545 0.0067520576776695096 0 0.0067520576776695096 0.042594533145325852 0 0 0 0.033113860360158592 0.090131200594074187 -0.0083715551633959384 0 -0.0083715551633959384 0.036603651577298835 0 0 0 0.031683713042843273 0.092356955246277961 -0.0029652399445789512 0 -0.0029652399445789512 0.025473690000860666 0 0 0 0.029457661311784622 0.07798776387319914 0.0077951160604552983 0 0.0077951160604552983 0.037190364576021651 0 0 0 0.028794532112305177 0.08773630036342242 0.0062625079263779193 0 0.0062625079263779193 0.071121698227747276 0 0 0 0.039714499647792417 0.080140761819718714 0.012181604311583161 0 0.012181604311583161 0.083175294301875591 0 0 0 0.040829014030398542 0.090415666089750657 0.0028008873357440178 0 0.0028008873357440178 0.038912796470272681 0 0 0 0.032332115640005821 0.14887182794055476 0.02543318179577847 0 0.02543318179577847 0.038960099937320081 0 0 0 0.046957981969468543 0.15965799492085386 0.017381252148686244 0 0.017381252148686244 0.075971122960278858 0 0 0 0.05890727947028318 0.18412579692742925 0.012978111476070399 0 0.012978111476070399 0.071105175059343217 0 0 0 0.063807742996693007 0.036253130836779807 0.0060780385303716503 0 0.0060780385303716503 0.10851182637426596 0 0 0 0.036191239302761441 0.16771129440659327 0.01417666107985067 0 0.01417666107985067 0.081199006778588156 0 0 0 0.062227575296294857 0.15914807740101999 0.011764290457013882 0 0.011764290457013882 0.082029104935584463 0 0 0 0.060294295584151336 0.13638958298926018 0.024634057626086392 0 0.024634057626086392 0.080294992962450795 0 0 0 0.054171143987927661 0.16489902100319642 0.012408530894113177 0 0.012408530894113177 0.10177258984918769 0 0 0 0.066667902713096083 0.1009086814287396 0.01215112506743643 0 0.01215112506743643 0.10857269141611414 0 0 0 0.052370343211213366 0.043967691409618558 0.0068153871076588012 0 0.0068153871076588012 0.13161785190968717 0 0 0 0.043896385829826433 0.14567566815520405 0.013032390983001019 0 0.013032390983001019 0.10391132757119959 0 0 0 0.062396748931600854 0.086647532838650773 0.010031048607198473 0 0.010031048607198473 0.06203202583477252 0 0 0 0.037169889668355868 0.082356554194415954 0.0059780411096698183 0 0.0059780411096698183 0.036233574207696129 0 0 0 0.029647532100527979 0.097865304309368212 0.0063769534518401394 0 0.0063769534518401394 0.093149988201137068 0 0 0 0.047753823127626355 0.091967116623275225 0.0068856281989646898 0 0.0068856281989646898 0.065918853815044809 0 0 0 0.039471492609579995 0.099006798743456415 0.010954496773735341 0 0.010954496773735341 0.073026742844164438 0 0 0 0.043008385396905158 0.080231914090600639 0.0058366716696114929 0 0.0058366716696114929 0.02992690297454402 0 0 0 0.0275397042662862 0.076014199422025863 0.0043331375163651598 0 0.0043331375163651598 0.033984925788483999 0 0 0 0.02749978130262748 0.082787810758284425 0.0049132772636226313 0 0.0049132772636226313 0.030569982777840066 0 0 0 0.028339448384031102 0.072694503944140079 -0.0061321058613159618 0 -0.0061321058613159618 0.0067454551404983742 0 0 0 0.019859989771159613 0.072650533915670168 -0.0014761183005086165 0 -0.0014761183005086165 0.012152541627773905 0 0 0 0.021200768885860977 0.05899218287979302 -0.0033302344728398797 0 -0.0033302344728398797 0.0062346307456575545 0 0 0 0.016306703406362699 0.062167863870809276 -0.0060594001723370816 0 -0.0060594001723370816 0.0081032611527479537 0 0 0 0.017567781255889287 0.058997085280068168 -0.013137975130165055 0 -0.013137975130165055 0.0036491112060427211 0 0 0 0.015661549121527729 0.066297962838363769 -0.0055047647203613215 0 -0.0055047647203613215 0.008937642058967292 0 0 0 0.018808901224332725 0.070250743515625935 -0.012631387195664978 0 -0.012631387195664978 0.0048856720409310439 0 0 0 0.018784103889139203 0.054784150380805807 -0.015473398548889475 0 -0.015473398548889475 0.00043152530231294062 0 0 0 0.013803918920779645 0.068499113269437584 -0.020221315303579762 0 -0.020221315303579762 0.0086358226476171973 0 0 0 0.019283733979263695 0.0542963929240948 -0.020973563994786476 0 -0.020973563994786476 0.011692526936390168 0 0 0 0.016497229965121235 0.072167659502839654 -0.013643891915786008 0 -0.013643891915786008 0.0047585570774063002 0 0 0 0.019231554145061475 0.079249572833773402 -0.0030450661620943786 0 -0.0030450661620943786 0.011270448705367447 0 0 0 0.02263000538478524 0.083985641426280774 -0.006204878880719078 0 -0.006204878880719078 0.016547328472041933 0 0 0 0.025133242474580632 -0.12896709042860638 0.01209129827287414 0 0.01209129827287414 0.0027937031798477285 0 0 0 -0.031543346812189732 -0.15433660373437452 0.017217464930480899 0 0.017217464930480899 0.0051435710549192493 0 0 0 -0.037298258169863874 -0.10615103745417498 0.042496692865372054 0 0.042496692865372054 0.016690255511856655 0 0 0 -0.022365195485579581 -0.20271043788854748 0.017574821326752144 0 0.017574821326752144 0.0050476712110141264 0 0 0 -0.04941569166938331 -0.20911209645817752 0.012974051242991225 0 0.012974051242991225 0.0096990104931680143 0 0 0 -0.049853271491252404 -0.12782641127265582 0.015154736185254924 0 0.015154736185254924 0.0035514298596694971 0 0 0 -0.031068745353246663 -0.13458892283122698 0.021185390798752146 0 0.021185390798752146 0.005907318635023584 0 0 0 -0.032170401049050834 -0.09620474877846974 0.043455016740788444 0 0.043455016740788444 0.023682669090957287 0 0 0 -0.018130519921878196 -0.058577227450492486 0.043319252463790425 0 0.043319252463790425 0.024558627365842023 0 0 0 -0.0085046500211625742 -0.033377716539682356 0.056945034927077809 0 0.056945034927077809 0.047285653924531879 0 0 0 0.0034769843462124639 -0.057048186166619552 0.036979088270547189 0 0.036979088270547189 0.0076249307023319446 0 0 0 -0.012355813866071874 -0.044727600352213515 0.059188403175689963 0 0.059188403175689963 0.021239253859737128 0 0 0 -0.0058720866231190549 -0.081330279671685046 0.032730441837912849 0 0.032730441837912849 0.003076522529530834 0 0 0 -0.019563439285538609 -0.0298590210723301 0.048281517999838597 0 0.048281517999838597 0.006896437784338072 0 0 0 -0.0057406458219983192 0.063339064791571087 0.071137504942843544 0 0.071137504942843544 0.024435716292662835 0 0 0 0.021943695271058605 0.015828090441793785 0.059436012185468234 0 0.059436012185468234 0.017505199296458773 0 0 0 0.0083333224345631951 0.083776885786497279 0.086821756233678549 0 0.086821756233678549 0.055522307965447659 0 0 0 0.034824798437986026 0.015438901347617939 0.064482444879430778 0 0.064482444879430778 0.021602870024811427 0 0 0 0.0092604428431073416 -0.050821684642539333 0.034712423560438965 0 0.034712423560438965 0.026748121171284112 0 0 0 -0.0060183908678138609 -0.0020880304052395687 0.065015931066915167 0 0.065015931066915167 0.073604115569263578 0 0 0 0.017879021291006061 0.010195088152475301 0.052952300993443391 0 0.052952300993443391 0.051224824002811836 0 0 0 0.015354978038821937 0.065104106240209347 0.083009621518788212 0 0.083009621518788212 0.11943522322590372 0 0 0 0.046134832366528267 0.088499874486273278 0.089200024581362836 0 0.089200024581362836 0.19403303772855152 0 0 0 0.070633228053706199 0.13976215496032995 0.10530457842705621 0 0.10530457842705621 0.072188372487352659 0 0 0 0.05298763186192057 0.15746201100866497 0.091305879772164533 0 0.091305879772164533 0.073414692395925574 0 0 0 0.057719175851147497 0.097594750780962358 0.060023358799644599 0 0.060023358799644599 0.025736030592697912 0 0 0 0.03083269534341504 0.13101969051622797 0.067576167465893344 0 0.067576167465893344 0.033633268085957013 0 0 0 0.041163239650546357 0.15978133563096319 0.029892313257587122 0 0.029892313257587122 0.036077564909697379 0 0 0 0.048964725135165477 0.086114346257874674 0.048289379545205735 0 0.048289379545205735 0.016361836707228961 0 0 0 0.025619045741275874 0.086808966659417175 0.053002314952612872 0 0.053002314952612872 0.015994443343770204 0 0 0 0.0257008525007969 0.12875142477633372 0.034201290733751777 0 0.034201290733751777 0.035885210947952828 0 0 0 0.041159158931071582 0.12471444416781785 0.030446025417069755 0 0.030446025417069755 0.040484284355537525 0 0 0 0.041299682130838677 0.12934085408254892 0.022924234062266291 0 0.022924234062266291 0.052692182987008174 0 0 0 0.045508259267389439 0.11445031030877417 0.031549493071511781 0 0.031549493071511781 0.047733939969602623 0 0 0 0.040546062569594365 0.087434873309429451 0.038310837048607646 0 0.038310837048607646 0.027397894422949598 0 0 0 0.028708191933094707 0.085883726983653208 0.045973877956371645 0 0.045973877956371645 0.017897904234962514 0 0 0 0.025945407804654153 0.041203578749755471 0.039376610278618607 0 0.039376610278618607 0.015606292033140123 0 0 0 0.01420246769572367 0.046996556836049752 0.042553986899539264 0 0.042553986899539264 0.016991247701686696 0 0 0 0.015996951134434001 0.038639946027131833 0.041876059729454074 0 0.041876059729454074 0.012007321098959522 0 0 0 0.012661816781523116 -0.0061271309424215659 0.049377251057892202 0 0.049377251057892202 0.0074211355606337293 0 0 0 0.00032350115455326289 0.041947553871432008 0.053629662132771649 0 0.053629662132771649 0.011523533885066772 0 0 0 0.013367771939124751 0.056879192258509681 0.04298139885368224 0 0.04298139885368224 0.0099712984485291756 0 0 0 0.016712622676759992 0.0092377204938705049 0.049319829221163403 0 0.049319829221163403 0.005745197303397287 0 0 0 0.003745729449317059 -0.005190662373097954 0.060778283324174176 0 0.060778283324174176 0.010867532417643044 0 0 0 0.0014192175111362726 -0.039005035877495597 0.038198886049536251 0 0.038198886049536251 0.00089899957761163662 0 0 0 -0.0095265090749709902 -0.053823350602072662 0.047850676835618833 0 0.047850676835618833 0.010744912152230945 0 0 0 -0.010769609612460318 -0.046204061680383823 0.03007189442364254 0 0.03007189442364254 0.0042037915252066682 0 0 0 -0.010500067538793845 -0.044900626240807151 0.045822648208279748 0 0.045822648208279748 0.0036139071445788762 0 0 0 -0.010321679774057069 -0.0039731091147436892 0.04414393784198456 0 0.04414393784198456 0.0038950044302938913 0 0 0 -1.9526171112449475e-05 0.001282502068440744 0.045162145411717702 0 0.045162145411717702 0.00063448069086458059 0 0 0 0.0004792456898265185 -0.022750406696167236 0.034333521199140016 0 0.034333521199140016 0.006701086638973841 0 0 0 -0.0040123300142982377 -0.039189624198252115 0.030222249500053033 0 0.030222249500053033 0.0012213474716142869 0 0 0 -0.0094920691816597902 -0.058081221398638583 0.036314617478431288 0 0.036314617478431288 0.0052735019881735568 0 0 0 -0.013201929852616257 -0.085945672726189359 0.012986977399526638 0 0.012986977399526638 0.0034843414834906383 0 0 0 -0.020615332810674847 -0.045657394997251188 0.012875605717508343 0 0.012875605717508343 0.0073860688080875647 0 0 0 -0.0095678315472909059 -0.070020189400186172 0.014418809424313839 0 0.014418809424313839 0.0070365480812668579 0 0 0 -0.01574591032972994 -0.12437660708020437 0.013509308301396515 0 0.013509308301396515 0.0026443559410802564 0 0 0 -0.030433062784780862 -0.094618143098238572 0.033504967204429081 0 0.033504967204429081 0.0041397141259169601 0 0 0 -0.022619607243080098 -0.090057352742042962 0.017047578561953936 0 0.017047578561953936 0.0022018700331667418 0 0 0 -0.021963870677218944 -0.0037568958917265916 0.013036874821028999 0 0.013036874821028999 0.011339897295953555 0 0 0 0.0018957503510569074 -0.027053459475230524 0.0094711216551830457 0 0.0094711216551830457 0.0033361388441726092 0 0 0 -0.0059293301577645341 -0.0055269359954963626 0.018805542819069987 0 0.018805542819069987 0.0080799278988195056 0 0 0 0.00063824797583045267 -0.038186707004642884 0.010846062957010769 0 0.010846062957010769 0.0075680080549282991 0 0 0 -0.0076546747374286461 -0.0337721341228161 0.0086579651702067828 0 0.0086579651702067828 0.0058692034045986219 0 0 0 -0.0069757326795538699 -0.063360651081815433 0.011987464251682463 0 0.011987464251682463 0.0046237429057844892 0 0 0 -0.014684227044007514 -0.052638819489820632 0.023001020815243134 0 0.023001020815243134 0.0027515275009193374 0 0 0 -0.012471822997224935 -0.03664578743850555 0.018975340033343446 0 0.018975340033343446 0.0047682271627391692 0 0 0 -0.0079693900689417063 -0.018990226907177998 0.031506528776337195 0 0.031506528776337195 0.0046037191998209437 0 0 0 -0.0035966269268392637 -0.01580460444121834 0.023672451697842156 0 0.023672451697842156 0.0094188557218410907 0 0 0 -0.0015964371798442567 -0.0025086458976395498 0.028624882895753212 0 0.028624882895753212 0.0058076560416191469 0 0 0 0.00082475253599501031 0.012367428787127155 0.025508560080541809 0 0.025508560080541809 0.011190966522495849 0 0 0 0.0058895988274054734 0.013144092958154996 0.021951772047365647 0 0.021951772047365647 0.011929806800194953 0 0 0 0.0062684749395871542 -0.0090164322622482418 0.026837300565354383 0 0.026837300565354383 0.0084194499906118381 0 0 0 -0.00014924556790896215 0.014212282224956851 0.024491033308430499 0 0.024491033308430499 0.012852734690376622 0 0 0 0.0067662542288333682 0.04641311420893901 0.023836109179745435 0 0.023836109179745435 0.022807288268571924 0 0 0 0.017305100619377622 0.049990227290048761 0.026591626726162332 0 0.026591626726162332 0.032523716957616688 0 0 0 0.02062848606191614 0.071465267735739024 0.025060207090849218 0 0.025060207090849218 0.032663040867312532 0 0 0 0.026032077150763167 0.015698299225034074 0.031608589296528322 0 0.031608589296528322 0.014176493650499111 0 0 0 0.0074686982188829631 0.011490023008783767 0.038588965810561149 0 0.038588965810561149 0.0075900684409804242 0 0 0 0.0047700228624409924 0.040827769180847406 0.029594311364188108 0 0.029594311364188108 0.016462860582778793 0 0 0 0.01432265744090655 0.03774076368733853 0.030343061658979265 0 0.030343061658979265 0.016288853909806549 0 0 0 0.013507404399286157 0.064127796580009916 0.037192338204766973 0 0.037192338204766973 0.024091398675298858 0 0 0 0.022054798813827464 0.043641506446161937 0.031130658005195488 0 0.031130658005195488 0.026605228534956282 0 0 0 0.01756168374528011 0.090389070772533733 0.022809438627810597 0 0.022809438627810597 0.049330742155413221 0 0 0 0.034929953231986735 0.088870300297832827 0.028744559225847066 0 0.028744559225847066 0.050738232103008762 0 0 0 0.034902133100210397 0.081513476481114289 0.031710441651075581 0 0.031710441651075581 0.029254289634902619 0 0 0 0.027691941529004005 0.10397244299323205 0.029214234950285967 0 0.029214234950285967 0.05417373256707414 0 0 0 0.039536543890076548 0.12631988507758729 0.015758441202194717 0 0.015758441202194717 0.088569230781683217 0 0 0 0.053722278964817516 0.10783726276819383 0.017569265166058612 0 0.017569265166058612 0.066718814696458573 0 0 0 0.043639019366163545 0.12022732735937858 0.024911570930502336 0 0.024911570930502336 0.092755783055054497 0 0 0 0.053245777603608158 0.078702561828001727 0.031934244974514137 0 0.031934244974514137 0.046304922811370552 0 0 0 0.03125187115984307 0.0946594791117783 0.025495620991271117 0 0.025495620991271117 0.066049043369198479 0 0 0 0.040177130620244306 0.1318153213661728 0.0070871204210267713 0 0.0070871204210267713 0.093834533705353884 0 0 0 0.056412463767881338 0.10397333811383236 0.0021813996085602305 0 0.0021813996085602305 0.080540673147580399 0 0 0 0.046128502815353301 0.14597334442888213 0.017213137111222299 0 0.017213137111222299 0.09689428702102898 0 0 0 0.060716907862477548 0.12748775231383913 0.008915094768262577 0 0.008915094768262577 0.083753952354872041 0 0 0 0.052810426167178015 0.15785937361451419 -0.0082539891411914645 0 -0.0082539891411914645 0.12223709148368656 0 0 0 0.070024116274550074 0.17604045957387182 0.010944459444956589 0 0.010944459444956589 0.12491583712054499 0 0 0 0.075239074173603981 0.1326023190704598 -0.011380032651680416 0 -0.011380032651680416 0.078956690014516273 0 0 0 0.052889752271244019 0.093839118971390967 0.00057374375534691158 0 0.00057374375534691158 0.071512664272169957 0 0 0 0.041337945810890453 0.046113416603199564 0.013201890138190286 0 0.013201890138190286 0.01928333661758419 0 0 0 0.016349188305196272 0.050534944629847534 0.007484751058590337 0 0.007484751058590337 0.032547920697657773 0 0 0 0.020770716331876216 0.079637123704203283 0.0014019160024143495 0 0.0014019160024143495 0.027354412291179742 0 0 0 0.026747883998845978 0.046954909158364755 0.019285052550952475 0 0.019285052550952475 0.021694510554299828 0 0 0 0.01716235492816609 0.088465956360183728 0.012971732556874338 0 0.012971732556874338 0.045998550288185669 0 0 0 0.033616126662092682 0.053468098658185692 0.017049487130693208 0 0.017049487130693208 0.040360548371209504 0 0 0 0.023457161757348466 0.083228987461070436 0.016705743834287912 0 0.016705743834287912 0.044577867829555196 0 0 0 0.031951713822656491 0.020596656870841112 0.019476491063878276 0 0.019476491063878276 0.016763524460460921 0 0 0 0.0093400453328253974 -0.0052067271927554448 0.013746897279361292 0 0.013746897279361292 0.0078314043459833949 0 0 0 0.00065616928830641852 0.01909539268681959 0.012483571177287156 0 0.012483571177287156 0.010254898818368829 0 0 0 0.00733757287629766 0.0073641693810175823 0.014923121766008407 0 0.014923121766008407 0.012227919769308926 0 0 0 0.0048980222875818491 0.020733107667526562 0.014134128526827716 0 0.014134128526827716 0.013156544463990727 0 0 0 0.0084724130328792668 0.026190915673797388 0.0043497922819670798 0 0.0043497922819670798 0.0038449665338013972 0 0 0 0.0075089705518993632 0.016117225324831713 0.003705335867218551 0 0.003705335867218551 0.0013640743184362752 0 0 0 0.0043703249108163313 0.026766615561473195 0.008185427535113643 0 0.008185427535113643 0.0084479710236120553 0 0 0 0.0088036466462710905 0.014670521097605249 0.0096824411979525848 0 0.0096824411979525848 0.0073881839212139866 0 0 0 0.00551467625470492 0.0077598350278722528 0.0060391546339304547 0 0.0060391546339304547 0.0061943441266549826 0 0 0 0.0034885447886319199 0.011617013892389672 0.003541971851068304 0 0.003541971851068304 0.0070346658345901147 0 0 0 0.0046629199317447245 0.0091341462542091634 0.0021361862894537786 0 0.0021361862894537786 0.0068346992697883024 0 0 0 0.0039922113809995885 0.0053503704825601517 0.0029320061609079862 0 0.0029320061609079862 0.0063933371865729782 0 0 0 0.0029359269172841707 0.008709521051652902 0.0050626646559805977 0 0.0050626646559805977 0.010340481167546489 0 0 0 0.0047625005547992094 -0.0031642285639730261 0.006892707877875332 0 0.006892707877875332 0.010858727093149056 0 0 0 0.0019236246322940076 0.00085987205092008523 0.0063630784680070995 0 0.0063630784680070995 0.0074312072887749991 0 0 0 0.0020727698349243262 -0.019185506217878512 0.0074153784891488033 0 0.0074153784891488033 0.0054945019523078287 0 0 0 -0.003422751066393559 0.067774894711118749 0.0042097123707979245 0 0.0042097123707979245 0.026500642214832837 0 0 0 0.023568884231487897 0.094096315104284456 0.0074251535845930028 0 0.0074251535845930028 0.06354621975970054 0 0 0 0.039410633715996346 0.095580495219382999 0.012521398105592385 0 0.012521398105592385 0.055584210471987472 0 0 0 0.037791176422842632 0.083083224142837211 0.014368100908474346 0 0.014368100908474346 0.043938103265278507 0 0 0 0.031755331852028848 0.061515150982945188 0.0079989932264061536 0 0.0079989932264061536 0.018847771750830411 0 0 0 0.020090730683443858 0.047108407487537501 0.0013534068110651609 0 0.0013534068110651609 0.012006272483165881 0 0 0 0.014778669992675825 0.047546937599127592 -0.003010461429126754 0 -0.003010461429126754 0.0075881649807365559 0 0 0 0.013783775644965968 0.059261428618763934 0.0016094253489383134 0 0.0016094253489383134 0.014276014377994528 0 0 0 0.018384360749189588 0.048955344117747157 -0.0032354762560790062 0 -0.0032354762560790062 0.0080309125743276422 0 0 0 0.014246564173018672 0.049261710862487054 -0.0054036715782856959 0 -0.0054036715782856959 0.007242954399824697 0 0 0 0.014126166315577907 0.072716845732136937 0.0041415031457762985 0 0.0041415031457762985 0.022008536976171555 0 0 0 0.023681345677077081 0.072321668148978668 0.0045635502327629716 0 0.0045635502327629716 0.021845078674344931 0 0 0 0.0235416867058309 0.06189744872142236 0.0055522337778081687 0 0.0055522337778081687 0.025853884762270268 0 0 0 0.021937833370923115 0.081683522865874547 0.0092517482342909831 0 0.0092517482342909831 0.049691272563554767 0 0 0 0.032843698857357273 0.08651239906317329 0.010384622932808729 0 0.010384622932808729 0.045447213848329837 0 0 0 0.032989903227875733 0.097805490888178581 0.0081098762561276905 0 0.0081098762561276905 0.078993222174555511 0 0 0 0.044199678265683551 0.11291951606817702 0.0067495685451672838 0 0.0067495685451672838 0.11854694780474562 0 0 0 0.057866615968230672 0.13267763660349111 0.0061545989661451195 0 0.0061545989661451195 0.13967134712533602 0 0 0 0.068087245932206636 0.11485112529531402 0.013853868805061564 0 0.013853868805061564 0.088841133244798698 0 0 0 0.050923064635028131 0.14395840627598466 0.023891666005796619 0 0.023891666005796619 0.098846343595949904 0 0 0 0.060701187467983697 0.17157749394482646 0.0085554794760374659 0 0.0085554794760374659 0.13353403891069604 0 0 0 0.076277883213880848 0.12712735068644551 0.01192197508478765 0 0.01192197508478765 0.1273248885515732 0 0 0 0.063613059809504685 0.051831380392172957 0.0073280865653070296 0 0.0073280865653070296 0.15517451371419125 0 0 0 0.051751473526591055 0.13504962749034588 0.018575920172893223 0 0.018575920172893223 0.087203566577656044 0 0 0 0.055563298517000259 0.15268456142499454 0.015317908932138913 0 0.015317908932138913 0.13887514540400492 0 0 0 0.072889926707250252 0.15378784194861025 0.0059849345590965441 0 0.0059849345590965441 0.13826478963260525 0 0 0 0.07301315789530391 0.059971756511361253 0.0076267052129847541 0 0.0076267052129847541 0.1796371204905042 0 0 0 0.059902219250466369 0.15626759782406879 0.012647259004105293 0 0.012647259004105293 0.14855408877577114 0 0 0 0.076205421649960026 0.17727239073934298 0.012455366114578679 0 0.012455366114578679 0.1449449653969026 0 0 0 0.080554339034061506 0.068651424862542998 0.0077447606618721472 0 0.0077447606618721472 0.20532964860189157 0 0 0 0.068495268366108641 0.15396245225846794 0.020867682019757305 0 0.020867682019757305 0.13506913621015126 0 0 0 0.072257897117154579 0.10944194262717022 0.010345878074264903 0 0.010345878074264903 0.096482828347592697 0 0 0 0.051481192743690674 0.15092957841071533 0.010283146712933955 0 0.010283146712933955 0.15711242655937652 0 0 0 0.077010501242522983 0.11567137663588378 0.01996699167635374 0 0.01996699167635374 0.085620181221584435 0 0 0 0.050322889464367082 0.13428361085672436 0.0097559811625566595 0 0.0097559811625566595 0.1011732220236421 0 0 0 0.058864208220091641 0.152009966019791 0.022100791520012042 0 0.022100791520012042 0.11370326848038012 0 0 0 0.066428308625042787 0.12384592371515046 0.0072759153624587514 0 0.0072759153624587514 0.092480150675458672 0 0 0 0.054081518597652201 0.18921121524480267 0.014968679132997487 0 0.014968679132997487 0.16330094218962576 0 0 0 0.088128039358607246 0.18133293423966423 0.0051299707344942824 0 0.0051299707344942824 0.17832700650663413 0 0 0 0.089914985186574592 0.17092114263569791 0.0018853905310067254 0 0.0018853905310067254 0.12431102470420563 0 0 0 0.073808041834975913 0.19261053754409208 0.0012066495960194601 0 0.0012066495960194601 0.17491984739309352 0 0 0 0.091882596234296177 0.077361023315596397 0.007631664338315098 0 0.007631664338315098 0.23250028053445435 0 0 0 0.077465325962512682 0.23414881392638942 0.012504634455411279 0 0.012504634455411279 0.18838559134945942 0 0 0 0.10563360131896227 0.21549261121066676 0.013413710005286461 0 0.013413710005286461 0.18255319573729345 0 0 0 0.09951145173698972 0.17734213957709777 -0.0017909068440951081 0 -0.0017909068440951081 0.16406846667432229 0 0 0 0.085352651562855097 0.2063853426468345 0.017778797489096831 0 0.017778797489096831 0.17906854812846884 0 0 0 0.096363472693825614 0.088940025568372522 0.0076069405950086565 0 0.0076069405950086565 0.26288276232916952 0 0 0 0.087955696974385517 0.26874012494673671 0.00066751159636657675 0 0.00066751159636657675 0.2071396122470226 0 0 0 0.11896993429843983 0.21848284924956457 -0.013526289560052085 0 -0.013526289560052085 0.19047768529455925 0 0 0 0.10224013363603106 0.13399182509743024 0.022292590494040809 0 0.022292590494040809 0.079087533387786291 0 0 0 0.053269839621304271 0.20082049977327421 0.019117698543176909 0 0.019117698543176909 0.18906354066155484 0 0 0 0.09747101010870729 0.26143688718542929 0.0017917733964823435 0 0.0017917733964823435 0.19874496214316029 0 0 0 0.11504546233214741 0.20342745316942523 0.023184981319882891 0 0.023184981319882891 0.17128412972279072 0 0 0 0.093677895723054072 0.16478904628057395 -0.0037816672632856874 0 -0.0037816672632856874 0.088294139492477441 0 0 0 0.063270796443262833 0.065077864086915571 0.0096547367624447156 0 0.0096547367624447156 0.010847967082074028 0 0 0 0.018981457792247414 0.1140196585486577 0.018088094776274155 0 0.018088094776274155 0.048884271541457025 0 0 0 0.040725982522528681 0.0919603002855469 0.0041020725220365373 0 0.0041020725220365373 -0.016994766049496832 0 0 0 0.018741383559012434 0.097779772413861529 0.0050359598891148716 0 0.0050359598891148716 0.059927602098341803 0 0 0 0.039426843628050864 0.083725662279396595 0.0078785747009214591 0 0.0078785747009214591 0.014832898601738975 0 0 0 0.024639640220283976 0.070375038516429678 0.010701182962960798 0 0.010701182962960798 0.020979178621163275 0 0 0 0.022838554284398238 0.079761338433582352 0.0061651675168264974 0 0.0061651675168264974 0.043905888705480178 0 0 0 0.030916806784765716 0.10426057735782518 0.019022189300517273 0 0.019022189300517273 0.056676927835918045 0 0 0 0.040234376298435848 0.04822746950343744 0.0044046886275708186 0 0.0044046886275708186 0.0010544975620012109 0 0 0 0.01232049176635959 0.05152171173330311 0.0038431985901359322 0 0.0038431985901359322 0.015624684936689774 0 0 0 0.016786599167498358 0.051422738539606827 0.009489053342045195 0 0.009489053342045195 -0.0019444594669209003 0 0 0 0.01236956976817144 0.059200208750131433 0.0036498174311834775 0 0.0036498174311834775 0.018172883002336215 0 0 0 0.01934327293811694 0.04112446764051092 8.2879861301177193e-06 0 8.2879861301177193e-06 -0.0035102724855446965 0 0 0 0.0094035487887413893 0.051220211565425666 -0.0025523641885854265 0 -0.0025523641885854265 -0.018065432560042005 0 0 0 0.0082886947513460818 0.043796202394597313 0.0043195150781586422 0 0.0043195150781586422 -0.055101628105031969 0 0 0 -0.0028263564276086919 0.039814365543849095 -0.0028193317737995605 0 -0.0028193317737995605 -0.028472783321035422 0 0 0 0.002835395555703335 0.037054130705082657 -0.003784805738674013 0 -0.003784805738674013 -0.06370992903362066 0 0 0 -0.0066639495821344723 0.037056176182816203 0.0019507890372076342 0 0.0019507890372076342 -0.030328081238578664 0 0 0 0.0016820237360594126 0.033927641370744943 -0.0067474176326021151 0 -0.0067474176326021151 -0.012909287338135789 0 0 0 0.0052545885081523025 0.038108837638871185 0.00091796046009490206 0 0.00091796046009490206 -0.027342507407915217 0 0 0 0.0026915825577389363 0.07563543263577184 -0.014204815066435006 0 -0.014204815066435006 0.003814130715113473 0 0 0 0.019862390837721299 0.061290197395978296 -0.0021668357092438084 0 -0.0021668357092438084 -0.039373698249264288 0 0 0 0.0054791247866784465 0.045961291473537724 -0.0094413990985683857 0 -0.0094413990985683857 -0.01165514502460141 0 0 0 0.0085765366122340092 0.061948034740127222 -0.0074274332456679693 0 -0.0074274332456679693 0.027300902093509771 0 0 0 0.022312234208409221 0.052472012822815273 -0.0073837094686417526 0 -0.0073837094686417526 -0.0080834417784194645 0 0 0 0.01109714276109891 0.046908517490194868 -0.0081639944899072336 0 -0.0081639944899072336 0.0074091353206873212 0 0 0 0.013579413202720492 0.050766788655516051 -0.0097737090638763124 0 -0.0097737090638763124 0.024584586065195313 0 0 0 0.018837843680177782 0.064226699966501655 -0.014807109945877084 0 -0.014807109945877084 0.022663159427026902 0 0 0 0.021722464848382028 0.04366456569630256 -0.0025285970395038659 0 -0.0025285970395038659 -0.0063967338846621091 0 0 0 0.0093169579529101543 0.041989291737437928 -0.0077178410590540425 0 -0.0077178410590540425 0.0071232622550458924 0 0 0 0.012278138498120983 0.036884114607718954 -0.0041866010755098881 0 -0.0041866010755098881 0.0022881397245897439 0 0 0 0.0097930635830772439 0.044829473219597238 -0.0020826179871500927 0 -0.0020826179871500927 0.0059974437135676961 0 0 0 0.012706729233291136 0.04329795254376706 -0.0047048946776380718 0 -0.0047048946776380718 0.0073458897491229802 0 0 0 0.012660960573222468 0.045300293654592427 -0.0062207167306723987 0 -0.0062207167306723987 0.0092134404161665628 0 0 0 0.01362843351768972 0.041492655363311037 -0.0084816436993836453 0 -0.0084816436993836453 0.010561633978499518 0 0 0 0.01301357233545275 0.038278722194941911 -0.005363083482855302 0 -0.005363083482855302 0.0070375837090173865 0 0 0 0.011329076475989824 0.044661914918628337 -0.010163908990005743 0 -0.010163908990005743 0.011616779659297527 0 0 0 0.01406967364448139 0.042441822456317391 -0.0103324418157551 0 -0.0103324418157551 0.011169812273649882 0 0 0 0.013402908682491999 0.051617957590122721 -0.014514271753951369 0 -0.014514271753951369 0.023432083221360589 0 0 0 0.018762510202870675 0.057345028249299435 -0.012581563528064083 0 -0.012581563528064083 0.039231817271983216 0 0 0 0.024144211380320635 0.046139703048207859 -0.011089672519704247 0 -0.011089672519704247 0.019275624493681143 0 0 0 0.016353831885472236 0.042324055728839682 -0.012576743710419919 0 -0.012576743710419919 0.013307715829492528 0 0 0 0.01390794288958308 0.044895747145719755 -0.014276058029755331 0 -0.014276058029755331 0.020418413574466943 0 0 0 0.016328540180046702 0.049145008320486613 -0.014320505396390182 0 -0.014320505396390182 0.034141227553553394 0 0 0 0.020821558968509998 0.046050464841574205 -0.014626267669371584 0 -0.014626267669371584 0.015160920093293923 0 0 0 0.01530284623371702 0.04220341075514128 -0.013404317564707634 0 -0.013404317564707634 0.0044636533133319833 0 0 0 0.011666766017118302 0.05186678131746103 -0.0096322330845027143 0 -0.0096322330845027143 0.0082323998692785949 0 0 0 0.015024795296684934 0.043178486368679256 -0.0081550108463778193 0 -0.0081550108463778193 0.0054578106942261978 0 0 0 0.012159074265726308 0.050585503433179579 -0.0044797323239669784 0 -0.0044797323239669784 0.0097678106755323402 0 0 0 0.015088328527178008 0.046179144163585747 -0.0098577161979215289 0 -0.0098577161979215289 0.011481458983179316 0 0 0 0.014415150786691353 0.075830343619431084 -0.016895213290732292 0 -0.016895213290732292 0.07229283030134237 0 0 0 0.037030793480193336 0.027241934396055441 -0.011206346482387983 0 -0.011206346482387983 0.081563607045020386 0 0 0 0.027201385360268962 0.087231025795702577 -0.014795525543771393 0 -0.014795525543771393 0.064974452053535359 0 0 0 0.038051369462309415 0.06405986413541076 -0.015566223325012951 0 -0.015566223325012951 0.064921986293827505 0 0 0 0.032245462607309539 0.051527802487925878 -0.012992610521806836 0 -0.012992610521806836 0.060980579329063644 0 0 0 0.028127095454247325 0.04570464772171362 -0.018397877754336267 0 -0.018397877754336267 0.031482869844270067 0 0 0 0.01929687939149588 0.047848296206419005 -0.016814923974033474 0 -0.016814923974033474 0.039463456742117153 0 0 0 0.021827938237134137 0.055649367568543551 -0.014811126895017457 0 -0.014811126895017457 0.034464737404272139 0 0 0 0.02252852624320395 0.071973132890281316 -0.01022907139570628 0 -0.01022907139570628 0.072173383061719054 0 0 0 0.036036628988000113 0.062101622554135094 -0.016221547763479283 0 -0.016221547763479283 0.056050746766643789 0 0 0 0.029538092330194665 0.079017505418186973 -0.012055071259271244 0 -0.012055071259271244 0.056862058710148045 0 0 0 0.033969891032083699 0.067542236492029728 -0.018337848858896666 0 -0.018337848858896666 0.044812624747445406 0 0 0 0.028088715309868673 0.08838581316436156 -0.013153772412326958 0 -0.013153772412326958 0.086710682882062406 0 0 0 0.043774124011605964 0.11480008247800622 -0.014745893424748501 0 -0.014745893424748501 0.088831759453298131 0 0 0 0.050907960482826087 0.081747052235855766 -0.012327006278936237 0 -0.012327006278936237 0.07210866374844338 0 0 0 0.038463928996074981 0.083473744617417869 -0.021148976552356702 0 -0.021148976552356702 0.072057496067044854 0 0 0 0.038882810171115625 0.037418269781264404 -0.011465114245237717 0 -0.011465114245237717 0.11197354419646645 0 0 0 0.03734795349443272 0.088026587054244931 -0.01553950610028898 0 -0.01553950610028898 0.080015824126632884 0 0 0 0.042010602795219398 0.093328972228471085 -0.016113609665278528 0 -0.016113609665278528 0.076331341910140571 0 0 0 0.042415078534653039 0.032044320246011671 -0.011485592550820052 0 -0.011485592550820052 0.095953731556273264 0 0 0 0.031999512950571241 0.10785031586676341 -0.0092852575681272587 0 -0.0092852575681272587 0.094854431898209413 0 0 0 0.050676186941243317 0.043430664571689849 -0.011152790384369641 0 -0.011152790384369641 0.1301510654936972 0 0 0 0.043395432516346755 0.14785858648289019 -0.012811037411950025 0 -0.012811037411950025 0.10291363463410885 0 0 0 0.062693055279249732 0.1240431324100375 -0.01572480936084153 0 -0.01572480936084153 0.1006234523892784 0 0 0 0.056166646199829147 0.10413609843521954 -0.0072401306267200205 0 -0.0072401306267200205 0.088305569265558326 0 0 0 0.048110416925194244 0.075882743375432771 -0.0091959315152272403 0 -0.0091959315152272403 0.050672803874029837 0 0 0 0.031638886812365707 0.094200936309727479 -0.018324016066813276 0 -0.018324016066813276 0.058400013247150939 0 0 0 0.038150237389219632 0.11130067279343658 -0.0093884821173055855 0 -0.0093884821173055855 0.099557276663319927 0 0 0 0.052714487364189044 0.10763287540276055 -0.0042774902575697382 0 -0.0042774902575697382 0.065366520231254527 0 0 0 0.043249848908503793 0.084957491068458513 -0.01737276700894469 0 -0.01737276700894469 0.030136734716597502 0 0 0 0.028773556446264004 0.12769844871730379 -0.017445194754388882 0 -0.017445194754388882 0.10277453031948286 0 0 0 0.057618244759196705 0.16762725802946166 -0.0039140092714616825 0 -0.0039140092714616825 0.10809160564571796 0 0 0 0.068929715918794932 0.13114945302591868 -0.018393484160622697 0 -0.018393484160622697 0.086676008998460702 0 0 0 0.054456365506094853 0.10570798984967172 0.001939689744216877 0 0.001939689744216877 0.036239612989855452 0 0 0 0.035486900709881863 0.12769329714702538 -0.016291846760451811 0 -0.016291846760451811 0.098514359398799933 0 0 0 0.056551914136456438 0.050802599405695301 -0.010907847946755865 0 -0.010907847946755865 0.1514254304244072 0 0 0 0.050557007457525623 0.1673550377920856 -0.0043371575092076261 0 -0.0043371575092076261 0.11852622657431855 0 0 0 0.071470316091601038 0.1370504642603414 0.0052202881012692881 0 0.0052202881012692881 0.10550256064186225 0 0 0 0.060638256225550968 0.11308180512172705 -0.0086080702215005633 0 -0.0086080702215005633 0.067221560581159245 0 0 0 0.045075841425721519 0.083669577649897853 0.0054825550120716215 0 0.0054825550120716215 0.040422363475899621 0 0 0 0.031022985281449367 0.080098050363712203 -0.0092832011735737296 0 -0.0092832011735737296 0.044277154963793475 0 0 0 0.031093801331876114 0.096840069104739745 0.00010731473525193991 0 0.00010731473525193991 0.063372488699901197 0 0 0 0.040053139451160291 0.057326305492562346 -0.0028939194363577503 0 -0.0028939194363577503 0.034298631087833265 0 0 0 0.022906234145098958 0.029669140783407766 -0.0074047095683160702 0 -0.0074047095683160702 0.012848723285042496 0 0 0 0.010629466017112676 0.028540240317255439 -0.009871286895116951 0 -0.009871286895116951 0.0094620218867023098 0 0 0 0.0095005655509894371 0.049763483089693854 -0.0027295337665571573 0 -0.0027295337665571573 0.011227050528935276 0 0 0 0.01524763340465767 0.053831689614662226 -0.013438029740887369 0 -0.013438029740887369 0.024063180276328033 0 0 0 0.019473717472747287 0.028313533453656503 -0.016723073349353523 0 -0.016723073349353523 0.018908910499588316 0 0 0 0.011805610988311233 0.025590054566726694 -0.015836234282038619 0 -0.015836234282038619 0.011081171586428074 0 0 0 0.0091678065382887475 0.042322628541263008 -0.017252938780435878 0 -0.017252938780435878 0.02201933533860867 0 0 0 0.016085490969967919 0.070635452649317698 -0.013636099683534297 0 -0.013636099683534297 0.047809423829147657 0 0 0 0.029611219119616172 0.087425873590935899 -0.017676007229850299 0 -0.017676007229850299 0.052117619796721915 0 0 0 0.034885873346914398 0.06105579474740841 -0.0079100538709345192 0 -0.0079100538709345192 0.039423885204567632 0 0 0 0.025119919987993899 0.0051148229810105139 -0.003309892535083403 0 -0.003309892535083403 0.0064248807825975085 0 0 0 0.0028849259409018391 0.0031906559532199896 -0.0018423779374059368 0 -0.0018423779374059368 0.0036662953276436205 0 0 0 0.0017142378202159581 0.0053362984677504371 -0.0013244756822570203 0 -0.0013244756822570203 0.0041151385958006726 0 0 0 0.0023628592658876666 0.0071740283255303794 -0.0023626131075165091 0 -0.0023626131075165091 0.0039278255085344327 0 0 0 0.002775463458516203 0.0034444561299373788 -0.0044237053551627881 0 -0.0044237053551627881 0.0030542877623318532 0 0 0 0.001624685973067308 0.0084729687624496286 -0.0070296193415617658 0 -0.0070296193415617658 0.0026277917390871153 0 0 0 0.0027751901253840749 0.016509908365542447 -0.0056868307233748361 0 -0.0056868307233748361 0.0040938995011678969 0 0 0 0.0051509519666779191 0.0091628288277728048 -0.0027782948776731153 0 -0.0027782948776731153 -2.5281388863322538e-05 0 0 0 0.0022843868597269266 0.015363454169840106 -0.0040437580459238287 0 -0.0040437580459238287 -0.00063292574751421524 0 0 0 0.0036826321055813062 0.011041448498857021 -0.01166373360104811 0 -0.01166373360104811 0.0040268838426458231 0 0 0 0.0037670830853753223 0.00537293136997119 -0.016839788238099285 0 -0.016839788238099285 0.0066942478944718165 0 0 0 0.0030167948161106128 -0.0082218503499742468 -0.01127566486019127 0 -0.01127566486019127 0.0030230844770340326 0 0 0 -0.0012996914682350535 0.010349399982970464 -0.0096947209398310363 0 -0.0096947209398310363 0.0046599451820403814 0 0 0 0.0037523362912530445 0.0033497965721454304 -0.011063054675403805 0 -0.011063054675403805 0.0068096646727418553 0 0 0 0.0025398653112218839 -0.0016711356258554411 -0.0047453789929310375 0 -0.0047453789929310375 0.0038204898304168844 0 0 0 0.00053733855114021511 -0.014068937384836167 -0.0053604243638535392 0 -0.0053604243638535392 0.0026466608040038864 0 0 0 -0.0028555691452081255 -0.0027388033098791897 -0.0045418139969357618 0 -0.0045418139969357618 0.0064237735897112458 0 0 0 0.00092124256995806952 -0.027732241399213153 -0.0064325512652946108 0 -0.0064325512652946108 0.0056648781291555039 0 0 0 -0.0055168408175145789 -0.005162771678869138 -0.0088806386117529224 0 -0.0088806386117529224 0.0068211184952757797 0 0 0 0.00041458670410143839 -0.0085488402669928742 -0.013785021176289103 0 -0.013785021176289103 0.0053050547852724339 0 0 0 -0.00081094637043022111 -0.022196458690411092 -0.0069607247077578815 0 -0.0069607247077578815 0.00082508598042513315 0 0 0 -0.0053428431774962259 -0.010866022197503877 -0.016419658197863729 0 -0.016419658197863729 0.0039802946975036058 0 0 0 -0.0017214318750002899 0.0054914340565541675 -0.017557882238951883 0 -0.017557882238951883 0.0085646508167567248 0 0 0 0.0035140212183275565 0.0018736329641257932 -0.022115557880578618 0 -0.022115557880578618 0.0072981753226910584 0 0 0 0.0022929520717043239 0.0028777492175998676 -0.02115655334392974 0 -0.02115655334392974 0.0091714963355737922 0 0 0 0.0030123113882934982 -0.011694837479459118 -0.01771559104083531 0 -0.01771559104083531 0.0030975488807912094 0 0 0 -0.0021493221496670309 -0.012602182335650691 -0.02186870634180621 0 -0.02186870634180621 0.0055887666555722859 0 0 0 -0.0017533539200197401 0.0017188188086682127 -0.025513036055822003 0 -0.025513036055822003 0.010882158219761184 0 0 0 0.003150244257107318 -0.018570508882383985 -0.020842496572474278 0 -0.020842496572474278 0.0038301936410194415 0 0 0 -0.0036850788103413024 -0.0261779794488044 -0.012646595919822312 0 -0.012646595919822312 0.0039960678515087444 0 0 0 -0.005545477899324025 -0.031881115304432051 -0.010561118879488962 0 -0.010561118879488962 0.000560093480597601 0 0 0 -0.0078302554559586124 -0.032903836650155394 -0.010675163554594636 0 -0.010675163554594636 0.0059916569946367737 0 0 0 -0.0067280449138796827 -0.046636336214312291 -0.0058714017356207024 0 -0.0058714017356207024 0.0016177497365683635 0 0 0 -0.011254646619436093 -0.028341765528026142 -0.0053641597825806464 0 -0.0053641597825806464 0.0039956076660128126 0 0 0 -0.0060865394655035265 0.053960690705676551 -0.023220853091438731 0 -0.023220853091438731 0.031966853816973506 0 0 0 0.021481886130662597 0.04099802306878586 -0.020869771829768347 0 -0.020869771829768347 0.030947322118409559 0 0 0 0.01798633629679891 0.060077225855027949 -0.02352417228634418 0 -0.02352417228634418 0.051351582335604995 0 0 0 0.027857202047658181 0.05214346061608488 -0.024026781630903105 0 -0.024026781630903105 0.033878307570264887 0 0 0 0.021505442046587442 0.020857791468155806 -0.021224828321442873 0 -0.021224828321442873 0.016289399183031961 0 0 0 0.0092867976627968307 0.01927109993080145 -0.020848182648204983 0 -0.020848182648204983 0.011350765398136176 0 0 0 0.0076554663322344618 0.036360345421399765 -0.024599962926347363 0 -0.024599962926347363 0.019115293896038832 0 0 0 0.01386890982935951 0.029196072527965966 -0.027388592531015998 0 -0.027388592531015998 0.016220542886110856 0 0 0 0.011354153853519233 0.016070895513397354 -0.024338943557192905 0 -0.024338943557192905 0.01518216046665577 0 0 0 0.0078132639950132532 0.013607569725576196 -0.02256143020973958 0 -0.02256143020973958 0.0091942156383799656 0 0 0 0.0057004463409888739 0.013250371966425215 -0.022795061890700463 0 -0.022795061890700463 0.012616225263534009 0 0 0 0.0064666493074899828 0.04704230637991369 -0.025298986396760731 0 -0.025298986396760731 0.026142135373448561 0 0 0 0.018296110438340785 0.033203035173372974 -0.023755331403296998 0 -0.023755331403296998 0.027815152344708771 0 0 0 0.015254546879520658 0.067769820091175159 -0.019157990613000608 0 -0.019157990613000608 0.04586956752845972 0 0 0 0.028409846904908553 0.051560498997681337 -0.023418918402535294 0 -0.023418918402535294 0.040609518169284264 0 0 0 0.023042504291741372 0.062608428891131829 -0.019303418398825323 0 -0.019303418398825323 0.037892245775310585 0 0 0 0.02512516866661052 0.046224961192733227 -0.02687643726669553 0 -0.02687643726669553 0.02719249112317712 0 0 0 0.01835436307897742 0.049770118815782555 -0.021449397027773154 0 -0.021449397027773154 0.028374210330861831 0 0 0 0.019536082286661181 0.057956940038308979 -0.024398738064598913 0 -0.024398738064598913 0.028505734608003319 0 0 0 0.021615668661577825 0.030838890341540859 -0.029562190740995642 0 -0.029562190740995642 0.017609309561845699 0 0 0 0.012112049975846584 0.035149298924203487 -0.022694272298917406 0 -0.022694272298917406 0.024728411127786121 0 0 0 0.014969427512997235 0.028133823517096701 -0.029625088984475356 0 -0.029625088984475356 0.014733472227074773 0 0 0 0.010716823936042785 0.0061007033380775511 -0.028599878422712055 0 -0.028599878422712055 0.009128055599072038 0 0 0 0.0038071897342875083 0.00091859220692293991 -0.023057704374683019 0 -0.023057704374683019 0.0071239057886852211 0 0 0 0.0020106244989022345 0.026961457194784044 -0.024513991650171874 0 -0.024513991650171874 0.014845088711322951 0 0 0 0.010451636476526582 0.011148514906620055 -0.032066649802803215 0 -0.032066649802803215 0.0086289813873583476 0 0 0 0.0049443740734946839 0.023137293278132659 -0.025415184849458705 0 -0.025415184849458705 0.011520506401253211 0 0 0 0.008664449919846523 -3.1484712790352809e-05 -0.02699691982375485 0 -0.02699691982375485 0.0061914836065259937 0 0 0 0.001539999723433827 0.0012763772839116116 -0.03076000468781865 0 -0.03076000468781865 0.012318898827428759 0 0 0 0.0033988190278351205 0.052643652031102439 -0.028504473817201878 0 -0.028504473817201878 0.018798664582420965 0 0 0 0.017860579153380796 0.05699656409598608 -0.022642864511948968 0 -0.022642864511948968 0.026005962467950394 0 0 0 0.020750631640984063 0.050807565407098521 -0.022043347313345424 0 -0.022043347313345424 0.030144277952071086 0 0 0 0.020237960839792457 0.024675906712055384 -0.030759421714069091 0 -0.030759421714069091 0.015019921372351419 0 0 0 0.0099239570211016592 0.046959844330299205 -0.02513738690927958 0 -0.02513738690927958 0.019855566907295064 0 0 0 0.016703852809398567 -0.050050460020376941 -0.01112289596419036 0 -0.01112289596419036 0.0043988735026929682 0 0 0 -0.01141289662942091 -0.06171484888785625 -0.006792774701143478 0 -0.006792774701143478 0.00030478031968324271 0 0 0 -0.015352517142043307 -0.048515894914392954 -0.0064823384278349661 0 -0.0064823384278349661 0.00023628171953943289 0 0 0 -0.012069903298713325 -0.064315396813348524 -0.007720072121575966 0 -0.007720072121575966 0.0040803533378035439 0 0 0 -0.015058760868886134 -0.035517777273950335 -0.0097770901199368127 0 -0.0097770901199368127 -0.00033552752244059292 0 0 0 -0.0089633261990977875 -0.019530234170895833 -0.019243711439415515 0 -0.019243711439415515 0.0048636709780680576 0 0 0 -0.0036666407982071103 -0.035932771837205724 -0.019432842093523583 0 -0.019432842093523583 0.0040518386147880836 0 0 0 -0.0079702333056045904 -0.012303252894672045 -0.019873277048243931 0 -0.019873277048243931 0.00417348605051715 0 0 0 -0.0020324417110387794 -0.01736968251160842 -0.027748146513439376 0 -0.027748146513439376 0.0067814690211966955 0 0 0 -0.0026470533726029588 -0.02214330319139346 -0.024871142284002556 0 -0.024871142284002556 0.0063391708047011441 0 0 0 -0.0039510330966732177 -0.018502341087998975 -0.022091616370398692 0 -0.022091616370398692 0.0061943839498570519 0 0 0 -0.0030769892845355917 -0.020266473318746842 -0.029128784946852337 0 -0.029128784946852337 0.010288942625441194 0 0 0 -0.0024943826733263286 -0.031164142117622549 -0.01787147117017962 0 -0.01787147117017962 0.0038819472366607294 0 0 0 -0.0068205487202404255 -0.043974352727751964 -0.021568189182271325 0 -0.021568189182271325 0.0057455915489101894 0 0 0 -0.0095571902947104714 -0.042898055668238677 -0.017815218097805674 0 -0.017815218097805674 0.0023456380279194278 0 0 0 -0.010138104410079896 -0.042878096720882386 -0.018294936951554042 0 -0.018294936951554042 0.0047829558777220393 0 0 0 -0.0095237852107902254 -0.067210631648836894 -0.012066885648027603 0 -0.012066885648027603 0.002458231183243953 0 0 0 -0.016188100116398263 -0.063835275792093471 -0.0069258246419688918 0 -0.0069258246419688918 0.0021859661586723922 0 0 0 -0.015412327408355297 -0.078780364625803179 -0.010411794791496232 0 -0.010411794791496232 0.0028666738172047346 0 0 0 -0.018978422702149556 -0.11515999507285357 -0.0072243217837464129 0 -0.0072243217837464129 0.0026518459350617363 0 0 0 -0.028127037284447931 -0.093494320555550181 -0.0081025365860541553 0 -0.0081025365860541553 0.0027883771417063219 0 0 0 -0.022676485853461048 -0.078326865612181801 -0.0046165193639953195 0 -0.0046165193639953195 0.0013913565253088622 0 0 0 -0.019233877271718242 -0.067788395181751698 -0.018992274907562612 0 -0.018992274907562612 0.0074773051885364816 0 0 0 -0.015077772498303804 -0.054399556172734842 -0.013891108780225647 0 -0.013891108780225647 0.0022139948177359869 0 0 0 -0.013046390338749714 -0.02643013193402477 -0.020533660460938796 0 -0.020533660460938796 0.0061480990249196399 0 0 0 -0.0050705082272761715 -0.031231888472556979 -0.026748659970627808 0 -0.026748659970627808 0.012328214281836836 0 0 0 -0.0047259185476800081 -0.029017815263843616 -0.024662154795190072 0 -0.024662154795190072 0.020992661244332911 0 0 0 -0.0020062885048777179 -0.041492569785050559 -0.015132126116921552 0 -0.015132126116921552 0.0023444128174032741 0 0 0 -0.0097870392419117103 -0.042508194571241081 -0.018116707702310608 0 -0.018116707702310608 0.010020340526727234 0 0 0 -0.0081219635111285104 -0.062767174811151433 -0.0045550106992994777 0 -0.0045550106992994777 0.011922243798880849 0 0 0 -0.012711232753067653 -0.061736788261448461 -0.018071610666886867 0 -0.018071610666886867 0.0094526146125281096 0 0 0 -0.013071043412230116 -0.080764385353578161 -0.0091348471483205518 0 -0.0091348471483205518 0.0030473173125247777 0 0 0 -0.019429267010263318 -0.076074670965054492 -0.0053589524255206744 0 -0.0053589524255206744 0.0023672631701454616 0 0 0 -0.018426851948727285 -0.11520801397088963 -0.0046122832486565268 0 -0.0046122832486565268 0.0036831347619598054 0 0 0 -0.027881219802232349 0.027644709181640248 -0.027956134082701312 0 -0.027956134082701312 0.019379685790470225 0 0 0 0.011756098743027577 0.064268619546370864 -0.045864901961568283 0 -0.045864901961568283 0.039488367413216596 0 0 0 0.025939246739896893 0.026276828632812228 -0.033519903758597813 0 -0.033519903758597813 0.020045456414665819 0 0 0 0.011580571261869517 0.022128397479156264 -0.026967988296683121 0 -0.026967988296683121 0.011313500781111485 0 0 0 0.0083604745650669166 -0.0069980500604350793 -0.027962205834827319 0 -0.027962205834827319 0.010534931731537522 0 0 0 0.00088422041777558302 -0.0050530250792056586 -0.029167967721592636 0 -0.029167967721592636 0.016682152128835948 0 0 0 0.0029072817624075376 0.018228924287579801 -0.036533096078955551 0 -0.036533096078955551 0.024339940970284968 0 0 0 0.010642216314466213 -0.0062252721004521505 -0.020998006258082735 0 -0.020998006258082735 0.024151443393580996 0 0 0 0.0044815428232822252 -0.037710079603211821 -0.013448937619251006 0 -0.013448937619251006 0.01025997309618587 0 0 0 -0.00686252662675646 -0.026953256319293253 -0.0091753577003044207 0 -0.0091753577003044207 0.017523939544710959 0 0 0 -0.0023573291936455215 -0.01278796181756936 -0.027620277325128534 0 -0.027620277325128534 0.028736660088301003 0 0 0 0.0039871745676828829 0.022839233555348781 -0.031889249235106193 0 -0.031889249235106193 0.036550903326318385 0 0 0 0.014847534220416791 0.023700147058607346 -0.029450979955255443 0 -0.029450979955255443 0.036983494721593901 0 0 0 0.015170910445050312 0.052614611070892478 -0.040810136283430276 0 -0.040810136283430276 0.056674009957539156 0 0 0 0.027322155257107905 0.074909457899924523 -0.06216533912114755 0 -0.06216533912114755 0.1167621548714359 0 0 0 0.047917903192840117 -0.051110842012809299 0.016713001657618326 0 0.016713001657618326 0.065305250900384304 0 0 0 0.0035486022218937652 0.17796752519025366 -0.062227954712778005 0 -0.062227954712778005 0.053586546851389527 0 0 0 0.057888518010410783 0.0045576555093700712 -0.002250604634886189 0 -0.002250604634886189 0.013406553696363309 0 0 0 0.0044910523014333459 0.087016406697361048 -0.02985429312152732 0 -0.02985429312152732 0.011637907733062003 0 0 0 0.024663578607605818 0.079775486245011462 -0.0245348953476478 0 -0.0245348953476478 0.024228875880259182 0 0 0 0.026001090531317661 0.011056519033955886 -0.005764526101930509 0 -0.005764526101930509 0.033107972110095009 0 0 0 0.011041122786012722 0.11634740124233661 -0.017599140301805094 0 -0.017599140301805094 0.030841542141406109 0 0 0 0.036797235845935694 0.015110917070369856 -0.0080239611037482058 0 -0.0080239611037482058 0.045233484524789341 0 0 0 0.015086100398789796 0.083657194992783512 -0.015317778330171838 0 -0.015317778330171838 0.032627807165866218 0 0 0 0.029071250539662474 0.076877229247783174 -0.025614471198064759 0 -0.025614471198064759 0.022393750818277325 0 0 0 0.024817745016515125 0.013487747527063165 -0.014263566113127513 0 -0.014263566113127513 0.021704626143646044 0 0 0 0.0087980934176772607 -0.0081416165671854834 -0.020229119413211163 0 -0.020229119413211163 0.03328835089598936 0 0 0 0.0062866835822009692 0.01422708334758746 -0.015516168948648656 0 -0.015516168948648656 0.028013670100627497 0 0 0 0.010560188362053802 -0.027458941143865878 -0.019769668705444592 0 -0.019769668705444592 0.021739581924312745 0 0 0 -0.0014298398048882971 0.014320562355253696 -0.003443826631653657 0 -0.003443826631653657 0.044944328546736328 0 0 0 0.014816222725497499 0.0086004481206250136 -0.0014984313354960976 0 -0.0014984313354960976 0.011794537705476421 0 0 0 0.0050987464565253812 -0.012336057037188194 -0.0077479791449783925 0 -0.0077479791449783925 0.11915941474661521 0 0 0 0.026705839427356756 0.0097598386441076646 0.0064334361393263428 0 0.0064334361393263428 0.045431223196834791 0 0 0 0.013797765460235633 0.022669147894046879 -0.0063037280091502862 0 -0.0063037280091502862 0.017750925345770052 0 0 0 0.010105018309954222 0.03001547358770941 -0.008561201266698782 0 -0.008561201266698782 0.04441536597806664 0 0 0 0.018607709891444002 0.021298333065377019 -0.0089931843247349069 0 -0.0089931843247349069 0.042217523869166662 0 0 0 0.015878964233635919 0.029659143404296248 -0.013867335236675875 0 -0.013867335236675875 0.045234971210764502 0 0 0 0.018723528653765184 0.029378458456880835 -0.0125714450437973 0 -0.0125714450437973 0.063854798162009646 0 0 0 0.023308314154722606 0.045191548730436418 -0.024136259679649129 0 -0.024136259679649129 0.047538135997236913 0 0 0 0.023182421181918343 0.050343187029359672 -0.025795575835010465 0 -0.025795575835010465 0.027163150845968979 0 0 0 0.019376584468832121 0.038310618689336426 -0.015944926824645572 0 -0.015944926824645572 0.025643351950190851 0 0 0 0.015988492659881823 0.039981616537764622 -0.020287522223085705 0 -0.020287522223085705 0.021843256048315496 0 0 0 0.015456218146520012 0.036174990035069812 -0.014748988476247005 0 -0.014748988476247005 0.019844819401891478 0 0 0 0.014004952359240305 0.039531148847198841 -0.01961680911367894 0 -0.01961680911367894 0.011196615843436113 0 0 0 0.012681941172658768 0.022353261357941176 -0.018378062590629671 0 -0.018378062590629671 0.022317438131591372 0 0 0 0.011167674872383127 0.035911926487658771 -0.017747104795776542 0 -0.017747104795776542 0.015308181177181857 0 0 0 0.01280502691621016 0.034237123969754341 -0.019664964182002545 0 -0.019664964182002545 0.011398503590423881 0 0 0 0.011408906890044535 0.027016235629056473 -0.019522792184458515 0 -0.019522792184458515 0.017990452585171512 0 0 0 0.01125167205355701 0.038745849556345108 -0.021395158158325336 0 -0.021395158158325336 0.0090071652227252663 0 0 0 0.011938253694767559 0.037250252646904597 -0.019487161503104561 0 -0.019487161503104561 0.012784827242260488 0 0 0 0.012508769972291334 0.034626577854766458 -0.021001407559908841 0 -0.021001407559908841 0.018765897769531303 0 0 0 0.013348118906074388 0.051235240199905302 -0.019046035653499271 0 -0.019046035653499271 0.0065853060137279762 0 0 0 0.014455136553408326 0.045144829334763825 -0.02102733629617097 0 -0.02102733629617097 0.013359070844023768 0 0 0 0.014625975044696898 0.042798873009979865 -0.019593617025478349 0 -0.019593617025478349 0.0088292702845442772 0 0 0 0.012907035823631036 0.047891157170213805 -0.018395628734577452 0 -0.018395628734577452 0.0063185997014609668 0 0 0 0.013552439217918707 0.05066401118018253 -0.019981394204554914 0 -0.019981394204554914 0.006539906405857672 0 0 0 0.014300979396510077 0.048480412745243923 -0.011000438079056818 0 -0.011000438079056818 -0.00027147330780397105 0 0 0 0.012052234859359939 0.042504879404979712 -0.017453245226030339 0 -0.017453245226030339 0.0043040975356167799 0 0 0 0.011702244235149178 0.052105208638873746 -0.013750663635518245 0 -0.013750663635518245 0.0077608085437500113 0 0 0 0.01496650429565588 0.036550390800376989 -0.018463087503665654 0 -0.018463087503665654 0.022695528934257747 0 0 0 0.014811479933658681 0.044150874689408703 -0.017208357814507996 0 -0.017208357814507996 0.013673189127516805 0 0 0 0.014456015954231405 0.036584739062526843 -0.020502158757203015 0 -0.020502158757203015 0.01299224410457897 0 0 0 0.012394245791776441 0.040181402843081193 -0.016662491386212008 0 -0.016662491386212008 0.012198971216324184 0 0 0 0.013095093514851303 0.03857238633525667 -0.018216998549105648 0 -0.018216998549105648 0.022989075309324036 0 0 0 0.015390365411145246 0.044777578547939734 -0.016315608604892992 0 -0.016315608604892992 0.026074693289489748 0 0 0 0.017713067959357398 0.042920704253749026 -0.016983827278793329 0 -0.016983827278793329 0.039141442407837679 0 0 0 0.020515536665396683 0.033276591179678794 -0.019373337675682667 0 -0.019373337675682667 0.034887036628671653 0 0 0 0.017040906952087653 0.036664536960661354 -0.018317277363557927 0 -0.018317277363557927 0.029586564689891848 0 0 0 0.016562775412638286 0.039373927102290374 -0.01382892527320001 0 -0.01382892527320001 0.053901615060173325 0 0 0 0.023318885540615786 0.082279763273476303 -0.014211636307147724 0 -0.014211636307147724 0.05323646233897561 0 0 0 0.03387905640311295 0.022901085769212244 -0.010603079123564084 0 -0.010603079123564084 0.068573237904328649 0 0 0 0.022868580918385222 0.042575177329315761 -0.015342215739736013 0 -0.015342215739736013 0.056773976138233762 0 0 0 0.024837288366887367 0.068069785713856468 -0.018426308761366306 0 -0.018426308761366306 0.058021102758738508 0 0 0 0.031522722118148772 0.068453978629127998 -0.016335257875493392 0 -0.016335257875493392 0.048877307923963054 0 0 0 0.029332821638272832 0.084843513429142314 -0.012462302009291659 0 -0.012462302009291659 0.04453483434196448 0 0 0 0.032344586942776643 0.018471675621610451 -0.016223757784222193 0 -0.016223757784222193 0.046714960033057418 0 0 0 0.01629665891366705 0.018929708243117231 -0.0095865657812936704 0 -0.0095865657812936704 0.056684786489727176 0 0 0 0.018903623683211104 0.074198817629729297 -0.014563107268083186 0 -0.014563107268083186 0.042030514431579569 0 0 0 0.029057333015327258 0.066421116904899324 -0.0221858284414162 0 -0.0221858284414162 0.025116564001875341 0 0 0 0.022884420226693514 0.091661951763987171 -0.012949886631134055 0 -0.012949886631134055 0.036126248143364181 0 0 0 0.031947049976837838 0.016398178358887721 -0.016501243338009647 0 -0.016501243338009647 0.034069632596723361 0 0 0 0.012616952738902742 0.023525287968882216 -0.021945759814332944 0 -0.021945759814332944 0.018772192288103756 0 0 0 0.010574370064246483 0.02343660266273806 -0.020625477587656899 0 -0.020625477587656899 0.024508513729782466 0 0 0 0.011986279098130159 0.028936061078003783 -0.01739375270947055 0 -0.01739375270947055 0.038371067173065265 0 0 0 0.016826782062767276 
</DataArray>
<DataArray type="Float64" Name="cross_section_updated" format="ascii">
1 1 1 1 1 1 1 1 1 1 1 1 1 1 1 1 1 1 1 1 1 1 1 1 1 1 1 1 1 1 1 1 1 1 1 1 1 1 1 1 1 1 1 1 1 1 1 1 1 1 1 1 1 1 1 1 1 1 1 1 1 1 1 1 1 1 1 1 1 1 1 1 1 1 1 1 1 1 1 1 1 1 1 1 1 1 1 1 1 1 1 1 1 1 1 1 1 1 1 1 1 1 1 1 1 1 1 1 1 1 1 1 1 1 1 1 1 1 1 1 1 1 1 1 1 1 1 1 1 1 1 1 1 1 1 1 1 1 1 1 1 1 1 1 1 1 1 1 1 1 1 1 1 1 1 1 1 1 1 1 1 1 1 1 1 1 1 1 1 1 1 1 1 1 1 1 1 1 1 1 1 1 1 1 1 1 1 1 1 1 1 1 1 1 1 1 1 1 1 1 1 1 1 1 1 1 1 1 1 1 1 1 1 1 1 1 1 1 1 1 1 1 1 1 1 1 1 1 1 1 1 1 1 1 1 1 1 1 1 1 1 1 1 1 1 1 1 1 1 1 1 1 1 1 1 1 1 1 1 1 1 1 1 1 1 1 1 1 1 1 1 1 1 1 1 1 1 1 1 1 1 1 1 1 1 1 1 1 1 1 1 1 1 1 1 1 1 1 1 1 1 1 1 1 1 1 1 1 1 1 1 1 1 1 1 1 1 1 1 1 1 1 1 1 1 1 1 1 1 1 1 1 1 1 1 1 1 1 1 1 1 1 1 1 1 1 1 1 1 1 1 1 1 1 1 1 1 1 1 1 1 1 1 1 1 1 1 1 1 1 1 1 1 1 1 1 1 1 1 1 1 1 1 1 1 1 1 1 1 1 1 1 1 1 1 1 1 1 1 1 1 1 1 1 1 1 1 1 1 1 1 1 1 1 1 1 1 1 1 1 1 1 1 1 1 1 1 1 1 1 1 1 1 1 1 1 1 1 1 1 1 1 1 1 1 1 1 1 1 1 1 1 1 1 1 1 1 1 1 1 1 1 1 1 1 1 1 1 1 1 1 1 1 1 1 1 1 1 1 1 1 1 1 1 1 1 1 1 1 1 1 1 1 1 1 1 1 1 1 1 1 1 1 1 1 1 1 1 1 1 1 1 1 1 1 1 1 1 1 1 1 1 1 1 1 1 1 1 1 1 1 1 1 1 1 1 1 1 0.0020386580599611554 1 1 0.0021000223467414919 1 1 0.0021422041654705092 1 1 1 1 1 1 1 1 1 1 1 1 1 0.0021808014676787616 1 1 1 1 1 0.002219303665199652 1 1 1 1 1 1 1 1 1 1 1 1 1 1 1 1 1 1 1 1 1 1 1 1 1 1 1 1 1 1 1 1 1 1 1 1 1 1 1 1 1 1 1 1 1 1 1 1 1 1 1 1 1 1 1 1 1 1 1 1 1 1 1 1 1 1 1 1 1 1 1 1 1 1 1 1 1 1 1 1 1 1 1 1 1 1 1 1 1 1 1 1 1 1 1 1 1 1 1 1 1 1 1 1 1 1 1 1 1 1 1 1 1 1 1 1 1 1 1 1 1 1 1 1 1 1 1 1 1 1 1 1 1 1 1 1 1 1 1 1 1 1 1 1 1 1 1 1 1 1 1 1 1 1 1 1 1 1 1 1 1 1 1 1 1 1 1 1 0.0022585576004690005 1 1 1 0.002299337253100095 1 1 0.0023420859505894572 1 1 1 1 1 1 1 1 1 1 1 0.0023875873864298539 1 1 1 1 0.0024373176633869604 1 1 1 1 1 1 1 1 1 1 1 1 1 1 1 1 1 1 1 1 1 1 1 1 1 1 1 1 1 1 1 1 1 1 1 1 1 1 1 1 1 1 1 1 1 1 1 1 1 1 1 1 1 1 1 1 1 1 0.0010679527771059393 1 1 1 1 1 1 1 1 1 1 1 1 1 1 0.0010932819883775421 1 1 0.0010799427732571276 1 0.001108444541221688 1 1 1 1 1 1 1 1 1 1 1 1 1 0.001126085528708602 1 1 1 1 1 1 1 1 1 1 1 1 1 1 1 1 1 1 1 1 1 1 1 1 1 1 1 1 1 1 1 1 1 1 1 1 1 1 1 1 1 1 1 1 1 1 1 1 1 1 1 1 1 1 1 1 1 1 1 1 1 1 1 1 1 1 1 1 1 1 1 1 1 1 1 1 1 1 1 1 1 1 1 1 1 1 1 1 1 1 1 1 1 1 1 1 1 1 1 1 1 1 1 1 1 1 1 1 1 1 1 1 1 1 1 1 1 1 1 1 1 1 1 1 1 1 1 1 1 1 1 1 1 1 1 1 0.0010111443767436624 1 1 0.001027583561655103 1 0.0010376842301574995 1 1 1 1 1 1 1 1 1 1 1 1 1 1 1 1 1 1 1 1 1 1 1 1 1 1 1 1 1 1 1 1 1 1 1 1 1 1 1 1 1 1 1 1 1 1 1 0.0010571308212324292 1 1 1 1 1 0.0010472264535081452 1 1 1 1 1 1 1 
</DataArray>
<DataArray type="Float64" Name="displacement_divergence" format="ascii">
-3.2932711061517923e-05 -3.6693100239840147e-05 -2.7837652003240231e-05 -3.2124198135277316e-05 -3.0558586041607042e-05 -3.0541895358143575e-05 -2.8280554575724549e-05 -2.9788518818347432e-05 -2.7254435271754567e-05 -2.0625342512616356e-05 -3.0164720856408112e-05 -1.9350013827826582e-05 -3.6581365905478627e-05 -2.77585426097853e-05 -4.4334664466421378e-05 -3.4921308759209009e-05 -2.9949381539805176e-05 -3.2752729323957212e-05 -4.9428762522509237e-06 -8.8484420527483972e-06 -9.5471935783885434e-06 -1.6972658969224822e-05 -1.9924334756880576e-05 -1.2230950514507702e-05 -1.4258548998089212e-05 -1.8055937933025994e-05 -1.9505546789331292e-05 -1.7344414760142594e-05 -7.3003805878781898e-06 -8.6939137556227343e-06 -4.464364627204625e-06 -1.5771834150815426e-07 -1.6941182363540328e-06 -1.0786142098482437e-06 -8.76213965020419e-06 -1.9243777371459242e-05 -1.5800236371282507e-05 -9.6442500618781709e-06 -1.8159075949244855e-05 -2.1142642679296857e-05 -1.5111547832606212e-05 -9.8163141156191718e-06 -9.6216629674582361e-06 -1.8591524194301748e-06 -1.0086535671628605e-05 -5.7707689415249357e-06 5.2770593668291716e-06 -5.7344509698714955e-07 -4.404406501718833e-05 -3.3754650724750372e-05 -5.0554511579876047e-05 -3.3231916071358006e-05 -2.5768090345624819e-05 -2.7968328263780193e-05 -2.8406493365691375e-05 -3.1530707602847591e-05 -2.290925447812864e-05 -3.3948329099642185e-05 -2.6859426038693045e-05 -3.2192905413762925e-05 -4.5996691527842501e-05 -4.4131945742749618e-05 -4.1857806985674915e-05 -5.7532338423541541e-05 -6.0911513228601653e-05 -4.3206767609771583e-05 -4.9998848195553241e-05 -6.8353150389451056e-05 -5.1049626521881201e-05 -5.1737287894266873e-05 -5.3604926457060202e-05 -7.7637076932572104e-05 -2.8358844997670429e-05 -2.4096000962429403e-05 -3.9774638559024019e-05 -3.7282493912232517e-05 -2.4741979155852176e-05 -4.3501937870072039e-05 -3.8270272413719266e-05 -3.3102692520599042e-05 -2.3392053483479983e-05 -1.5076950910714078e-05 -1.4035118753818943e-05 -1.0946457603035481e-05 -5.8291705376283487e-06 -2.4205408824879348e-05 3.5116979640503803e-06 -1.2807918827036003e-06 -1.2613692214380782e-06 1.116020560073005e-05 5.6007912778335976e-06 3.0128442443338633e-06 1.3185856903589966e-05 1.8068249790505761e-05 -1.3007329121465642e-05 -1.8765041965136479e-05 -1.6627042325517686e-06 -5.2882116558618849e-06 -8.4113721312513895e-06 -1.3571764152271905e-05 1.8844503149130823e-06 -1.2262991232495065e-05 3.2774658962893564e-05 3.8511754660135223e-06 1.3605995215917546e-05 2.3921737991481338e-05 3.5070223029069328e-05 3.0203971405484841e-05 2.6643200184431771e-05 2.9153447845688943e-05 5.8771107422833375e-05 -4.3265990465346255e-07 9.4982959736423871e-06 1.1178888140697386e-05 -1.2169781541104536e-05 -1.4140676844290843e-05 -2.8902771958129122e-05 -3.7962734713698626e-05 -4.33843620418932e-05 -5.4173567395459336e-05 -7.7093151503395037e-05 -5.7309028388566362e-05 -5.5357988500388794e-05 -6.1381955194842047e-05 -4.9440587735899812e-05 -7.9770178593701843e-05 -5.7737089087733629e-05 -3.585670347093186e-05 -2.3794733891128776e-05 -3.8772077917291367e-05 5.4127515980017914e-05 4.6491365674764617e-05 4.2585887378015672e-05 4.5363345727662338e-05 5.2476641722827286e-05 6.1019152210403223e-05 5.4328666955414995e-05 5.1735412707381852e-05 5.5011985047426906e-05 5.1554059142007618e-05 4.3846124610440551e-05 5.2044261243731473e-05 4.8053374663418083e-05 5.199350650584073e-05 5.760021183918136e-05 0.00011132911145003346 5.0668538684365015e-05 7.4375629135431894e-05 4.6889100257523682e-05 0.00010285118382673638 6.5061027629641026e-05 0.00010036287892112474 5.8850561125115984e-05 5.0985550771823576e-05 6.0615231121773956e-05 3.8158358593408808e-05 3.7904546876552393e-05 5.2615926567214797e-05 4.1321798642245198e-05 5.3839695752465539e-05 3.159496852480171e-05 4.7203810639871163e-05 3.618136097268814e-05 3.3732314218938881e-05 2.416185554643902e-05 2.9390213278532755e-05 2.912952122049257e-05 2.7518456160999829e-05 1.68611231199826e-05 2.042253110005256e-05 1.7954769636901872e-05 1.2765442728446451e-05 8.5824846351661708e-06 2.8199274026220805e-05 2.6028924263630304e-05 2.4198982069563825e-05 2.1001291735970835e-05 2.9539731793199002e-05 2.6783322086886924e-05 3.5307349591664583e-05 3.3901059693910669e-05 3.3582033786763905e-05 3.8137812550857258e-05 3.3183411330785578e-05 4.5989337769929366e-05 4.1682652551951017e-05 3.8773713623237078e-05 4.9613507698758421e-05 3.6827974869749852e-05 6.338843730800991e-05 4.4596604010082826e-05 5.4960091722976696e-05 4.2369367255079511e-05 5.0342700940435943e-05 5.2904474734325853e-05 4.0747199487200896e-05 4.3634794036003584e-05 4.3675066823361438e-05 3.7447693116425212e-05 2.9943508234354173e-05 3.5202380237114899e-05 3.4967458420563641e-05 2.7886238600642299e-05 2.4898320276893024e-05 2.8658871300237294e-05 3.1658179808355075e-05 2.6989434493292038e-05 2.6498647333901702e-05 2.1685000663712066e-05 2.9410184554636687e-05 2.8328431999802732e-05 3.3309417108870158e-05 3.0457957175085906e-05 3.1314249571958056e-05 9.6388476051821152e-06 1.2843503649046204e-05 7.5758380818651518e-06 1.5735287668595539e-05 1.7225140722792751e-05 1.9545513392737156e-05 2.0999669682564123e-05 2.3213276656083455e-05 2.0991273819007191e-05 1.8249884691025022e-05 2.0761974658177415e-05 1.6532516867011251e-05 1.3421056584130548e-05 7.4538490435557695e-06 5.8638559368163324e-06 6.0371491052905568e-06 4.707744246992242e-07 3.7072248886866222e-06 4.1782919797894941e-07 3.9291553489085036e-06 1.0379096778993995e-05 9.5208209193422798e-06 1.1414913015593484e-05 1.4522857356806807e-05 1.6269884474795612e-05 1.9833609986561389e-05 1.7792174723441456e-05 1.4588118707351969e-05 1.495977207201044e-05 7.2253323822879794e-06 5.1951071159900834e-06 -1.0206708456142347e-06 2.9165659095618228e-05 2.8855738993467596e-05 2.4994938813157922e-05 2.4888669026398981e-05 2.1884176929614994e-05 2.520501745059941e-05 2.3719366744430524e-05 2.1469760981226059e-05 2.9011997953591462e-05 2.5739434972586689e-05 3.1220359463232986e-05 2.6164533694640597e-05 2.7836791865431021e-05 3.2430801177630762e-05 2.8910503277537503e-05 3.7419616556847246e-05 2.7505504055683343e-05 3.3341196207622318e-05 3.172428422751658e-05 3.1349916210787456e-05 2.8518402562153294e-05 3.3781349896001821e-05 2.8860577516547308e-05 2.8084719148405394e-05 2.5212687957756967e-05 3.0567502328382213e-05 2.9634437954788433e-05 3.7011529181018512e-05 3.6430219358709794e-05 2.7434849173580227e-05 3.0293652083797776e-05 2.945895856426257e-05 2.1016834628713815e-05 1.8409296228538084e-05 1.2203392287104058e-05 3.0612003302392171e-06 8.4405610679434486e-06 1.3859946438680286e-05 2.126721817041088e-05 7.78781510192353e-06 1.737174009178444e-05 2.314126216356868e-05 2.7778619096772946e-05 2.7704658908938626e-05 2.4614620617156297e-05 3.30684141595306e-05 1.732639895437058e-05 1.2669065640039936e-05 1.9220391854075347e-05 2.1810875851935035e-05 6.8789752989123346e-06 1.6984398446264838e-05 2.5275086829480947e-05 2.0685805562499149e-05 3.7740709483325545e-05 2.6742827915802331e-05 2.362803721551646e-05 3.1187292001210312e-05 3.0575965114450168e-05 3.5971715957781483e-05 4.8262324762020424e-05 4.1777326482588479e-05 4.4501904781118069e-05 3.5861252290297406e-05 4.0608695680317947e-05 4.7206908456906972e-05 3.8720587566327497e-05 4.4030892188856089e-05 3.5127202956401432e-05 3.4062188784670839e-05 3.2895056612198351e-05 3.637752328939882e-05 2.9286918299646696e-05 3.4515304075713289e-05 2.9195138771730338e-05 3.246902652042874e-05 2.9823662627695541e-05 3.2817570130012158e-05 3.55383958917028e-05 -6.4429992723883582e-05 -4.4313211518243757e-05 -4.7960552095595473e-05 -3.9069226120423013e-05 -3.4776251339890429e-05 -4.127160852308158e-05 -4.6686448294948113e-05 -4.0838422980503031e-05 -3.8595029078040681e-05 -3.4424351951902146e-05 -3.7087666666663069e-05 -3.7063325474853097e-05 -3.499062319944996e-05 -2.2708993233436876e-05 -3.4665960140702724e-05 -5.2904794997051636e-05 -2.152692074318788e-05 -4.121769982277612e-05 -2.1497705624781778e-05 -1.9537132226614375e-05 -2.1616249522228134e-05 -1.8428486579307286e-05 -2.183107401653902e-05 -9.8450517482605599e-06 -1.0847392800601327e-05 -5.1184775366835912e-06 -7.2611693594046509e-06 4.75976162034249e-06 8.9769824153875557e-06 -1.0824790283106713e-06 -4.8239469031230816e-06 -3.8989259439623131e-06 1.359962382188845e-06 1.0133608140663539e-05 -7.5414798025551826e-06 6.0243368732115519e-06 -1.2613794179530905e-06 -1.0519696200292483e-05 1.014921328315771e-05 -6.1926621013139245e-06 -2.48361118155038e-06 -3.0062320462069923e-05 -2.5057817236458926e-05 -2.3356244103031054e-05 -4.83983892389438e-06 -1.9269196155212754e-05 -3.7898256039816704e-05 -3.0811358787157496e-05 -4.5614510815377316e-05 -3.5084888298857965e-05 -4.7721396131504558e-05 -2.5218158471911078e-05 -4.1527868051763293e-05 -7.1965813371357998e-05 -7.6034001927520979e-05 -9.0411461903899988e-05 -6.4099569761870819e-05 -7.5474133722377656e-05 -4.6870483962441259e-05 -6.6846074919665757e-05 -4.4616802750658868e-05 -9.2280027703868175e-05 -0.00014168922741885333 -8.5472341716539082e-05 -8.8552188058218183e-05 -0.00011973623853497119 -0.0001037912717043635 -6.8901444283015349e-05 -8.0444491571208968e-05 -7.6114634325189851e-05 -4.4123658806295715e-05 -4.7606334716353143e-05 -3.6868462969150186e-05 -4.0281295115713825e-05 -6.0003745218115489e-05 -4.607966094502796e-05 -2.9604175323338065e-06 1.2578962408152643e-05 1.5627340103461186e-05 -3.0933320726451653e-05 -1.1472431314787703e-05 -3.544935862814116e-05 -1.9503521905623325e-05 -1.2918620926581047e-05 5.8086353336001753e-06 -1.2023907790589129e-05 6.1702960276905607e-06 2.6588277496496366e-05 1.4862326502320986e-05 3.348334007793717e-05 1.4216558595454147e-05 3.1403300786653591e-05 5.3130739129575363e-05 2.2017205698096732e-05 4.8961448775909617e-05 5.3771299882437971e-05 9.2445432951144418e-05 9.0738043950997068e-05 4.5107283677867031e-05 3.61630158346172e-05 9.695947218675094e-05 0.00016206818514818288 0.00014849789550512346 0.00016123059770318518 0.00010680523193748654 7.2752432160839813e-05 8.8537122409846334e-05 6.6055875515166472e-05 2.3491746278997091e-05 1.2974621685334629e-05 3.2727429387133895e-06 -1.8169138041647349e-05 4.5158575145563178e-05 -1.2813036946208312e-05 -5.5177924405351369e-05 -6.2451232070468354e-05 -2.914821608104726e-05 -4.6593914930551358e-05 -3.1416693875100103e-05 -7.5710907160052472e-05 -4.2462853250603149e-05 -6.246946579264198e-05 -9.3171495485446041e-05 -9.3502697122319805e-05 -0.00014249336624107484 -0.00010432679176552192 -0.00014807803001369384 -0.0001116803145638075 -8.1150669860577333e-05 -0.00010022466132200562 7.030527632122889e-05 7.7344692581998178e-05 8.1472545758467331e-05 7.5564846680224097e-05 6.9986135356015584e-05 5.9264057545674464e-05 5.2777835117658057e-05 6.6192476865842596e-05 4.6691095442772071e-05 5.4660360628051356e-05 3.9212986633813701e-05 5.3334440203352124e-05 4.5297639015572658e-05 5.5128637027523482e-05 5.9119878337777138e-05 5.182346207045006e-05 4.6125806753920595e-05 3.6272589780668423e-05 5.5737550028207169e-05 5.1953929650230368e-05 6.3904053469643565e-05 3.6152050832762162e-05 4.6018297686954221e-05 5.9368791903798136e-05 7.2634148157522678e-05 9.3323330846184868e-05 7.30460858823547e-05 7.9018721629928157e-05 7.8267945262480975e-05 9.7393433730995205e-05 0.0001115988159651781 0.00013863585643421312 0.00014949072784723491 0.00013637726927682149 0.00012019250693007016 0.00012817842291789854 0.00015465723059806627 0.0001499206399167305 0.0002618392243429749 0.0003232762716412221 0.00031218387198944978 0.0002117567076230744 0.00011386480200492603 0.00015122481250286302 0.00019548467100969209 0.00011555868323703325 0.0001228941231833215 0.00012767453877555614 9.035611652448952e-05 0.00011277720043052762 7.5019144013752795e-05 9.4852353100795055e-05 7.2167629899670769e-05 9.8794126143182844e-05 6.0677846755938338e-05 7.5831021810959532e-05 8.5047162741948838e-05 7.1147978291198079e-05 6.2585324146177129e-05 9.5165891877763376e-05 6.7383548641823204e-05 5.7657209996266057e-05 7.8061903382640202e-05 5.2986110229174405e-05 4.1568625585031808e-05 6.0599220337348349e-05 6.3097009593319434e-05 3.9238151830265624e-05 7.3838646474999408e-05 5.4311583301534815e-05 6.2809556795551981e-05 0.00010195103324442147 8.3790146181791317e-05 8.2268385035444763e-05 9.0842837432528293e-05 0.00012114673920188722 0.00012653751647603758 0.00015361825477784368 0.00034982261333617732 5.9296914468618203e-05 0.00015050089741510132 0.00032495199411776958 0.00020583342767128905 0.02003601705944134 0.00029708553974905545 0.00016091784471997908 0.049961609285113541 6.0111350301642952e-05 0.00015497317159034944 0.071224066512772188 7.672005503792296e-05 0.00011916116332872555 5.7496238071470395e-05 8.2784650900396758e-05 7.9209282607108186e-05 7.3644153279461431e-05 7.1986330280762983e-05 9.9286249119480982e-05 0.00010207253507599646 8.0830289100014487e-05 0.00011739495492367187 0.00014726819867570749 0.00015951935749173272 0.090478098256903589 0.00015556893824073773 0.00015073573896037828 0.00013542785996981934 0.00016666975678273927 0.00013092585802803344 0.1097409645745661 0.00015599187232900197 9.2924724170889575e-05 7.411883025132003e-05 0.000119384557819066 9.8678731523950186e-05 0.0001075209634922627 6.8849260665715471e-05 6.8749453256568564e-05 7.0848620960077828e-05 4.9649974427899357e-05 5.300192221465252e-05 4.0766758515906575e-05 4.3919453139723184e-05 3.9153872803819449e-05 4.702225306083187e-05 4.6960259722848125e-05 3.4509797301949239e-05 4.8209334948159444e-05 4.1243074912803118e-05 4.8078885362653643e-05 5.6575013461962888e-05 6.2833106186451626e-05 -7.8858367030474165e-05 -9.3245645424659945e-05 -5.591298871394923e-05 -0.00012353922917345819 -0.00012463317872813101 -7.767186338311642e-05 -8.042600262262692e-05 -4.5326299804695439e-05 -2.1261625052906635e-05 8.692460865531099e-06 -3.0889534665179842e-05 -1.4680216557798158e-05 -4.8908598213846799e-05 -1.4351614554995121e-05 5.4859238177646318e-05 2.0833306086407571e-05 8.7061996094965448e-05 2.3151107107768519e-05 -1.5045977169534947e-05 4.4697553227515105e-05 3.8387445097054615e-05 0.00011533708091632081 0.00017658307013426549 0.00013246907965480171 0.00014429793962786878 7.708173835853805e-05 0.00010290809912636605 0.00012241181283791352 6.404761435318961e-05 6.4252131251992233e-05 0.00010289789732767941 0.00010324920532709639 0.00011377064816847334 0.00010136515642398571 7.1770479832736992e-05 6.4863519511635173e-05 3.5506169239309397e-05 3.9992377836085315e-05 3.1654541953806369e-05 8.0875288638315723e-07 3.3419429847812319e-05 4.1781556691899459e-05 9.3643236232926474e-06 3.5480437778410805e-06 -2.3816272687427181e-05 -2.6924024031150552e-05 -2.6250168846984369e-05 -2.5804199435142811e-05 -4.8815427780742049e-08 1.1981142245659471e-06 -1.0030825035745299e-05 -2.3730172954148417e-05 -3.3004824631540676e-05 -5.1538332026687238e-05 -2.3919578868227508e-05 -3.9364775824325205e-05 -7.6082656961951739e-05 -5.6549018107700157e-05 -5.4909676693047854e-05 4.7393758776425384e-06 -1.4823325394410815e-05 1.5956199395771725e-06 -1.9136686843571928e-05 -1.7439331698884675e-05 -3.6710567610019444e-05 -3.1179557493063101e-05 -1.9923475172353971e-05 -8.9915673170994082e-06 -3.9910929496107458e-06 2.0618813399856176e-06 1.472399706851403e-05 1.5671187348968892e-05 -3.7311391977261354e-07 1.6915635572084704e-05 4.3262751548444646e-05 5.1571215154790507e-05 6.50801928769075e-05 1.867174554720779e-05 1.1925057156102203e-05 3.5806643602266089e-05 3.3768510998215427e-05 5.5136997034568901e-05 4.3904209363197777e-05 8.7324883079966309e-05 8.725533275052641e-05 6.9229853822509735e-05 9.8841359725191161e-05 0.00013430569741204341 0.00010909754841540928 0.0001331144440090185 7.8129677899607675e-05 0.00010044282655060927 0.00014103115941970293 0.00011532125703838433 0.00015179226965619406 0.00013202606541794573 0.00017506029068637546 0.00018809768543400981 0.00013222438067811039 0.00010334486452722759 4.0872970762990783e-05 5.1926790829688943e-05 6.686970999711557e-05 4.290588732041526e-05 8.4040316655231186e-05 5.8642904393370766e-05 7.9879284556640551e-05 2.3350113332064326e-05 1.6404232207674774e-06 1.8343932190743525e-05 1.2245055718954762e-05 2.1181032582198549e-05 1.8772426379749449e-05 1.0925812277044019e-05 2.2009116615677969e-05 1.3786690636762629e-05 8.7213619715791751e-06 1.1657299829362713e-05 9.9805284524967508e-06 7.3398172932091083e-06 1.1906251386999004e-05 4.8090615807332843e-06 5.1819245873102951e-06 -8.5568776659831342e-06 5.8922210578719707e-05 9.8526584289990887e-05 9.4477941057106302e-05 7.938832963007224e-05 5.0226826708609342e-05 3.6946674981689406e-05 3.4459439112414971e-05 4.5960901872974143e-05 3.5616410432546815e-05 3.5315415788944788e-05 5.920336419269279e-05 5.8854216764577102e-05 5.4844583427308058e-05 8.2109247143392905e-05 8.2474758069689294e-05 0.00011049919566420913 0.00014466653992057678 0.00017021811483051692 0.00012730766158757065 0.00015175296866995914 0.00019069470803470285 0.00015903264952376185 0.12937868381647763 0.00013890824629249994 0.00018222481676812528 0.00018253289473825962 0.1497555481261659 0.00019051355412489984 0.00020138584758515408 0.17123817091527158 0.000180644742792886 0.00012870298185922648 0.00019252625310630766 0.00012580722366091761 0.00014716052055022892 0.00016607077156260676 0.00013520379649413061 0.00022032009839651791 0.00022478746296643608 0.0001845201045874397 0.00022970649058574009 0.19366331490628172 0.00026408400329740547 0.00024877862934247468 0.0002133816289071384 0.00024090868173456438 0.21988924243596381 0.00029742483574610006 0.00025560033409007823 0.00013317459905326035 0.00024367752527176822 0.00028761365583036868 0.00023419473930763515 0.00015817699110815702 4.7453644480618539e-05 0.00010181495630632166 4.6853458897531025e-05 9.8567109070127231e-05 6.1599100550709649e-05 5.7096385710995665e-05 7.7292016961914151e-05 0.00010058594074608958 3.080122941589899e-05 4.1966497918745932e-05 3.0923924420428635e-05 4.8358182345292376e-05 2.3508871971853439e-05 2.0721736878364988e-05 -7.0658910690213131e-06 7.0884888892584329e-06 -1.6659873955336066e-05 4.2050593401482105e-06 1.3136471270380756e-05 6.7289563943475142e-06 4.9655977094303374e-05 1.3697811966696368e-05 2.1441341530585144e-05 5.5780585521023225e-05 2.7742856902747306e-05 3.3948533006801355e-05 4.7094609200444424e-05 5.4306162120955229e-05 2.3292394882275485e-05 3.0695346245302466e-05 2.4482658957693032e-05 3.1766823083228223e-05 3.1652401433056136e-05 3.4071083794224482e-05 3.2533930838631606e-05 2.8322691189974373e-05 3.5174184111203726e-05 3.3507271706229784e-05 4.6906275507176956e-05 6.0360528450801969e-05 4.0884579713680634e-05 3.4769857223957757e-05 4.0821350450116756e-05 5.2053897421274891e-05 3.8257115584292473e-05 2.9166915042795833e-05 3.7561988241712504e-05 3.039768566431609e-05 3.7720821317945063e-05 3.6037876966728478e-05 9.2576983700483079e-05 0.068003463400672384 9.5128423655773536e-05 8.0613656518273877e-05 7.0317738635618135e-05 4.8242198478739835e-05 5.4569845592835307e-05 5.632131560800996e-05 9.0091572470000375e-05 7.3845230825486663e-05 8.4924727580209245e-05 7.0221788274671968e-05 0.000109435310029015 0.00012726990120706487 9.6159822490187244e-05 9.7207025427789532e-05 0.093369883736081793 0.00010502650698804837 0.00010603769633663268 0.07999878237642806 0.00012669046735310895 0.1084885812908669 0.00015673263819812448 0.00014041661549957338 0.00012027604231298634 7.9097217030914269e-05 9.5375593473048673e-05 0.00013178621841047292 0.00010812462227125943 7.1933891115660148e-05 0.00014404561189799146 0.00017232428979698758 0.00013614091376523707 8.8717251774704802e-05 0.00014137978534114136 0.12639251864381407 0.00017867579022900256 0.00015159564056387801 0.00011268960356430359 7.7557463203623871e-05 7.773450332969052e-05 0.00010013284862790076 5.726558536274691e-05 2.6573665042781049e-05 2.3751413877473766e-05 3.8119083511644179e-05 4.868429368186768e-05 2.9514027470778489e-05 2.2919516345721973e-05 4.021372742491966e-05 7.4028047799040893e-05 8.721468336728589e-05 6.2799799969985321e-05 7.2123148522553089e-06 4.2855945505391492e-06 5.9071481647198607e-06 6.9386586462908892e-06 4.0617149326674026e-06 6.9379753134604649e-06 1.2877379916694139e-05 5.7109671493178366e-06 9.2065802639529876e-06 9.4177077134384793e-06 7.5419870402770005e-06 -3.2492286705875471e-06 9.3808407281323163e-06 6.3496632780547162e-06 1.3433463778505053e-06 -7.1389228630197935e-06 2.3031064248953126e-06 -1.3792102043786933e-05 1.0364667602535439e-06 -2.0273659260751798e-06 -1.3357107943740454e-05 -4.3035796875000309e-06 8.7850530458189087e-06 5.7323801792605149e-06 7.530778470733572e-06 -5.3733053741675398e-06 -4.3833848000487605e-06 7.8756106427690042e-06 -9.2126970258528135e-06 -1.386369474831034e-05 -1.9575638639897017e-05 -1.6820112284698756e-05 -2.8136616548590614e-05 -1.5216348663758643e-05 5.370471532665632e-05 4.4965840741997398e-05 6.9643005119145e-05 5.3763605116468726e-05 2.3216994156991487e-05 1.913866583058612e-05 3.4672274573399088e-05 2.8385384633798465e-05 1.9533159987534035e-05 1.425111585247156e-05 1.6166623268724575e-05 4.5740276095851753e-05 3.8136367198801993e-05 7.1024617262271722e-05 5.7606260729353449e-05 6.2812921666525415e-05 4.5885907697443534e-05 4.8840205716652934e-05 5.4039171653944614e-05 3.0280124939616095e-05 3.7423568782493297e-05 2.6792059840106947e-05 9.5179743357185626e-06 5.0265612472553178e-06 2.612909119131682e-05 1.2360935183736979e-05 2.166112479961626e-05 3.8499993085848797e-06 8.4970475695879139e-06 4.465144788345205e-05 5.1876579102460175e-05 5.0594902099481212e-05 2.4809892552754239e-05 4.1759632023496626e-05 -2.8532241573552344e-05 -3.83812928551084e-05 -3.0174758246783421e-05 -3.7646902172215526e-05 -2.2408315497744052e-05 -9.1666019955177931e-06 -1.9925583264011155e-05 -5.0811042775964193e-06 -6.6176334315075445e-06 -9.8775827416829661e-06 -7.6924732113391528e-06 -6.2359566833160328e-06 -1.7051371800601418e-05 -2.3892975736776066e-05 -2.5345261025199687e-05 -2.3809463026975555e-05 -4.0470250290995744e-05 -3.8530818520888057e-05 -4.7446056755373438e-05 -7.0317593211119845e-05 -5.6691214633652637e-05 -4.8084693179295914e-05 -3.7694431245759665e-05 -3.2615975846874172e-05 -1.2676270568190992e-05 -1.1814796369200584e-05 -5.0157212621944791e-06 -2.4467598104779321e-05 -2.0304908777821266e-05 -3.1778081882668987e-05 -3.2677608530575321e-05 -4.8573167525658273e-05 -4.6067129871818274e-05 -6.9703049505581011e-05 2.939024685756934e-05 6.4848116849742067e-05 2.8951428154673907e-05 2.0901186412667348e-05 2.2105510444389142e-06 7.2682044060190737e-06 2.6605540786165516e-05 1.1203857058205433e-05 -1.7156316566891133e-05 -5.893322984113839e-06 9.9679364192071986e-06 3.7118835551041922e-05 3.792727611262581e-05 6.8305388142769882e-05 0.00011979475798210029 8.871505554734337e-06 0.00014472129502602704 0.011227630753583365 6.1658946519014586e-05 6.5002726328294315e-05 0.027602806965031809 9.1993089614839053e-05 0.037715250996974495 7.2678126349156246e-05 6.2044362541287821e-05 2.1995233544193176e-05 1.5716708955502414e-05 2.6400470905134485e-05 -3.5745995122207406e-06 3.7040556813743752e-05 1.2746866141313351e-05 6.6764598568391846e-05 3.4494413650589068e-05 2.5262545774885615e-05 4.6519274728610026e-05 3.9697410584089835e-05 4.6808821634412921e-05 5.8270785386806611e-05 5.795605295479578e-05 4.8441461172080347e-05 3.9971231649704546e-05 3.8640545366300076e-05 3.501238089810083e-05 3.1704852931646976e-05 2.7919187180957828e-05 3.2012567290525418e-05 2.8522267225111189e-05 2.8129180133892612e-05 2.9845634236919029e-05 3.1271924930728178e-05 3.3370297265186168e-05 3.6137841383520903e-05 3.6564937611742367e-05 3.2267589559077604e-05 3.3881098044796792e-05 3.575244849127515e-05 3.0130587148399952e-05 2.9255610587873072e-05 3.7416260739139842e-05 3.702869983414689e-05 3.6140039885578499e-05 3.0985614479441169e-05 3.2737733787128087e-05 3.8475913527863002e-05 4.4282669898393356e-05 5.1288841663491643e-05 4.2602267380219185e-05 4.1406938531595881e-05 5.8297213851539681e-05 8.4697641007781908e-05 0.057171452295963057 6.2093220917218373e-05 7.8806805295371677e-05 7.3332054095682315e-05 8.0861467356941772e-05 4.0741647284167517e-05 0.04725905920802774 7.2643332538318119e-05 5.7211050566733463e-05 7.9867624942094777e-05 3.1542381847256963e-05 2.6435925160616275e-05 2.9965697745325346e-05 4.2066955156918186e-05 
</DataArray>
</CellData>
</Piece>
</UnstructuredGrid>
</VTKFile>
